
     Program PWSCF v.7.6 starts on  6Aug2026 at 15:30: 7 

     This program is part of the open-source Quantum ESPRESSO suite
     for quantum simulation of materials; please cite
         "P. Giannozzi et al., J. Phys.:Condens. Matter 21 395502 (2009);
         "P. Giannozzi et al., J. Phys.:Condens. Matter 29 465901 (2017);
         "P. Giannozzi et al., J. Chem. Phys. 152 154105 (2020);
          URL http://www.quantum-espresso.org", 
     in publications or presentations arising from this work. More details at
     http://www.quantum-espresso.org/quote

     Parallel version (MPI), running on     4 processors

     MPI processes distributed on     1 nodes
     2928 MiB available memory on the printing compute node when the environment starts

     Reading input from /home/linuxuser/ni_al_dft_work/cloud_static_inputs/diverse_pilot_01/AlNi3/iso_m02/AlNi3_iso_m02.in

     Current dimensions of program PWSCF are:
     Max number of different atomic species (ntypx) = 10
     Max number of k-points (npk) =  40000
     Max angular momentum in pseudopotentials (lmaxx) =  4
     file Al.pbe-n-kjpaw_psl.1.0.0.UPF: wavefunction(s)  3S 3P renormalized

     IMPORTANT: XC functional enforced from input :
     Exchange-correlation= PBE
                           (   1   4   3   4   0   0   0)
     Any further DFT definition will be discarded
     Please, verify this is what you really want

     Message from routine setup:
     using ibrav=0 with symmetry is DISCOURAGED, use correct ibrav instead

     K-points division:     npool     =       2
     R & G space division:  proc/nbgrp/npool/nimage =       2
     Subspace diagonalization in iterative solution of the eigenvalue problem:
     a serial algorithm will be used


     Parallelization info
     --------------------
     sticks:   dense  smooth     PW     G-vecs:    dense   smooth      PW
     Min        1250     622    186                46990    16637    2688
     Max        1251     623    187                46991    16638    2689
     Sum        2501    1245    373                93981    33275    5377

     Using Slab Decomposition



     bravais-lattice index     =            0
     lattice parameter (alat)  =       6.6063  a.u.
     unit-cell volume          =     288.3431 (a.u.)^3
     number of atoms/cell      =            4
     number of atomic types    =            2
     number of electrons       =        57.00
     number of Kohn-Sham states=           35
     kinetic-energy cutoff     =      90.0000  Ry
     charge density cutoff     =     720.0000  Ry
     scf convergence threshold =      1.0E-10
     mixing beta               =       0.3000
     number of iterations used =            8  plain     mixing
     Exchange-correlation= PBE
                           (   1   4   3   4   0   0   0)

     celldm(1)=   6.606323  celldm(2)=   0.000000  celldm(3)=   0.000000
     celldm(4)=   0.000000  celldm(5)=   0.000000  celldm(6)=   0.000000

     crystal axes: (cart. coord. in units of alat)
               a(1) = (   1.000000   0.000000  -0.000000 )  
               a(2) = (   0.000000   1.000035   0.000000 )  
               a(3) = (   0.000000   0.000000   1.000035 )  

     reciprocal axes: (cart. coord. in units 2 pi/alat)
               b(1) = (  1.000000  0.000000  0.000000 )  
               b(2) = ( -0.000000  0.999965  0.000000 )  
               b(3) = (  0.000000 -0.000000  0.999965 )  


     PseudoPot. # 1 for Al read from file:
     /home/linuxuser/ni_al_dft_work/cloud_static_inputs/pseudo/Al.pbe-n-kjpaw_psl.1.0.0.UPF
     MD5 check sum: cfc449ca30b5f3223ec38ddd88ac046d
     Pseudo is Projector augmented-wave + core cor, Zval =  3.0
     Generated using "atomic" code by A. Dal Corso  v.5.1
     Shape of augmentation charge: PSQ
     Using radial grid of 1135 points,  6 beta functions with: 
                l(1) =   0
                l(2) =   0
                l(3) =   1
                l(4) =   1
                l(5) =   2
                l(6) =   2
     Q(r) pseudized with 0 coefficients 


     PseudoPot. # 2 for Ni read from file:
     /home/linuxuser/ni_al_dft_work/cloud_static_inputs/pseudo/ni_pbe_v1.4.uspp.F.UPF
     MD5 check sum: 1ee80287db30b12d2bc1f57a5b5d6409
     Pseudo is Ultrasoft + core correction, Zval = 18.0
     Generated by new atomic code, or converted to UPF format
     Using radial grid of  865 points,  6 beta functions with: 
                l(1) =   0
                l(2) =   0
                l(3) =   1
                l(4) =   1
                l(5) =   2
                l(6) =   2
     Q(r) pseudized with 10 coefficients,  rinner =    0.980   0.980   0.980
                                                       0.980   0.980

     atomic species   valence    mass     pseudopotential
     Al                3.00    26.98154     Al( 1.00)
     Ni               18.00    58.69340     Ni( 1.00)

     Starting magnetic structure 
     atomic species   magnetization
     Al              0.000
     Ni              0.600

     16 Sym. Ops., with inversion, found



   Cartesian axes

     site n.     atom                  positions (alat units)
         1        Al     tau(   1) = (   0.0000000   0.0000000   0.0000000  )
         2        Ni     tau(   2) = (   0.0000000   0.5000174   0.5000173  )
         3        Ni     tau(   3) = (   0.5000000   0.0000000   0.5000173  )
         4        Ni     tau(   4) = (   0.5000000   0.5000174   0.0000000  )

     number of k points=   288  Marzari-Vanderbilt smearing, width (Ry)=  0.0100

     Number of k-points >= 100: set verbosity='high' to print them.

     Dense  grid:    93981 G-vectors     FFT dimensions: (  60,  60,  60)

     Smooth grid:    33275 G-vectors     FFT dimensions: (  40,  40,  40)

     Estimated max dynamical RAM per process >     446.88 MB

     Estimated total dynamical RAM >       1.70 GB

     Check: negative core charge=   -0.000004
     Generating pointlists ...
     new r_m :   0.2917 (alat units)  1.9270 (a.u.) for type    1
     new r_m :   0.2917 (alat units)  1.9270 (a.u.) for type    2

     Initial potential from superposition of free atoms

     starting charge      50.9977, renormalised to      57.0000
     Starting wfcs are   43 randomized atomic wfcs
     Checking if some PAW data can be deallocated... 

     total cpu time spent up to now is       10.4 secs

     Self-consistent Calculation

     iteration #  1     ecut=    90.00 Ry     beta= 0.30
     Davidson diagonalization with overlap
     ethr =  1.00E-02,  avg # of iterations =  6.1

     total cpu time spent up to now is       45.8 secs

     total energy              =   -1034.39327545 Ry
     estimated scf accuracy    <     143.14183703 Ry

     total magnetization       =     5.77 Bohr mag/cell
     absolute magnetization    =     6.09 Bohr mag/cell

     iteration #  2     ecut=    90.00 Ry     beta= 0.30
     Davidson diagonalization with overlap
     ethr =  1.00E-02,  avg # of iterations =  4.2

     total cpu time spent up to now is       79.5 secs

     total energy              =   -1065.54019595 Ry
     estimated scf accuracy    <      25.13961969 Ry

     total magnetization       =     0.77 Bohr mag/cell
     absolute magnetization    =     2.48 Bohr mag/cell

     iteration #  3     ecut=    90.00 Ry     beta= 0.30
     Davidson diagonalization with overlap
     ethr =  1.00E-02,  avg # of iterations =  2.0

     total cpu time spent up to now is      100.6 secs

     total energy              =   -1068.75957761 Ry
     estimated scf accuracy    <       3.54689949 Ry

     total magnetization       =     4.23 Bohr mag/cell
     absolute magnetization    =     5.81 Bohr mag/cell

     iteration #  4     ecut=    90.00 Ry     beta= 0.30
     Davidson diagonalization with overlap
     ethr =  6.22E-03,  avg # of iterations =  1.6

     total cpu time spent up to now is      119.3 secs

     total energy              =   -1069.30734795 Ry
     estimated scf accuracy    <       1.15976872 Ry

     total magnetization       =     2.53 Bohr mag/cell
     absolute magnetization    =     4.03 Bohr mag/cell

     iteration #  5     ecut=    90.00 Ry     beta= 0.30
     Davidson diagonalization with overlap
     ethr =  2.03E-03,  avg # of iterations =  2.1

     total cpu time spent up to now is      138.8 secs

     total energy              =   -1069.42116310 Ry
     estimated scf accuracy    <       0.22680765 Ry

     total magnetization       =     1.71 Bohr mag/cell
     absolute magnetization    =     2.99 Bohr mag/cell

     iteration #  6     ecut=    90.00 Ry     beta= 0.30
     Davidson diagonalization with overlap
     ethr =  3.98E-04,  avg # of iterations =  2.2

     total cpu time spent up to now is      158.8 secs

     total energy              =   -1069.45383150 Ry
     estimated scf accuracy    <       0.17607536 Ry

     total magnetization       =     0.86 Bohr mag/cell
     absolute magnetization    =     1.75 Bohr mag/cell

     iteration #  7     ecut=    90.00 Ry     beta= 0.30
     Davidson diagonalization with overlap
     ethr =  3.09E-04,  avg # of iterations =  1.0

     total cpu time spent up to now is      176.7 secs

     total energy              =   -1069.43713398 Ry
     estimated scf accuracy    <       0.07454885 Ry

     total magnetization       =     0.82 Bohr mag/cell
     absolute magnetization    =     1.60 Bohr mag/cell

     iteration #  8     ecut=    90.00 Ry     beta= 0.30
     Davidson diagonalization with overlap
     ethr =  1.31E-04,  avg # of iterations =  2.4

     total cpu time spent up to now is      198.0 secs

     total energy              =   -1069.44623977 Ry
     estimated scf accuracy    <       0.05444036 Ry

     total magnetization       =     0.89 Bohr mag/cell
     absolute magnetization    =     1.40 Bohr mag/cell

     iteration #  9     ecut=    90.00 Ry     beta= 0.30
     Davidson diagonalization with overlap
     ethr =  9.55E-05,  avg # of iterations =  1.8

     total cpu time spent up to now is      218.6 secs

     total energy              =   -1069.46056835 Ry
     estimated scf accuracy    <       0.01166351 Ry

     total magnetization       =     0.73 Bohr mag/cell
     absolute magnetization    =     1.12 Bohr mag/cell

     iteration # 10     ecut=    90.00 Ry     beta= 0.30
     Davidson diagonalization with overlap
     ethr =  2.05E-05,  avg # of iterations =  1.4

     total cpu time spent up to now is      236.6 secs

     total energy              =   -1069.45918135 Ry
     estimated scf accuracy    <       0.00621688 Ry

     total magnetization       =     0.75 Bohr mag/cell
     absolute magnetization    =     1.04 Bohr mag/cell

     iteration # 11     ecut=    90.00 Ry     beta= 0.30
     Davidson diagonalization with overlap
     ethr =  1.09E-05,  avg # of iterations =  2.0

     total cpu time spent up to now is      257.5 secs

     total energy              =   -1069.46022877 Ry
     estimated scf accuracy    <       0.00012145 Ry

     total magnetization       =     0.77 Bohr mag/cell
     absolute magnetization    =     0.98 Bohr mag/cell

     iteration # 12     ecut=    90.00 Ry     beta= 0.30
     Davidson diagonalization with overlap
     ethr =  2.13E-07,  avg # of iterations =  3.1

     total cpu time spent up to now is      278.5 secs

     total energy              =   -1069.46024285 Ry
     estimated scf accuracy    <       0.00002533 Ry

     total magnetization       =     0.77 Bohr mag/cell
     absolute magnetization    =     0.98 Bohr mag/cell

     iteration # 13     ecut=    90.00 Ry     beta= 0.30
     Davidson diagonalization with overlap
     ethr =  4.44E-08,  avg # of iterations =  1.4

     total cpu time spent up to now is      296.6 secs

     total energy              =   -1069.46024581 Ry
     estimated scf accuracy    <       0.00000321 Ry

     total magnetization       =     0.78 Bohr mag/cell
     absolute magnetization    =     0.98 Bohr mag/cell

     iteration # 14     ecut=    90.00 Ry     beta= 0.30
     Davidson diagonalization with overlap
     ethr =  5.63E-09,  avg # of iterations =  1.8

     total cpu time spent up to now is      316.3 secs

     total energy              =   -1069.46024617 Ry
     estimated scf accuracy    <       0.00000115 Ry

     total magnetization       =     0.78 Bohr mag/cell
     absolute magnetization    =     0.98 Bohr mag/cell

     iteration # 15     ecut=    90.00 Ry     beta= 0.30
     Davidson diagonalization with overlap
     ethr =  2.02E-09,  avg # of iterations =  1.6

     total cpu time spent up to now is      337.1 secs

     total energy              =   -1069.46024648 Ry
     estimated scf accuracy    <       0.00000004 Ry

     total magnetization       =     0.78 Bohr mag/cell
     absolute magnetization    =     0.97 Bohr mag/cell

     iteration # 16     ecut=    90.00 Ry     beta= 0.30
     Davidson diagonalization with overlap
     ethr =  7.73E-11,  avg # of iterations =  2.6

     total cpu time spent up to now is      357.7 secs

     total energy              =   -1069.46024651 Ry
     estimated scf accuracy    <       0.00000003 Ry

     total magnetization       =     0.78 Bohr mag/cell
     absolute magnetization    =     0.97 Bohr mag/cell

     iteration # 17     ecut=    90.00 Ry     beta= 0.30
     Davidson diagonalization with overlap
     ethr =  5.27E-11,  avg # of iterations =  1.3

     total cpu time spent up to now is      375.6 secs

     total energy              =   -1069.46024651 Ry
     estimated scf accuracy    <       0.00000004 Ry

     total magnetization       =     0.78 Bohr mag/cell
     absolute magnetization    =     0.97 Bohr mag/cell

     iteration # 18     ecut=    90.00 Ry     beta= 0.30
     Davidson diagonalization with overlap
     ethr =  5.27E-11,  avg # of iterations =  1.7

     total cpu time spent up to now is      395.0 secs

     total energy              =   -1069.46024652 Ry
     estimated scf accuracy    <          4.3E-09 Ry

     total magnetization       =     0.78 Bohr mag/cell
     absolute magnetization    =     0.97 Bohr mag/cell

     iteration # 19     ecut=    90.00 Ry     beta= 0.30
     Davidson diagonalization with overlap
     ethr =  7.51E-12,  avg # of iterations =  2.0

     total cpu time spent up to now is      416.0 secs

     total energy              =   -1069.46024652 Ry
     estimated scf accuracy    <          2.4E-09 Ry

     total magnetization       =     0.78 Bohr mag/cell
     absolute magnetization    =     0.97 Bohr mag/cell

     iteration # 20     ecut=    90.00 Ry     beta= 0.30
     Davidson diagonalization with overlap
     ethr =  4.13E-12,  avg # of iterations =  1.4

     total cpu time spent up to now is      434.1 secs

     total energy              =   -1069.46024652 Ry
     estimated scf accuracy    <          4.5E-10 Ry

     total magnetization       =     0.78 Bohr mag/cell
     absolute magnetization    =     0.97 Bohr mag/cell

     iteration # 21     ecut=    90.00 Ry     beta= 0.30
     Davidson diagonalization with overlap
     ethr =  7.86E-13,  avg # of iterations =  2.0

     Magnetic moment per site  (integrated on atomic sphere of radius R)
     atom   1 (R=0.292)  charge=  1.2867  magn= -0.0182
     atom   2 (R=0.292)  charge= 16.7811  magn=  0.2876
     atom   3 (R=0.292)  charge= 16.7811  magn=  0.2876
     atom   4 (R=0.292)  charge= 16.7811  magn=  0.2876

     total cpu time spent up to now is      454.3 secs

     End of self-consistent calculation

     Number of k-points >= 100: set verbosity='high' to print the bands.

     the Fermi energy is    16.7101 ev

!    total energy              =   -1069.46024652 Ry
     estimated scf accuracy    <          1.0E-11 Ry
     smearing contrib. (-TS)   =       0.00044598 Ry
     internal energy E=F+TS    =   -1069.46069250 Ry

     The total energy is F=E-TS. E is the sum of the following terms:
     one-electron contribution =    -678.71482950 Ry
     hartree contribution      =     374.85055776 Ry
     xc contribution           =    -109.61049911 Ry
     ewald contribution        =    -621.29152402 Ry
     one-center paw contrib.   =     -34.69439763 Ry

     total magnetization       =     0.78 Bohr mag/cell
     absolute magnetization    =     0.97 Bohr mag/cell

     convergence has been achieved in  21 iterations

     Forces acting on atoms (cartesian axes, Ry/au):

     atom    1 type  1   force =     0.00000000    0.00000000    0.00000000
     atom    2 type  2   force =     0.00000000    0.00000000    0.00000000
     atom    3 type  2   force =     0.00000000    0.00000000    0.00000000
     atom    4 type  2   force =     0.00000000    0.00000000    0.00000000

     Total force =     0.000000     Total SCF correction =     0.000000


     Computing stress (Cartesian axis) and pressure

          total   stress  (Ry/bohr**3)                   (kbar)     P=      127.18
   0.00086473   0.00000000   0.00000000          127.21        0.00        0.00
   0.00000000   0.00086447   0.00000000            0.00      127.17        0.00
   0.00000000   0.00000000   0.00086447            0.00        0.00      127.17


     Writing all to output data dir /home/linuxuser/ni_al_dft_work/cloud_static_inputs/diverse_pilot_01/AlNi3/iso_m02/tmp/AlNi3_iso_m02.save/ :
     XML data file, charge density, pseudopotentials, collected wavefunctions

     init_run     :      9.39s CPU     10.19s WALL (       1 calls)
     electrons    :    422.32s CPU    443.97s WALL (       1 calls)
     forces       :      1.77s CPU      1.85s WALL (       1 calls)
     stress       :      6.94s CPU      7.24s WALL (       1 calls)

     Called by init_run:
     wfcinit      :      8.27s CPU      8.88s WALL (       1 calls)
     potinit      :      0.50s CPU      0.59s WALL (       1 calls)
     hinit0       :      0.44s CPU      0.46s WALL (       1 calls)

     Called by electrons:
     c_bands      :    354.53s CPU    369.16s WALL (      21 calls)
     sum_band     :     58.54s CPU     63.09s WALL (      21 calls)
     v_of_rho     :      1.42s CPU      1.67s WALL (      22 calls)
     newd         :      2.19s CPU      3.66s WALL (      22 calls)
     PAW_pot      :      5.84s CPU      6.72s WALL (      22 calls)
     mix_rho      :      0.15s CPU      0.16s WALL (      21 calls)

     Called by c_bands:
     init_us_2    :      7.34s CPU      7.42s WALL (   12960 calls)
     cegterg      :    305.56s CPU    319.98s WALL (    6048 calls)

     Called by *egterg:
     cdiaghg      :     15.56s CPU     15.70s WALL (   18630 calls)
     h_psi        :    230.88s CPU    244.97s WALL (   18918 calls)
     s_psi        :     12.76s CPU     12.88s WALL (   18918 calls)
     g_psi        :      1.87s CPU      1.88s WALL (   12582 calls)

     Called by h_psi:
     h_psi:calbec :     15.43s CPU     16.19s WALL (   18918 calls)
     vloc_psi     :    201.39s CPU    214.58s WALL (   18918 calls)
     add_vuspsi   :     12.97s CPU     13.10s WALL (   18918 calls)

     General routines
     calbec       :     25.94s CPU     27.06s WALL (   29862 calls)
     fft          :      0.74s CPU      0.82s WALL (     588 calls)
     ffts         :      0.16s CPU      0.17s WALL (      86 calls)
     fftw         :    222.03s CPU    236.49s WALL ( 1205270 calls)
     interpolate  :      0.19s CPU      0.20s WALL (      44 calls)

     Parallel routines

     PWSCF        :   7m20.89s CPU   7m44.30s WALL


   This run was terminated on:  15:37:51   6Aug2026            

=------------------------------------------------------------------------------=
   JOB DONE.
=------------------------------------------------------------------------------=
Note: The following floating-point exceptions are signalling: IEEE_UNDERFLOW_FLAG IEEE_DENORMAL
Note: The following floating-point exceptions are signalling: IEEE_UNDERFLOW_FLAG IEEE_DENORMAL
Note: The following floating-point exceptions are signalling: IEEE_UNDERFLOW_FLAG IEEE_DENORMAL
Note: The following floating-point exceptions are signalling: IEEE_UNDERFLOW_FLAG IEEE_DENORMAL
