8
Lattice="3.939693665660215 0.0 0.0 0.017795700877983666 5.007682305549902 0.0 0.013956132995520634 -0.6012669482404674 4.889629358611633" Properties=species:S:1:pos:R:3:masses:R:1:momenta:R:3:id:I:1:type:I:1 comment="LAMMPS data file via write_data, version 22 Jul 2025, timestep = 30064, units = metal" config_id=Al3Ni5_stageD_post_npt source="Stage D primitive-cell MD endpoint (300K NPT endpoint (t=30ps, primitive)), 300K/1fs, mliap unified Kokkos" pbc="T T T"
Al      -0.03621109       2.27910464       2.46029431      26.98153850       0.45584214      -0.01865425      -0.53370785        1        1
Al       1.92683121       0.65967830       3.94653687      26.98153850       1.03510385      -0.09190640       2.42438522        2        1
Al       1.90666675       3.75323038       1.17610421      26.98153850       1.07483513      -1.01629165       0.57341353        3        1
Ni      -0.08578417      -0.02568388      -0.00909937      58.69340000       0.38028345       1.86035477       1.10835723        4        2
Ni      -0.02931054       2.56635613      -0.01202578      58.69340000      -1.39175360      -1.81741710      -0.58559258        5        2
Ni      -0.27198033      -0.29314291       2.50306862      58.69340000      -0.38918904      -0.95302951       0.73881872        6        2
Ni       2.04463475       1.10272741       1.47408645      58.69340000      -0.55754645       1.72859412      -1.29197101        7        2
Ni       1.85133525       3.23457024       3.55173098      58.69340000      -0.60757548       0.30835002      -2.43370326        8        2
