16
Lattice="4.8620417192266565 0.0 0.0 -0.03975557973052816 6.700461091594627 0.0 0.009956812664274249 -0.19992301874355065 7.295943036082935" Properties=species:S:1:pos:R:3:masses:R:1:momenta:R:3:id:I:1:type:I:1 comment="LAMMPS data file via write_data, version 22 Jul 2025, timestep = 30078, units = metal" config_id=Al3Ni_stageD_post_npt source="Stage D primitive-cell MD endpoint (300K NPT endpoint (t=30ps, primitive)), 300K/1fs, mliap unified Kokkos" pbc="T T T"
Al       4.34076848      -0.07666568       1.82801994      26.98153850       0.31140444      -0.36696626       0.31659833        1        1
Al       1.62251249       1.01638590       3.36804630      26.98153850       1.14463538       0.88636385       0.03297274        2        1
Al       1.81112026       1.04234129       0.48735730      26.98153850       0.77758111      -0.13495971      -0.16775816        3        1
Al       4.04604631       2.16075476       4.08012807      26.98153850       0.53199812      -0.27099840       0.18009054        4        1
Al       0.59639288       4.44104142       3.35777508      26.98153850      -0.23809546      -0.28346565      -1.00572694        5        1
Al       3.17321320       5.35390858       6.93803878      26.98153850       1.71808015       1.06875087      -0.39870998        6        1
Al       0.65487771       4.38917643       0.45024265      26.98153850       0.90304553       0.99521470      -1.20680433        7        1
Al       2.97185539       5.45864374       4.10842435      26.98153850      -0.60307724      -0.07113472       0.78374883        8        1
Al       4.28632499       1.97597415       6.98819157      26.98153850      -0.90710202      -1.64474712       0.14175708        9        1
Al       2.73415784       3.40683841       1.82445402      26.98153850      -0.39398519       1.41515298       0.11177440       10        1
Al       0.30565074       6.42523025       5.50929720      26.98153850       0.15871920      -0.40514892      -1.12454533       11        1
Al       1.90198400       3.15401564       5.51281329      26.98153850      -0.67857090      -0.48341174      -0.27549227       12        1
Ni       2.13946717       5.71735390       1.86151882      58.69340000      -2.22264426       0.35267540       1.48504790       13        2
Ni       0.22811639       2.31600855       1.78863232      58.69340000       1.07818177       1.11717926      -0.61875893       14        2
Ni       2.78132172       0.77669669       5.51771361      58.69340000      -1.92179561      -1.98896461       0.95631737       15        2
Ni       4.59390737       3.94008689       5.52456558      58.69340000       0.34162498      -0.18553992       0.78948877       16        2
