8
Lattice="3.7983533327816748 0.0 0.0 2.453284078115691e-12 5.003499474405926 0.0 3.509757832497549e-12 -0.7204513498627717 4.951359090370898" Properties=species:S:1:pos:R:3:masses:R:1:momenta:R:3:id:I:1:type:I:1 comment="LAMMPS data file via write_data, version 22 Jul 2025, timestep = 15064, units = metal" config_id=Al3Ni5_stageD_post_nvt source="Stage D primitive-cell MD endpoint (300K NVT endpoint (t=15ps, primitive)), 300K/1fs, mliap unified Kokkos" pbc="T T T"
Al      -0.00045403       2.07361364       2.60627100      26.98153850      -0.02035113      -0.39052326       0.10070417        1        1
Al       1.90037695       0.50287600       3.84935163      26.98153850      -1.14325864       0.57033561      -0.40426847        2        1
Al       1.84780193       3.82978187       1.13479002      26.98153850      -0.99983554      -1.52858222       0.99145582        3        1
Ni      -0.05810905       0.02187681       0.00890386      58.69340000       2.08927368      -2.26332349      -0.47197965        4        2
Ni      -0.03885858       2.56348940       0.01521811      58.69340000       0.20876537       2.27231576      -0.91456445        5        2
Ni       0.01502516      -0.36057480       2.45188256      58.69340000       0.07368611      -0.86514007      -1.30620801        6        2
Ni       1.90134706       1.19827526       1.39593474      58.69340000      -0.27488980       1.03326001       1.40983954        7        2
Ni       1.88724960       3.03633889       3.57065452      58.69340000       0.06660995       1.17165767       0.59502104        8        2
