5
Lattice="3.9760689504528615 0.0 0.0 -2.129589165388743 3.466274707173655 0.0 -0.11406286372665041 0.2619430642504063 4.9979296389618995" Properties=species:S:1:pos:R:3:masses:R:1:momenta:R:3:id:I:1:type:I:1 comment="LAMMPS data file via write_data, version 22 Jul 2025, timestep = 30046, units = metal" config_id=Al3Ni2_stageD_post_npt source="Stage D primitive-cell MD endpoint (300K NPT endpoint (t=30ps, primitive)), 300K/1fs, mliap unified Kokkos" pbc="T T T"
Al       0.03586213       0.03315494      -0.10453924      26.98153850      -0.23205810      -0.21911821      -0.73956727        1        1
Al      -0.09716643       2.39358734       3.18696896      26.98153850       0.42487782       0.88664775      -0.10348608        2        1
Al       1.90446163       1.22928108       1.74176653      26.98153850       0.80760271       1.58025148      -0.40849832        3        1
Ni      -0.10268556       2.38236175       0.71991021      58.69340000       0.18858428      -3.09538025       0.88312012        4        2
Ni       1.90052519       1.44110090       4.20571137      58.69340000      -1.18900671       0.84759922       0.36843156        5        2
