LAMMPS data file via write_data, version 22 Jul 2025, timestep = 15000, units = metal

135 atoms
2 atom types

0.015171574740545424 12.139432560459747 xlo xhi
-0.050600475328906214 10.576796428942531 ylo yhi
-0.01213543986672061 14.704998984744655 zlo zhi
-6.102666218987989 0.05761825207584594 -0.012442369913546475 xy xz yz

Masses

1 26.98153849305915
2 58.69339998490145

Atoms # atomic/kk

1 1 -6.003341732551184 10.563958385220703 14.69170417820718 0 -1 -1
2 1 -0.0058036103089541755 2.2732853224227436 3.159718907886107 0 0 0
3 1 2.06880870716782 0.9356590024389055 1.7382052766893907 0 0 0
4 2 0.09990336906602304 2.2395455404926077 0.7020110713566066 0 0 0
5 2 2.1001889774363915 1.0626977520140686 4.202611747575638 0 0 0
6 1 6.022321972342562 10.48646809096377 4.856504004304987 -1 -1 0
7 1 -0.030598462294557136 2.3488694964646917 8.012418345905289 0 0 0
8 1 1.985666746662378 1.1767687921578842 6.555864853005015 0 0 0
9 2 -0.08458936908394857 2.266206563513023 5.576432626619586 0 0 0
10 2 2.066321203446254 1.2075487631885653 9.001895384641324 0 0 0
11 1 12.12759595831578 0.0032980421209939173 9.649844773796675 -1 0 0
12 1 0.08524390714675809 2.3204434287260614 12.943540545735074 0 0 0
13 1 2.0673659392981603 1.1929405951347103 11.422558315276886 0 0 0
14 2 -0.014809059981432397 2.2893986939484923 10.388668443454725 0 0 0
15 2 2.0866653115503686 1.0234749926877031 13.907379824654425 0 0 0
16 1 10.106366301680488 3.4676108220805424 0.0455483206710827 -1 0 0
17 1 -2.044237631337785 6.00464037677313 3.1645789927186416 0 0 0
18 1 -0.04458702028147534 4.798734938881548 1.7648695003366965 0 0 0
19 2 -2.084387445369412 5.816262695896217 0.7621986937738485 0 0 0
20 2 0.0776276886735339 4.688689265547972 4.150516756359247 0 0 0
21 1 10.104653133918676 3.438368740713914 4.716236239899326 -1 0 0
22 1 -1.859249444851867 5.926038926665564 8.074045588516412 0 0 0
23 1 -0.05623896717750537 4.592230156694372 6.650118934778244 0 0 0
24 2 -1.9465344322226965 5.947161900719478 5.487843190064762 0 0 0
25 2 0.02479427822105126 4.664732678207002 9.021381238929782 0 0 0
26 1 10.075708967151405 3.5136135759711835 9.77166987072635 -1 0 0
27 1 -1.9141924751675825 5.86392981481435 12.988965284596786 0 0 0
28 1 0.021951971763982343 4.770015107005884 11.525777862866379 0 0 0
29 2 -2.0393533012039615 5.826191222866798 10.47044467938702 0 0 0
30 2 0.16235519302181417 4.7296163019694495 14.09338842442696 0 0 0
31 1 8.029983845967871 6.978511005005291 14.59501719991033 -1 0 -1
32 1 -4.103948556842263 9.298875372101724 3.1875231792007264 0 0 0
33 1 -2.01134427032759 8.239595223918071 1.6033055330244372 0 0 0
34 2 -4.087616465529019 9.234897230723568 0.7333863686026166 0 0 0
35 2 -2.06112585752554 8.269450477777964 4.207586604919342 0 0 0
36 1 8.051336048063932 7.015234690853817 4.953757626938431 -1 0 0
37 1 -3.9983718068181737 9.353943026964398 7.9957819901717695 0 0 0
38 1 -1.9788994187039064 8.277427115127757 6.608042805251039 0 0 0
39 2 -4.016482401476425 9.374363014800288 5.6264688247742685 0 0 0
40 2 -1.9686822838140203 8.19472395486073 8.9806538965284 0 0 0
41 1 8.077493276878297 7.023428520612946 9.671463816974223 -1 0 0
42 1 -4.063316617223631 9.351325665394151 13.018617547334204 0 0 0
43 1 -2.1274274558221546 8.081523373565695 11.470486403610247 0 0 0
44 2 -4.122323223666311 9.488272994544184 10.476919178874057 0 0 0
45 2 -2.0529774831775613 8.161532358811376 14.04261630216453 0 0 0
46 1 -2.0637362605615643 10.522624013533997 0.015141668038070929 0 -1 0
47 1 4.087517213725845 2.385195865207561 3.0487506518506193 0 0 0
48 1 5.975624108882093 1.1230475964843114 1.7663856330111367 0 0 0
49 2 3.9099940440164875 2.236104270323065 0.7031298046550541 0 0 0
50 2 6.121208495877997 1.1669790286381008 4.1871873748771264 0 0 0
51 1 4.177053815271156 0.04639783554957777 4.8144859970648595 0 0 0
52 1 4.142352746711192 2.3780750506487003 8.008108155621963 0 0 0
53 1 6.148486028551039 1.0359327423699733 6.600924162436571 0 0 0
54 2 4.0908101257580425 2.335756991080904 5.612256238078167 0 0 0
55 2 6.0476366000679 1.0558469645863993 9.082180762681682 0 0 0
56 1 -2.13935421295629 10.520487338331538 9.881390661612473 0 -1 0
57 1 4.0914375364400115 2.2185895875843418 12.963486137265514 0 0 0
58 1 6.2528021198282 1.0399710365668853 11.472642586975129 0 0 0
59 2 4.216739003805744 2.3013264950463337 10.524166294737741 0 0 0
60 2 6.15605618399149 1.1224880513065523 13.923223077348057 0 0 0
61 1 2.0699794370612663 3.403026278882946 0.1420609041803711 0 0 0
62 1 2.047738905391224 5.930322076623617 3.1480108745669635 0 0 0
63 1 4.08519939489463 4.811273825049616 1.8452184327013994 0 0 0
64 2 2.052926830294723 5.82609229268507 0.6884320642832141 0 0 0
65 2 4.168989338272249 4.785854879690849 4.199561525288381 0 0 0
66 1 2.0813202744616284 3.516154307573003 4.8725777568628486 0 0 0
67 1 1.9925948691098732 5.840633480547154 8.060992927785586 0 0 0
68 1 3.9451187277817485 4.766043447695439 6.642687982730064 0 0 0
69 2 1.9645222850174355 5.931799373061081 5.571666533714972 0 0 0
70 2 3.939820858282325 4.640790477327377 9.187340063531904 0 0 0
71 1 2.0346398941636505 3.466089369561065 9.824360751195082 0 0 0
72 1 2.0125814938004503 5.831327826286674 12.9913198069413 0 0 0
73 1 3.9722054700620335 4.629977707103096 11.530714634223644 0 0 0
74 2 2.013836058390007 5.855272972176853 10.561652451487175 0 0 0
75 2 4.0770006447648335 4.567352035285752 14.026745988687237 0 0 0
76 1 -0.12991682717580202 7.081875020528517 0.07710380218439976 0 0 0
77 1 -0.004878868345214529 9.321581642640474 3.1140362566264037 0 0 0
78 1 2.0058773431638572 8.155533372623319 1.7165343879750228 0 0 0
79 2 -0.008286873565299242 9.407288435614243 0.721203900630136 0 0 0
80 2 2.036775029991231 8.24229640548751 4.160134101332359 0 0 0
81 1 0.025668303831340722 7.041177879551265 4.802830036009599 0 0 0
82 1 0.035251794902958496 9.40593709412672 8.041048871173691 0 0 0
83 1 2.057074108773115 8.270938676777433 6.567081663450617 0 0 0
84 2 -0.010550765964736523 9.397795646482486 5.588859789760889 0 0 0
85 2 2.153424311901721 8.14181334660967 9.291945954553507 0 0 0
86 1 0.0763810337799012 7.023194454550756 9.723206959225665 0 0 0
87 1 -0.0036516871709138116 9.398396598498804 12.916206314874197 0 0 0
88 1 2.010666419080563 8.264566528658497 11.576053362421403 0 0 0
89 2 -0.07523874765242325 9.208179274286106 10.391072798357426 0 0 0
90 2 2.0080033373699493 8.184085044760355 14.085000833258272 0 0 0
91 1 8.074137779001836 -0.001897183101284776 0.01700692801274636 0 0 0
92 1 8.05653597296001 2.3039541384680886 3.149058549673418 0 0 0
93 1 10.2145700541785 1.060807868942388 1.7034569675472495 0 0 0
94 2 8.080381038532956 2.408246591861797 0.786969385165455 0 0 0
95 2 10.201617976900415 1.0921765568839337 4.153726111201918 0 0 0
96 1 8.18179984479126 0.04434205143944338 5.001177640541354 0 0 0
97 1 8.100213191302874 2.209402161606656 8.062672883872592 0 0 0
98 1 10.280170293363168 1.1280534895825092 6.646823780766085 0 0 0
99 2 8.201708757188067 2.3660956986599007 5.593549146816403 0 0 0
100 2 10.120691551293255 1.2017101317182188 9.079422395373657 0 0 0
101 1 8.109528224122382 -0.03828760738254928 9.820461485963898 0 0 0
102 1 8.229877448901046 2.257671333545293 13.121267985625765 0 0 0
103 1 10.224965544904606 1.2143091110952895 11.515062537157545 0 0 0
104 2 8.102354618440371 2.2562779540273534 10.573148512370993 0 0 0
105 2 10.188571430642588 1.0039085463199544 14.056252917922949 0 0 0
106 1 6.116574144595485 3.4047290802404038 14.654450982697831 0 0 -1
107 1 6.209078247209483 5.780480670867056 3.2662051480000147 0 0 0
108 1 8.160695643255483 4.619546212249856 1.755374128091271 0 0 0
109 2 6.176136524954814 5.842239342334483 0.750252202280964 0 0 0
110 2 8.199862548577181 4.635184711471815 4.276080934433796 0 0 0
111 1 6.1004257368004255 3.5705560978245674 5.015114480850786 0 0 0
112 1 6.093638502382096 5.889307494357165 8.15873409370752 0 0 0
113 1 8.160479332300486 4.737845872263027 6.6347951810960515 0 0 0
114 2 6.056812307300675 5.840053932427308 5.75744661139437 0 0 0
115 2 8.12374609883541 4.7382667127698355 9.103729079839448 0 0 0
116 1 6.161950657991548 3.561930543625217 9.875723961248474 0 0 0
117 1 5.98888880523149 5.618322210099166 12.922303251707417 0 0 0
118 1 8.055058116015493 4.629759877657918 11.516418432851593 0 0 0
119 2 6.025659331648888 5.919297456284226 10.595060551682822 0 0 0
120 2 8.067304669660931 4.628257386238198 14.046088517756152 0 0 0
121 1 4.055062088027858 7.048370180309841 0.022101049483316183 0 0 0
122 1 4.032211472609317 9.404664908592267 3.058625198079349 0 0 0
123 1 6.0239678595816 8.12586402311884 1.7717155439378103 0 0 0
124 2 4.033030210257189 9.379702020866882 0.6545918988197026 0 0 0
125 2 6.040834654484239 8.095339643742374 4.22796464669403 0 0 0
126 1 3.983678340168199 7.069188005617664 4.804940269592503 0 0 0
127 1 3.9769946781938406 9.53512073407546 8.136171631421652 0 0 0
128 1 5.920798375871876 8.31431311357115 6.720078205087807 0 0 0
129 2 4.027713151131953 9.350783682167576 5.584127140479239 0 0 0
130 2 6.054345525806116 8.212674579804734 9.12732791613229 0 0 0
131 1 4.0491711116362765 6.949373509399791 9.677393535211054 0 0 0
132 1 3.9765452453806196 9.559075586673856 12.84621154250358 0 0 0
133 1 6.116400441981067 8.242478969687003 11.62210000445045 0 0 0
134 2 4.09414930631502 9.435715123916445 10.585053055170865 0 0 0
135 2 6.144839030739403 8.101369889652938 14.111700750757231 0 0 0

Velocities

1 2.630787739074279 -3.105670206659622 -4.669670247953985
2 -4.735120695335977 -1.4466099099778589 8.17262944705228
3 -0.8561422146928995 1.6158936253958907 0.240013578543294
4 0.795610815770478 -6.068392678571382 -0.6601098468608597
5 2.141778367956319 -0.7086105326372885 2.768362495141067
6 2.471066122898952 0.5115403395009146 -2.4387115507616994
7 2.2911834503669537 5.399375639432335 2.2011822070154556
8 -3.1985479974939897 -0.19597246032403426 1.5466670570573295
9 2.3894844242459183 1.2568886105622783 -0.8568504079846463
10 4.140256559958045 -0.7895814828707888 -3.4097881882504613
11 -1.220682154478366 -7.118609148977073 -1.0964701707309388
12 2.659331104066401 -5.801304876237872 2.466268869672825
13 3.875353713300121 3.066043511022098 4.002608427399695
14 2.235400463212851 -2.8593730101397226 2.720872141176651
15 0.049130151275070505 0.48009295149545733 -0.7977528965378469
16 -0.6676103629130934 2.2150240591303834 -4.789342927719231
17 0.289343965930966 6.595934813137026 0.43017767424405534
18 -3.402011610232392 -3.666030683380066 -1.675884183162365
19 2.031131967431106 -0.791727174408311 -1.0012752780373546
20 -0.9022225601702735 1.707895819187975 2.448704841966898
21 -7.285195656001419 -2.2792629958880832 3.6935103499236543
22 -2.2180551141787097 0.9599178299744457 1.3586166600658873
23 0.012104933205049488 -1.554460401015318 1.1941801652470136
24 0.23888784493105938 2.274346517540104 -1.7534972449487514
25 3.9061150794911654 3.6593201021751653 0.7427485716193908
26 1.9655629617176296 3.516101374164937 3.6917430594570613
27 3.19844602462035 2.2129794674556003 3.539033206221506
28 -3.368489843588366 -5.406874498272332 -0.8520687016830766
29 -0.8046979712763837 3.1314326284543244 -1.5042510533491122
30 0.560947664775207 2.575069978480985 -3.351562548529428
31 3.7761802097577535 4.1208311014728976 -3.804654047573184
32 1.491236589615572 -1.7771945987087348 3.7982611725142865
33 3.1861398826339418 -0.20165257365101058 2.6088793631010136
34 -0.9988717693527 -4.231382518304584 1.1320583799906951
35 -1.4519806767195393 6.206195030525894 -2.1079066853053092
36 -3.14710037236357 -0.06281618088538003 1.8164036451030943
37 5.145004165962457 -4.897644213731874 5.542530892904587
38 -6.742298366547747 0.3351366200254867 3.527648774184272
39 -1.9086927681402703 -0.8151030790725826 3.709589833477966
40 0.006218192696522492 -0.8136772909180754 0.6008899368092903
41 0.7744428302401023 -1.845130274138496 -0.9377088820061182
42 4.315883694948897 -2.3090734810866045 -0.3228304330597844
43 -5.487106862566887 -1.5264591913351429 1.7025188026355713
44 0.9716349513168997 4.561075678940802 -2.553213489018128
45 1.132042857747399 -1.712428010303531 -4.6078843550962985
46 -4.889917348505288 2.4559544043784802 1.9303002843742345
47 -4.453038740662731 0.10994922590697769 -1.220443968245558
48 -0.6492484256840735 -1.2420429286300556 1.1944829755816302
49 2.7340926559683134 -1.2776025123942913 -0.5474536330890383
50 -4.565412215949525 1.4134242157045762 -2.213901101232312
51 0.8012417589884099 6.929803004380062 3.373254150450874
52 7.010361738222666 0.7447454519047113 -2.736925304823802
53 0.934733346123576 -0.16232182238645917 1.141353589893931
54 1.0904586868831132 1.6095786732934187 0.8451921947806962
55 -1.7740729895650504 -2.7638507912670596 -2.198802176821763
56 -0.7388507729585381 1.131250115518283 -2.13351873023277
57 3.369564553415897 2.7243287865684964 -0.49290264301155334
58 1.740896342025513 -3.4065757043968343 -1.6143661893065673
59 -2.5028697942662603 -0.16554148511524322 -3.0245434247953855
60 -1.567027316460367 2.273873460431877 -1.3023916087621288
61 1.6987993426688808 1.5292537654452485 -3.696646054525306
62 -2.5898934835173297 3.5975729244508226 2.7984305420653124
63 2.7104718046069527 -1.3064216839462595 1.6685200139697627
64 -2.528491651754433 -1.627284441596017 1.1848206499450853
65 0.9043562847671262 0.6601497461167042 3.592567342176723
66 -1.8312423127863633 2.369558391085732 0.45186429610449774
67 -1.9092644714879987 -1.4537165549983693 0.5631350621538934
68 1.4133359738860514 1.008097361983331 -3.382868408111945
69 -3.8310254466845137 -3.5015103477739444 -1.677953738439673
70 -0.08404111325804417 -0.9985387974444386 2.6055974605581373
71 0.15791168375829692 9.363278595299244 -0.4348669875016911
72 0.881007592266969 5.6554568589165 -1.023114338114012
73 -1.8533549781260592 2.400625814537366 -1.9503934245921748
74 -1.8527465155500478 -3.5077389482793007 -0.5549198523266519
75 2.4779867477837834 2.7222657893060536 -2.6816781039382898
76 -1.7626686779839462 -0.3475790403906329 -3.089380204238193
77 1.3937192572448356 -2.7765582805739655 -3.1314402852905037
78 0.6810429006013266 -0.2917195644132345 -1.09147635858731
79 0.8720395997191012 0.5361452908711454 -1.198175887427509
80 -1.632012893186248 -2.10145498135344 2.3038282623858293
81 -1.494206746584798 4.0136065458684405 -0.9379711142750083
82 -5.598358894923146 -2.5810618094539373 -0.9739426500147866
83 2.6888531416989077 -0.20778645757426106 5.151066573870843
84 0.13361087348959194 -0.843455397933952 3.5810955653277308
85 -1.7751731134971016 -1.0346897591737778 3.4734743277389137
86 -1.236458810613563 -6.1911157737645155 4.711585482275694
87 9.718714290929503 -6.520482085300498 2.9335840557218704
88 -5.281258624605216 0.22686227028066502 2.261722583631952
89 -1.4610209314704554 -2.1831311462556595 0.3225491827714208
90 -4.786668012361643 1.7286728285374378 -1.6739435598613501
91 -4.186930572326305 2.0735841820058325 2.660584320748272
92 -8.031043001426454 -1.5350259589067234 -2.4394646860368723
93 -1.4644343771181336 -7.496778617385196 -3.200843219153955
94 -0.03500112569119354 2.8062695423604804 1.3368682304022226
95 -0.5197454312509863 0.13746676231803673 -0.8335953811113194
96 -1.3271890892004876 -2.2397962365949176 4.960227122943991
97 4.206751500074912 0.24141583621394405 1.3622281470216133
98 1.372675783435627 -1.9094979557942333 -1.571420821523385
99 -0.9505043119505346 0.7999358626329529 -0.7975899456618587
100 3.4933084249357096 -1.1453106276954128 0.6161125255416349
101 -0.692284348274086 -1.328424550610378 2.5808490518822893
102 0.3047890271390113 0.2718760514024649 -2.6189067696588486
103 2.730888029844279 1.4477257824251772 -0.9885940083202891
104 1.699858133723118 1.3739214895431155 -1.3420261711700716
105 1.8262296925122818 -0.39455431495999055 -0.7742533493458827
106 1.1412485848088605 -0.6268158441310651 4.9393379004954525
107 -1.4512421435451293 2.8387139391859377 1.3746489772600219
108 -0.48187172762354474 -2.4473818864033676 0.17094248217785302
109 3.2880240385992603 0.4576237200011902 3.3252904784646082
110 2.0014184570322833 2.1972761899425572 -1.9399742850753836
111 1.8434362882493815 1.2973568095173071 1.0513623313538403
112 0.5566195781311537 0.2946134093198733 -4.81774662672621
113 1.4868301777996789 -1.3148606220092436 0.09422371204558046
114 -1.4700871837167935 -1.6854210089209578 -1.4064561497952637
115 1.545855502621017 3.678984464315397 -0.29073793382941454
116 -0.5985029139405139 -1.7027431870509886 2.2816056429118765
117 -2.3784898628062665 1.6738260927712578 3.267915434900335
118 -2.649052975891805 4.4349607156640465 1.1304616720008853
119 -2.3136547280793547 -0.4909064686257332 1.0409833377021835
120 0.6795848813454114 -4.949807466996927 -3.9999005502368057
121 -0.5480791576139236 1.6834258667360222 3.8476091220144846
122 -3.8934683863615693 -2.3490187795767645 -0.439327949667196
123 -0.09275245253048493 -0.45483887833481557 -6.437450919552313
124 5.9023504927634045 2.216122986827786 3.189313397979653
125 -4.785479503112738 0.370074336865716 -3.4610427773834913
126 -1.1163964493000333 0.7272045919021998 -3.218571080235852
127 3.5240663643339376 -2.7786113281433695 0.4808515774975481
128 1.3815886731759506 0.07668590219092361 3.7629436972161896
129 -0.6991622103301574 0.017735458898057884 -1.9064330232818467
130 2.250183474260764 2.8459261208091227 -1.934481467754597
131 -3.1917542860524244 -3.222208565371514 3.7862474709030938
132 4.561602738725379 -0.9739912528546064 -0.5870001808878563
133 -0.9109820583360467 2.0679154540836233 -3.81762920160837
134 0.493982152358859 -0.02097469144410116 0.8671269853292816
135 -0.7060526939714582 -3.4006246780083527 -1.89381472204198
