LAMMPS data file via write_data, version 22 Jul 2025, timestep = 15064, units = metal

8 atoms
2 atom types

-0.018023394205729588 3.780329938575945 xlo xhi
0.004141435393539484 5.007640909799465 ylo yhi
0.014212488215459496 4.965571578586358 zlo zhi
2.453284078115691e-12 3.509757832497549e-12 -0.7204513498627717 xy xz yz

Masses

1 26.98153849305915
2 58.69339998490145

Atoms # atomic/kk

1 1 -0.00045402624224578567 2.0736136391594235 2.606270996904658 0 0 0
2 1 1.9003769508521524 0.5028760004128207 3.8493516338550773 0 0 0
3 1 1.8478019297855683 3.829781865268957 1.1347900154365436 0 0 0
4 2 3.7402442847561277 -0.6985745382587993 4.960262954328168 -1 0 -1
5 2 3.7594947552684155 2.5634893960783116 0.01521811020816552 -1 0 0
6 2 0.015025164383525868 4.6429246702275675 2.451882560679543 0 -1 0
7 2 1.9013470566836037 1.198275264182792 1.395934739877987 0 0 0
8 2 1.8872495970692393 3.0363388907306166 3.5706545248978823 0 0 0

Velocities

1 -0.0740887680240001 -1.4217094440199534 0.3666159956370494
2 -4.162060928100642 2.076320677083351 -1.471749213600274
3 -3.639925643709185 -5.564840798104592 3.6094190660899153
4 3.4965256230523103 -3.7878084844040227 -0.7898864288542227
5 0.3493814503367026 3.8028575868031873 -1.5305788159782865
6 0.1233181575642776 -1.4478641368799892 -2.186017947340854
7 -0.46004467517303543 1.729222994824329 2.359451575570136
8 0.11147577032496664 1.9608398401418026 0.9958036245933408
