5
Lattice="4.051534711733416 0.0 0.0 -2.025767356193409 3.5087319845378984 0.0 5.663374164347877e-11 -4.141093244341186e-12 4.89762118162597" Properties=species:S:1:pos:R:3:masses:R:1:momenta:R:3:id:I:1:type:I:1 comment="LAMMPS data file via write_data, version 22 Jul 2025, timestep = 15046, units = metal" config_id=Al3Ni2_stageD_post_nvt source="Stage D primitive-cell MD endpoint (300K NVT endpoint (t=15ps, primitive)), 300K/1fs, mliap unified Kokkos" pbc="T T T"
Al      -0.11580091       0.00553815       0.09881240      26.98153850       0.28809306       0.70214700      -0.84886134        1        1
Al      -0.01904885       2.30615194       3.24542547      26.98153850      -1.23915728      -0.86040371       1.32745878        2        1
Al       2.10564728       1.13844503       1.76370856      26.98153850       1.11473066      -0.30730699       1.42922881        3        1
Ni      -0.00239784       2.34944325       0.71525808      58.69340000       0.45849147       0.73075187      -0.96038321        4        2
Ni       2.04226188       1.17654890       4.10297871      58.69340000      -0.62215792      -0.26518818      -0.94744304        5        2
