LAMMPS data file via write_data, version 22 Jul 2025, timestep = 30046, units = metal

5 atoms
2 atom types

0.034426839025543554 4.010495789478405 xlo xhi
0.018364706088243254 3.484639413261898 ylo yhi
-0.04503363090778523 4.952896008054115 zlo zhi
-2.129589165388743 -0.11406286372665041 0.2619430642504063 xy xz yz

Masses

1 26.98153849305915
2 58.69339998490145

Atoms # atomic/kk

1 1 -0.07820073449117564 0.29509800000412173 4.893390396877687 0 0 -1
2 1 -0.0971664259111022 2.3935873399456007 3.186968955306458 0 0 0
3 1 1.9044616257482558 1.2292810807261112 1.7417665295083824 0 0 0
4 2 -0.1026855559830005 2.3823617548702973 0.7199102086788634 0 0 0
5 2 1.9005251912186092 1.4411008975937816 4.2057113653381455 0 0 0

Velocities

1 -0.844813158240916 -0.7977051680069824 -2.692412653390181
2 1.5467780570303986 3.2278627337299057 -0.37674360143042174
3 2.9400973151796417 5.752944002705747 -1.4871480958465126
4 0.3156071762095304 -5.180305703403067 1.4779548260185396
5 -1.9898745017622796 1.41850846524748 0.6165924528107241
