LAMMPS data file via write_data, version 22 Jul 2025, timestep = 15046, units = metal

5 atoms
2 atom types

-0.0033060416147252954 4.048228670118691 xlo xhi
-0.002863932593875449 3.505868051944023 ylo yhi
0.005120597760201745 4.902741779386172 zlo zhi
-2.025767356193409 5.663374164347877e-11 -4.141093244341186e-12 xy xz yz

Masses

1 26.98153849305915
2 58.69339998490145

Atoms # atomic/kk

1 1 3.935733803678329 0.005538154037011673 0.09881240285956755 -1 0 0
2 1 -0.019048853203887526 2.306151944988878 3.2454254658471573 0 0 0
3 1 2.1056472783869147 1.1384450321264616 1.763708557509431 0 0 0
4 2 -0.002397839502960638 2.349443252526196 0.7152580816169328 0 0 0
5 2 2.042261880803223 1.176548902340848 4.102978711276343 0 0 0

Velocities

1 1.0488098159421293 2.556183261529775 -3.090300392803464
2 -4.511182258124511 -3.132320639363205 4.8326460073606885
3 4.0582041208704975 -1.1187585659475119 5.203142278144472
4 0.7673131540540097 1.2229573634137916 -1.6072592714389369
5 -1.0412188296160945 -0.44380842740700105 -1.585603111353957
