16
Lattice="4.815502911128836 0.0 0.0 -4.234798920046302e-11 6.599934106646661 0.0 -7.250408278553189e-11 -2.0689658334168377e-11 7.426738879906709" Properties=species:S:1:pos:R:3:masses:R:1:momenta:R:3:id:I:1:type:I:1 comment="LAMMPS data file via write_data, version 22 Jul 2025, timestep = 15078, units = metal" config_id=Al3Ni_stageD_post_nvt source="Stage D primitive-cell MD endpoint (300K NVT endpoint (t=15ps, primitive)), 300K/1fs, mliap unified Kokkos" pbc="T T T"
Al       4.48317006      -0.09660241       1.75750789      26.98153850      -1.86864967       0.73823184      -0.38117535        1        1
Al       1.69991444       1.13434961       3.30531207      26.98153850       0.48241461       0.49656475      -1.18409256        2        1
Al       1.73473611       1.18603639       0.39899984      26.98153850       0.88985887      -0.61635415       0.31454488        3        1
Al       4.16538265       2.16529270       4.09405445      26.98153850      -0.38490464       0.32206959       0.61594741        4        1
Al       0.58498681       4.48351847       3.29487156      26.98153850      -0.38243656       1.08381205      -0.09765802        5        1
Al       3.03584393       5.44001680       6.95282673      26.98153850      -0.23135210      -1.74123994      -0.02808396        6        1
Al       0.67550188       4.37466465       0.34000339      26.98153850       1.93191124       0.12092073      -0.79200533        7        1
Al       3.02094478       5.58288137       4.04825368      26.98153850      -0.19441345      -0.51989906       0.62379568        8        1
Al       4.20616367       2.18853134       7.07151688      26.98153850      -2.53814818      -0.93365365       1.83940061        9        1
Al       2.74754281       3.32825387       1.90421769      26.98153850       0.75727811       0.31795393      -0.23902611       10        1
Al       0.29720310       6.60016502       5.60505341      26.98153850      -0.04997629       0.74494271      -1.10372579       11        1
Al       2.10541277       3.16827289       5.46755121      26.98153850       0.61973156       0.50280139      -0.32132036       12        1
Ni       2.07005659       5.71258634       1.84267019      58.69340000       0.59093785      -0.69498139       1.20401950       13        2
Ni       0.34904922       2.57842533       1.89645821      58.69340000       3.00970402       0.07505393      -1.12571102       14        2
Ni       2.66678165       0.87236715       5.52993019      58.69340000      -1.23087384      -0.01654439       0.81817269       15        2
Ni       4.65533330       4.16672631       5.52111386      58.69340000      -1.40108153       0.12032166      -0.14308226       16        2
