135
Lattice="12.124260985719202 0.0 0.0 -6.102666218987989 10.627396904271437 0.0 0.05761825207584594 -0.012442369913546475 14.717134424611377" Properties=species:S:1:pos:R:3:masses:R:1:momenta:R:3:id:I:1:type:I:1 comment="LAMMPS data file via write_data, version 22 Jul 2025, timestep = 15000, units = metal" config_id=Al3Ni2_stageD2_post_npt_supercell source="Stage D-2 supercell MD endpoint (300K NPT, t=15ps), mliap unified Kokkos" pbc="T T T"
Al       0.04170623      -0.05099615      -0.02543025      26.98153850       0.72263979      -0.85308321      -1.28269167        1        1
Al      -0.00580361       2.27328532       3.15971891      26.98153850      -1.30066997      -0.39736306       2.24490449        2        1
Al       2.06880871       0.93565900       1.73820528      26.98153850      -0.23517003       0.44386288       0.06592830        3        1
Ni       0.09990337       2.23954554       0.70201107      58.69340000       0.47540013      -3.62603752      -0.39443444        4        2
Ni       2.10018898       1.06269775       4.20261175      58.69340000       1.27977360      -0.42341498       1.65417547        5        2
Al       0.00072721      -0.14092881       4.85650400      26.98153850       0.67876654       0.14051282      -0.66987920        6        1
Al      -0.03059846       2.34886950       8.01241835      26.98153850       0.62935534       1.48313131       0.60463329        7        1
Al       1.98566675       1.17676879       6.55586485      26.98153850      -0.87859541      -0.05383083       0.42484733        8        1
Ni      -0.08458937       2.26620656       5.57643263      58.69340000       1.42778502       0.75102676      -0.51199253        9        2
Ni       2.06632120       1.20754876       9.00189538      58.69340000       2.47392126      -0.47179743      -2.03744559       10        2
Al       0.00333497       0.00329804       9.64984477      26.98153850      -0.33530394      -1.95538018      -0.30118468       11        1
Al       0.08524391       2.32044343      12.94354055      26.98153850       0.73048024      -1.59353552       0.67744880       12        1
Al       2.06736594       1.19294060      11.42255832      26.98153850       1.06450427       0.84219833       1.09945932       13        1
Ni      -0.01480906       2.28939869      10.38866844      58.69340000       1.33571547      -1.70855684       1.62579863       14        2
Ni       2.08666531       1.02347499      13.90737982      58.69340000       0.02935667       0.28686922      -0.47668008       15        2
Al      -2.01789468       3.46761082       0.04554832      26.98153850      -0.18338302       0.60843545      -1.31556404       16        1
Al      -2.04423763       6.00464038       3.16457899      26.98153850       0.07947865       1.81180901       0.11816366       17        1
Al      -0.04458702       4.79873494       1.76486950      26.98153850      -0.93448396      -1.00700623      -0.46034143       18        1
Ni      -2.08438745       5.81626270       0.76219869      58.69340000       1.21365922      -0.47307954      -0.59829051       19        2
Ni       0.07762769       4.68868927       4.15051676      58.69340000      -0.53910369       1.02051641       1.46317091       20        2
Al      -2.01960785       3.43836874       4.71623624      26.98153850      -2.00113911      -0.62608096       1.01455450       21        1
Al      -1.85924944       5.92603893       8.07404559      26.98153850      -0.60926803       0.26367571       0.37319258       22        1
Al      -0.05623897       4.59223016       6.65011893      26.98153850       0.00332505      -0.42698805       0.32802422       23        1
Ni      -1.94653443       5.94716190       5.48784319      58.69340000       0.14274229       1.35898684      -1.04776456       24        2
Ni       0.02479428       4.66473268       9.02138124      58.69340000       2.33401505       2.18654802       0.44381343       25        2
Al      -2.04855202       3.51361358       9.77166987      26.98153850       0.53991205       0.96582279       1.01406905       26        1
Al      -1.91419248       5.86392981      12.98896528      26.98153850       0.87856740       0.60787383       0.97212183       27        1
Al       0.02195197       4.77001511      11.52577786      26.98153850      -0.92527601      -1.48519114      -0.23405109       28        1
Ni      -2.03935330       5.82619122      10.47044468      58.69340000      -0.48082996       1.87112021      -0.89883286       29        2
Ni       0.16235519       4.72961630      14.09338842      58.69340000       0.33518221       1.53867768      -2.00265411       30        2
Al      -4.15189539       6.99095337      -0.12211722      26.98153850       1.03726273       1.13193340      -1.04508408       31        1
Al      -4.10394856       9.29887537       3.18752318      26.98153850       0.40962138      -0.48816995       1.04332805       32        1
Al      -2.01134427       8.23959522       1.60330553      26.98153850       0.87518708      -0.05539108       0.71662187       33        1
Ni      -4.08761647       9.23489723       0.73338637      58.69340000      -0.59685434      -2.52837161       0.67643714       34        2
Ni      -2.06112586       8.26945048       4.20758660      58.69340000      -0.86759982       3.70837835      -1.25953430       35        2
Al      -4.07292494       7.01523469       4.95375763      26.98153850      -0.86446349      -0.01725471       0.49894012       36        1
Al      -3.99837181       9.35394303       7.99578199      26.98153850       1.41325910      -1.34531286       1.52245401       37        1
Al      -1.97889942       8.27742712       6.60804281      26.98153850      -1.85201298       0.09205724       0.96899469       38        1
Ni      -4.01648240       9.37436301       5.62646882      58.69340000      -1.14049831      -0.48704731       2.21658562       39        2
Ni      -1.96868228       8.19472395       8.98065390      58.69340000       0.00371555      -0.48619536       0.35904886       40        2
Al      -4.04676771       7.02342852       9.67146382      26.98153850       0.21272838      -0.50683091      -0.25757523       41        1
Al      -4.06331662       9.35132567      13.01861755      26.98153850       1.18551156      -0.63426948      -0.08867691       42        1
Al      -2.12742746       8.08152337      11.47048640      26.98153850      -1.50722982      -0.41929652       0.46765758       43        1
Ni      -4.12232322       9.48827299      10.47691918      58.69340000       0.58057957       2.72537267      -1.52561780       44        2
Ni      -2.05297748       8.16153236      14.04261630      58.69340000       0.67642786      -1.02322453      -2.75334219       45        2
Al       4.03892996      -0.10477289       0.01514167      26.98153850      -1.34319040       0.67461557       0.53022590       46        1
Al       4.08751721       2.38519587       3.04875065      26.98153850      -1.22318609       0.03020148      -0.33523851       47        1
Al       5.97562411       1.12304760       1.76638563      26.98153850      -0.17833926      -0.34117144       0.32810740       48        1
Ni       3.90999404       2.23610427       0.70312980      58.69340000       1.63369826      -0.76340390      -0.32711914       49        2
Ni       6.12120850       1.16697903       4.18718737      58.69340000      -2.72796387       0.84456124      -1.32286899       50        2
Al       4.17705382       0.04639784       4.81448600      26.98153850       0.22008966       1.90351783       0.92658470       51        1
Al       4.14235275       2.37807505       8.00810816      26.98153850       1.92564616       0.20457093      -0.75179426       52        1
Al       6.14848603       1.03593274       6.60092416      26.98153850       0.25675789      -0.04458748       0.31351352       53        1
Ni       4.09081013       2.33575699       5.61225624      58.69340000       0.65158013       0.96176912       0.50502642       54        2
Ni       6.04763660       1.05584696       9.08218076      58.69340000      -1.06005916      -1.65147959      -1.31384695       55        2
Al       3.96331201      -0.10690957       9.88139066      26.98153850      -0.20295175       0.31073824      -0.58604710       56        1
Al       4.09143754       2.21858959      12.96348614      26.98153850       0.92557122       0.74833418      -0.13539331       57        1
Al       6.25280212       1.03997104      11.47264259      26.98153850       0.47819934      -0.93573765      -0.44344332       58        1
Ni       4.21673900       2.30132650      10.52416629      58.69340000      -1.49553601      -0.09891575      -1.80725087       59        2
Ni       6.15605618       1.12248805      13.92322308      58.69340000      -0.93634347       1.35870418      -0.77821609       60        2
Al       2.06997944       3.40302628       0.14206090      26.98153850       0.46663590       0.42006415      -1.01541583       61        1
Al       2.04773891       5.93032208       3.14801087      26.98153850      -0.71140672       0.98820186       0.76868887       62        1
Al       4.08519939       4.81127383       1.84521843      26.98153850       0.74452786      -0.35885536       0.45831860       63        1
Ni       2.05292683       5.82609229       0.68843206      58.69340000      -1.51084580      -0.97234882       0.70796410       64        2
Ni       4.16898934       4.78585488       4.19956153      58.69340000       0.54037865       0.39445828       2.14666134       65        2
Al       2.08132027       3.51615431       4.87257776      26.98153850      -0.50301609       0.65088382       0.12412066       66        1
Al       1.99259487       5.84063348       8.06099293      26.98153850      -0.52444766      -0.39931516       0.15468515       67        1
Al       3.94511873       4.76604345       6.64268798      26.98153850       0.38822319       0.27690994      -0.92922560       68        1
Ni       1.96452229       5.93179937       5.57166653      58.69340000      -2.28914686      -2.09225220      -1.00262517       69        2
Ni       3.93982086       4.64079048       9.18734006      58.69340000      -0.05021696      -0.59665538       1.55691872       70        2
Al       2.03463989       3.46608937       9.82436075      26.98153850       0.04337608       2.57195879      -0.11945175       71        1
Al       2.01258149       5.83132783      12.99131981      26.98153850       0.24200019       1.55347316      -0.28103488       72        1
Al       3.97220547       4.62997771      11.53071463      26.98153850      -0.50909012       0.65941760      -0.53574519       73        1
Ni       2.01383606       5.85527297      10.56165245      58.69340000      -1.10706883      -2.09597396      -0.33158042       74        2
Ni       4.07700064       4.56735204      14.02674599      58.69340000       1.48066768       1.62663137      -1.60237907       75        2
Al      -0.12991683       7.08187502       0.07710380      26.98153850      -0.48417989      -0.09547499      -0.84860858       76        1
Al      -0.00487887       9.32158164       3.11403626      26.98153850       0.38283476      -0.76268087      -0.86016188       77        1
Al       2.00587734       8.15553337       1.71653439      26.98153850       0.18707275      -0.08013119      -0.29981295       78        1
Ni      -0.00828687       9.40728844       0.72120390      58.69340000       0.52106851       0.32036209      -0.71594423       79        2
Ni       2.03677503       8.24229641       4.16013410      58.69340000      -0.97517420      -1.25567923       1.37660303       80        2
Al       0.02566830       7.04117788       4.80283004      26.98153850      -0.41043723       1.10248035      -0.25764726       81        1
Al       0.03525179       9.40593709       8.04104887      26.98153850      -1.53778916      -0.70898078      -0.26752812       82        1
Al       2.05707411       8.27093868       6.56708166      26.98153850       0.73858952      -0.05707597       1.41492436       83        1
Ni      -0.01055077       9.39779565       5.58885979      58.69340000       0.07983630      -0.50398863       2.13980663       84        2
Ni       2.15342431       8.14181335       9.29194595      58.69340000      -1.06071651      -0.61825661       2.07549988       85        2
Al       0.07638103       7.02319445       9.72320696      26.98153850      -0.33963756      -1.70061101       1.29420518       86        1
Al      -0.00365169       9.39839660      12.91620631      26.98153850       2.66959189      -1.79108322       0.80581361       87        1
Al       2.01066642       8.26456653      11.57605336      26.98153850      -1.45068625       0.06231582       0.62126286       88        1
Ni      -0.07523875       9.20817927      10.39107280      58.69340000      -0.87300163      -1.30448306       0.19273233       89        2
Ni       2.00800334       8.18408504      14.08500083      58.69340000      -2.86017052       1.03293127      -1.00022897       90        2
Al       8.07413778      -0.00189718       0.01700693      26.98153850      -1.15008998       0.56958393       0.73082448       91        1
Al       8.05653597       2.30395414       3.14905855      26.98153850      -2.20601271      -0.42164969      -0.67008608       92        1
Al      10.21457005       1.06080787       1.70345697      26.98153850      -0.40225919      -2.05925793      -0.87922588       93        1
Ni       8.08038104       2.40824659       0.78696939      58.69340000      -0.02091417       1.67682601       0.79881686       94        2
Ni      10.20161798       1.09217656       4.15372611      58.69340000      -0.31056270       0.08214031      -0.49809699       95        2
Al       8.18179984       0.04434205       5.00117764      26.98153850      -0.36455987      -0.61524001       1.36250349       96        1
Al       8.10021319       2.20940216       8.06267288      26.98153850       1.15553450       0.06631348       0.37418460       97        1
Al      10.28017029       1.12805349       6.64682378      26.98153850       0.37705442      -0.52451179      -0.43164684       98        1
Ni       8.20170876       2.36609570       5.59354915      58.69340000      -0.56795341       0.47798447      -0.47658272       99        2
Ni      10.12069155       1.20171013       9.07942240      58.69340000       2.08735131      -0.68435573       0.36814479      100        2
Al       8.10952822      -0.03828761       9.82046149      26.98153850      -0.19016061      -0.36489924       0.70892234      101        1
Al       8.22987745       2.25767133      13.12126799      26.98153850       0.08372119       0.07468047      -0.71937625      102        1
Al      10.22496554       1.21430911      11.51506254      26.98153850       0.75013591       0.39766958      -0.27155264      103        1
Ni       8.10235462       2.25627795      10.57314851      58.69340000       1.01571367       0.82095724      -0.80189887      104        2
Ni      10.18857143       1.00390855      14.05625292      58.69340000       1.09122427      -0.23575744      -0.46263844      105        2
Al       6.05895589       3.41717145      -0.06268344      26.98153850       0.31348467      -0.17217735       1.35676552      106        1
Al       6.20907825       5.78048067       3.26620515      26.98153850      -0.39863547       0.77975414       0.37759642      107        1
Al       8.16069564       4.61954621       1.75537413      26.98153850      -0.13236328      -0.67226082       0.04695546      108        1
Ni       6.17613652       5.84223934       0.75025220      58.69340000       1.96468804       0.27344321       1.98695580      109        2
Ni       8.19986255       4.63518471       4.27608093      58.69340000       1.19590455       1.31293513      -1.15918991      110        2
Al       6.10042574       3.57055610       5.01511448      26.98153850       0.50636560       0.35636537       0.28879420      111        1
Al       6.09363850       5.88930749       8.15873409      26.98153850       0.15289544       0.08092609      -1.32336613      112        1
Al       8.16047933       4.73784587       6.63479518      26.98153850       0.40841100      -0.36117342       0.02588191      113        1
Ni       6.05681231       5.84005393       5.75744661      58.69340000      -0.87841898      -1.00708707      -0.84039762      114        2
Ni       8.12374610       4.73826671       9.10372908      58.69340000       0.92369271       2.19829804      -0.17372420      115        2
Al       6.16195066       3.56193054       9.87572396      26.98153850      -0.16440020      -0.46771921       0.62672446      116        1
Al       5.98888881       5.61832221      12.92230325      26.98153850      -0.65333717       0.45977610       0.89764966      117        1
Al       8.05505812       4.62975988      11.51641843      26.98153850      -0.72765699       1.21822031       0.31052166      118        1
Ni       6.02565933       5.91929746      10.59506055      58.69340000      -1.38247462      -0.29333060       0.62201720      119        2
Ni       8.06730467       4.62825739      14.04608852      58.69340000       0.40607133      -2.95765099      -2.39005454      120        2
Al       4.05506209       7.04837018       0.02210105      26.98153850      -0.15054951       0.46241302       1.05688323      121        1
Al       4.03221147       9.40466491       3.05862520      26.98153850      -1.06948011      -0.64524188      -0.12067711      122        1
Al       6.02396786       8.12586402       1.77171554      26.98153850      -0.02547777      -0.12493774      -1.76827575      123        1
Ni       4.03303021       9.37970202       0.65459190      58.69340000       3.52682259       1.32419663       1.90570562      124        2
Ni       6.04083465       8.09533964       4.22796465      58.69340000      -2.85946035       0.22112996      -2.06807167      125        2
Al       3.98367834       7.06918801       4.80494027      26.98153850      -0.30665815       0.19975271      -0.88409547      126        1
Al       3.97699468       9.53512073       8.13617163      26.98153850       0.96801066      -0.76324481       0.13208305      127        1
Al       5.92079838       8.31431311       6.72007821      26.98153850       0.37950266       0.02106452       1.03362685      128        1
Ni       4.02771315       9.35078368       5.58412714      58.69340000      -0.41776934       0.01059744      -1.13914805      129        2
Ni       6.05434553       8.21267458       9.12732792      58.69340000       1.34454874       1.70052194      -1.15590779      130        2
Al       4.04917111       6.94937351       9.67739354      26.98153850      -0.87672928      -0.88509463       1.04002806      131        1
Al       3.97654525       9.55907559      12.84621154      26.98153850       1.25300707      -0.26754147      -0.16124056      132        1
Al       6.11640044       8.24247897      11.62210000      26.98153850      -0.25023375       0.56802682      -1.04864817      133        1
Ni       4.09414931       9.43571512      10.58505306      58.69340000       0.29516841      -0.01253298       0.51813308      134        2
Ni       6.14483903       8.10136989      14.11170075      58.69340000      -0.42188660      -2.03197013      -1.13160825      135        2
