LAMMPS data file via write_data, version 22 Jul 2025, timestep = 15078, units = metal

16 atoms
2 atom types

0.0050008044682607385 4.820503715597097 xlo xhi
0.011549900085082545 6.611484006731743 ylo yhi
-0.022123884851960356 7.404614995054748 zlo zhi
-4.234798920046302e-11 -7.250408278553189e-11 -2.0689658334168377e-11 xy xz yz

Masses

1 26.98153849305915
2 58.69339998490145

Atoms # atomic/kk

1 1 4.483170064774996 6.503331695725101 1.7575078882760213 0 -1 0
2 1 1.699914441335796 1.1343496113804152 3.3053120694795495 0 0 0
3 1 1.7347361118314022 1.1860363941354637 0.39899983510755405 0 0 0
4 1 4.165382645241652 2.165292701218001 4.094054445775177 0 0 0
5 1 0.5849868089469386 4.483518474539299 3.294871561359187 0 0 0
6 1 3.0358439312378844 5.440016803068844 6.952826733408187 0 0 0
7 1 0.6755018842191021 4.37466464926367 0.3400033895804799 0 0 0
8 1 3.020944779587109 5.582881374260134 4.048253676374519 0 0 0
9 1 4.20616366569938 2.18853133595597 7.071516875447349 0 0 0
10 1 2.747542810468353 3.3282538743748327 1.9042176897044685 0 0 0
11 1 0.2972030985047986 6.600165023149479 5.605053405675249 0 0 0
12 1 2.105412766785638 3.168272886122921 5.467551211944136 0 0 0
13 2 2.0700565855022512 5.712586341744609 1.8426701887177994 0 0 0
14 2 0.3490492234280399 2.578425328189759 1.896458208988243 0 0 0
15 2 2.6667816471073116 0.8723671455164963 5.5299301897399245 0 0 0
16 2 4.655333302767317 4.166726312735912 5.521113857344974 0 0 0

Velocities

1 -6.802864623409721 2.687551000934765 -1.3876781587123612
2 1.7562421205555874 1.807756053518422 -4.310717794194768
3 3.2395529011839104 -2.243852307974516 1.1451083063792373
4 -1.4012547314068888 1.1725021868685332 2.242371544034158
5 -1.3922696155707905 3.945644161865185 -0.3555264018003015
6 -0.8422429544748006 -6.339026395715469 -0.10224034564934073
7 7.033169917213168 0.44021485725685133 -2.8833146716620766
8 -0.7077668924170231 -1.8927051899660698 2.2709433459077992
9 -9.240190243668682 -3.3989888613255848 6.696382694507729
10 2.7568894034547236 1.157519012943115 -0.870180381627175
11 -0.18193989062850843 2.7119820683007707 -4.01814060398403
12 2.2561478224307785 1.8304607151168133 -1.16977459971063
13 0.9889701645400328 -1.163093307688971 2.0149993048990673
14 5.036921355164212 0.12560729050134678 -1.8839453403750168
15 -2.059941668596238 -0.027688031855768333 1.3692613893069308
16 -2.3447945207359298 0.20136556405454015 -0.23945680411985318
