2
Lattice="2.835614274359819 0.0 0.0 0.023481717956665545 2.894206333273807 0.0 0.3508992601473931 0.020649482154657558 3.094327425519113" Properties=species:S:1:pos:R:3:masses:R:1:momenta:R:3:id:I:1:type:I:1 comment="LAMMPS data file via write_data, version 22 Jul 2025, timestep = 30003, units = metal" config_id=AlNi_stageD_post_npt source="Stage D primitive-cell MD endpoint (300K NPT endpoint (t=30ps, primitive)), 300K/1fs, mliap unified Kokkos" pbc="T T T"
Al       1.60346166       1.51073826       1.39938744      26.98153850       0.51852715       0.24804183      -0.79762023        1        1
Ni       0.04332502      -0.02465152      -0.07827006      58.69340000      -0.51852715      -0.24804183       0.79762023        2        2
