128
Lattice="11.63270740988526 0.0 0.0 0.019598873236359057 11.625701528070717 0.0 0.020035650387948245 -0.013409588338910289 11.584105444963104" Properties=species:S:1:pos:R:3:masses:R:1:momenta:R:3:id:I:1:type:I:1 comment="LAMMPS data file via write_data, version 22 Jul 2025, timestep = 15000, units = metal" config_id=AlNi_stageD2_post_npt_supercell source="Stage D-2 supercell MD endpoint (300K NPT, t=15ps), mliap unified Kokkos" pbc="T T T"
Al       1.43145317       1.44868106       1.43911323      26.98153850       0.10946182      -0.53715402      -1.61702527        1        1
Ni      -0.03585631      -0.01137634       0.16495225      58.69340000      -0.87168338       2.07360068      -0.10214519        2        2
Al       1.52290959       1.35478751       4.34781558      26.98153850       0.07666869       0.22508327      -0.54564919        3        1
Ni       0.10834546      -0.00624543       2.83920929      58.69340000      -1.46174470       1.75130405       0.45065221        4        2
Al       1.37595670       1.42798893       7.32927751      26.98153850       0.01435854      -0.76125167      -1.40417566        5        1
Ni       0.04870236      -0.24580646       5.77138414      58.69340000       0.86435834      -1.27170574      -0.83101811        6        2
Al       1.30467452       1.46403963      10.16259749      26.98153850       0.47329095      -0.93790053      -0.62960289        7        1
Ni      -0.03359715      -0.02698138       8.74676596      58.69340000      -0.17236270      -1.28558051      -0.11308924        8        2
Al       1.41066935       4.39582466       1.37728617      26.98153850       0.93491381      -0.19182169       0.60178320        9        1
Ni      -0.03611028       2.83725576       0.12097623      58.69340000       0.36840299      -0.03390975       2.49149059       10        2
Al       1.41343813       4.28351357       4.35085842      26.98153850      -0.75733538       0.27090144       0.08583671       11        1
Ni      -0.07414013       2.99837521       2.88476232      58.69340000       1.22273470       0.50417324      -0.99728408       12        2
Al       1.45863681       4.28285499       7.31083520      26.98153850      -1.10675116       0.79555864      -0.19774697       13        1
Ni       0.03212451       2.91520640       5.78503671      58.69340000       1.26452872       1.42075338       0.46451892       14        2
Al       1.37649482       4.33334737      10.16397222      26.98153850      -0.75916126       0.60518896       0.73687856       15        1
Ni      -0.14251677       2.82172658       8.74234976      58.69340000       0.89056316      -1.63230406      -1.69624951       16        2
Al       1.39553238       7.19713362       1.43038030      26.98153850       0.50994005      -0.65113849       0.56070151       17        1
Ni      -0.23588727       5.76893069      -0.08551267      58.69340000       0.23190988      -0.05345467       0.47986650       18        2
Al       1.43289038       7.15847764       4.29449393      26.98153850       0.95590486       1.69735824      -0.04202512       19        1
Ni       0.02155484       5.69741874       2.94078881      58.69340000      -1.31361209      -0.42936140      -2.75807536       20        2
Al       1.39729578       7.18917448       7.28552815      26.98153850      -0.92924738      -0.36906163       0.29505328       21        1
Ni       0.03536677       5.79631720       5.90589190      58.69340000       0.83673935       1.08434248       0.39930807       22        2
Al       1.49296859       7.24161154      10.16958009      26.98153850      -1.32446167       0.94848142       0.71830043       23        1
Ni       0.05687556       5.74162927       8.74254882      58.69340000      -1.37052738      -1.71260843      -0.82557926       24        2
Al       1.51030303      10.20533213       1.49616453      26.98153850       0.09257921       0.86995916       0.36938586       25        1
Ni       0.06304634       8.70358952      -0.04798406      58.69340000      -0.31311931      -0.81363411      -0.26283955       26        2
Al       1.40325203      10.21421722       4.30886259      26.98153850       1.36807020      -0.32682317       1.34811340       27        1
Ni      -0.03447369       8.64675218       2.79011112      58.69340000       1.32904405       1.95684998       1.70781930       28        2
Al       1.54104854      10.13899584       7.14423169      26.98153850       1.24809555      -0.93888119      -0.18133099       29        1
Ni      -0.05097691       8.65521585       5.85263351      58.69340000       0.06155772       0.49546978      -0.63890985       30        2
Al       1.43746670      10.11754578      10.18613636      26.98153850       0.93187848       1.06304032      -1.83731310       31        1
Ni       0.17736432       8.82056906       8.66818266      58.69340000       1.93544428       0.68899718       1.80802000       32        2
Al       4.24695512       1.48958777       1.44881794      26.98153850      -0.64618484      -0.34393925       0.36183223       33        1
Ni       2.83494955       0.02513567      -0.10947025      58.69340000      -1.76550671      -1.05625805       0.44726789       34        2
Al       4.37561671       1.52261460       4.30054991      26.98153850      -0.30366775       1.96981424      -1.39486287       35        1
Ni       2.89154981       0.03448321       2.93627510      58.69340000       1.20222046      -0.85753310       0.62806991       36        2
Al       4.31487313       1.50704337       7.18580414      26.98153850      -0.59514028       1.19140155      -2.04965227       37        1
Ni       2.95408367      -0.04474457       5.95364674      58.69340000      -0.69486269       0.12036494      -2.25091875       38        2
Al       4.39602087       1.50197887      10.23665261      26.98153850       0.77557131      -0.43260358       1.01840541       39        1
Ni       2.86885550      -0.04830991       8.68521572      58.69340000      -0.76196689       2.00374484       0.76831658       40        2
Al       4.45040914       4.27136943       1.56716877      26.98153850      -1.76478788      -1.28838782      -0.10510726       41        1
Ni       2.84766190       2.85666060      -0.18311306      58.69340000       0.40125614       1.77380683       1.35340239       42        2
Al       4.24483594       4.31364792       4.36441153      26.98153850      -0.91824233      -0.02859878       0.17019094       43        1
Ni       2.71182836       2.93112344       2.84597186      58.69340000       0.63873498       1.09444964       0.62485776       44        2
Al       4.35263027       4.37915056       7.26609630      26.98153850       1.27550322      -1.08360693       0.12937979       45        1
Ni       2.92077165       2.87634950       5.88494957      58.69340000       3.34523348      -1.65368449      -0.24650305       46        2
Al       4.40770733       4.23921694      10.18114496      26.98153850      -0.58871625      -0.13551233       0.89494336       47        1
Ni       2.97980291       2.92004719       8.71191255      58.69340000       1.78085621       1.78415765       0.60723514       48        2
Al       4.31844387       7.18348226       1.48008582      26.98153850       1.11899353       0.16227243       2.22002188       49        1
Ni       2.83439714       5.66497092       0.09376254      58.69340000       0.39062151      -1.75981920      -0.37131875       50        2
Al       4.35794336       7.29081125       4.28706876      26.98153850       0.13131101      -1.23264797       0.44581080       51        1
Ni       2.99463865       5.78371705       3.02396465      58.69340000      -0.50090798      -1.59443370       3.62264563       52        2
Al       4.37565596       7.32701286       7.16002997      26.98153850       0.75665102      -0.79497144      -0.29855747       53        1
Ni       2.87660291       5.74429350       5.65609217      58.69340000      -1.42730777      -0.49978039       1.43016881       54        2
Al       4.39021961       7.15891946      10.19606608      26.98153850       0.19737395      -0.41087997      -0.20973667       55        1
Ni       2.93367205       5.81900894       8.75396945      58.69340000       0.11414882       1.05601297       1.15264371       56        2
Al       4.34780415      10.26845727       1.51613851      26.98153850       0.00517120       0.00967175       1.05610562       57        1
Ni       2.88029710       8.70852191      -0.02484686      58.69340000       0.76959278       0.77600607      -0.47934350       58        2
Al       4.34982104      10.19402061       4.35630468      26.98153850      -2.30899332      -0.86346195      -0.20884105       59        1
Ni       2.80203468       8.63978079       2.85259922      58.69340000      -1.46969183      -0.42215426      -0.31573993       60        2
Al       4.42518688      10.16726081       7.15243474      26.98153850       1.12173281      -0.24716249      -0.08752808       61        1
Ni       2.89605951       8.57054445       5.73702734      58.69340000      -0.30185129       2.27589659       0.03626427       62        2
Al       4.44097481      10.19837235      10.09128769      26.98153850      -0.77201472      -1.35733912      -1.12164906       63        1
Ni       2.94254662       8.61879503       8.63146108      58.69340000      -0.47392652       1.19794500       0.90027846       64        2
Al       7.34831132       1.47507933       1.47576893      26.98153850      -0.95098363      -0.38885002       1.50219406       65        1
Ni       5.89297850       0.04860208       0.09093061      58.69340000       1.34184024       0.26321786       0.09419970       66        2
Al       7.33214423       1.34603762       4.30417445      26.98153850       1.27710799       0.94575506       0.67679505       67        1
Ni       5.73743610       0.07789296       2.84348608      58.69340000      -1.17252197      -0.57854477       0.21676134       68        2
Al       7.24524745       1.45385435       7.14465952      26.98153850      -1.30549410       0.04036356      -1.44577188       69        1
Ni       5.68350865       0.02281313       5.82899070      58.69340000      -0.06607610      -1.11331451       1.07989449       70        2
Al       7.29283330       1.48001357      10.19639844      26.98153850      -0.12158140      -0.37503239      -0.69887761       71        1
Ni       5.80027440       0.11163698       8.65892005      58.69340000      -2.20211609      -0.47650544      -1.50296934       72        2
Al       7.26037483       4.42593327       1.41232824      26.98153850       0.80468042      -0.32385200      -0.92867143       73        1
Ni       5.87773104       2.96878216       0.04405840      58.69340000      -1.98792359      -1.63363457       0.00180279       74        2
Al       7.29202464       4.33870019       4.38267268      26.98153850       0.54296195       2.51426655      -0.31987670       75        1
Ni       5.92521793       2.88659883       2.86465586      58.69340000       0.13549574       1.37900724       0.41180602       76        2
Al       7.17803219       4.40612551       7.25130328      26.98153850       0.16380640       1.28936038       1.04048609       77        1
Ni       5.87878080       2.77501275       5.67766906      58.69340000       1.39513876       0.33281634      -0.76843570       78        2
Al       7.20414140       4.34423321      10.09117347      26.98153850       1.24313729       0.43211061      -0.72186665       79        1
Ni       5.88193071       2.83813127       8.68359675      58.69340000       0.86756062       0.06212301      -0.48427034       80        2
Al       7.29266214       7.19041330       1.54180398      26.98153850       1.06768879      -0.42614183      -0.71689231       81        1
Ni       5.80783312       5.73122367       0.04147555      58.69340000      -1.98642989       0.89180423       1.30409069       82        2
Al       7.26211813       7.25369838       4.36359766      26.98153850      -0.68353140       0.68087773      -1.45339908       83        1
Ni       5.82697660       5.73386123       2.95355986      58.69340000      -0.73210277      -0.19399562      -1.54794255       84        2
Al       7.19363158       7.28851931       7.12300267      26.98153850       0.39767858      -0.76404394      -0.61952283       85        1
Ni       5.76214722       5.84643998       5.74490680      58.69340000       1.22558360      -0.67350827      -0.07773762       86        2
Al       7.29020700       7.21195751      10.05523818      26.98153850       0.04978110      -0.44662861       0.44322614       87        1
Ni       5.76792484       5.80587474       8.64412548      58.69340000      -0.07537233      -1.36516107       1.80190852       88        2
Al       7.35053617      10.03782728       1.45163695      26.98153850      -0.02195725      -0.68760274       0.29507679       89        1
Ni       5.81373398       8.71229655       0.16592067      58.69340000      -0.11386096       2.21238385       0.92907159       90        2
Al       7.34418170      10.17230892       4.35141828      26.98153850       1.51821902       1.12803165      -0.15933851       91        1
Ni       5.92610905       8.80225898       2.98437862      58.69340000      -0.67513379      -0.09404891      -0.87789211       92        2
Al       7.22441875      10.26121991       7.13438361      26.98153850      -1.16805736       0.31031115       1.36637429       93        1
Ni       5.81885577       8.86468885       5.63124108      58.69340000       0.55701871       0.00090122       0.27049729       94        2
Al       7.11701444      10.20115379      10.07393565      26.98153850       0.15904106       1.29377783      -0.89866794       95        1
Ni       5.75514526       8.74681745       8.64032717      58.69340000      -1.45103461      -0.70546610       1.92253539       96        2
Al      10.17616286       1.41490904       1.56484131      26.98153850       0.32425229      -0.95824000      -0.41696481       97        1
Ni       8.82451820      -0.10458658      -0.03057318      58.69340000       0.76538305      -3.77421675       0.05884164       98        2
Al      10.29953713       1.44201364       4.27796139      26.98153850       0.52691749      -1.41108261       1.02368871       99        1
Ni       8.69172185      -0.11920173       2.77958062      58.69340000      -0.03494729      -0.31695645      -1.55215185      100        2
Al      10.18175360       1.37738783       7.16418154      26.98153850       0.25344950       1.41255370      -1.07265396      101        1
Ni       8.71498457       0.00971859       5.76697075      58.69340000      -0.55523583      -0.16541947      -0.25120760      102        2
Al      10.12298887       1.32926760      10.06000230      26.98153850       1.00879138       1.24276726       0.01237166      103        1
Ni       8.65731315      -0.05332104       8.56641100      58.69340000      -0.87932222      -1.40647596      -0.99398097      104        2
Al      10.08961324       4.28067376       1.46561576      26.98153850       0.05680209       0.30181170       1.23333080      105        1
Ni       8.69180543       2.83995103      -0.07708641      58.69340000      -1.80640183       0.89148812      -1.02296475      106        2
Al      10.27578358       4.33682455       4.39866146      26.98153850      -0.25584186       0.73576940      -1.12737282      107        1
Ni       8.67831864       2.86626810       2.99331319      58.69340000      -0.73741904       0.09125689       1.37694702      108        2
Al      10.15922166       4.41315702       7.32437161      26.98153850      -0.81126671      -1.25006932      -0.43906354      109        1
Ni       8.76620717       2.86168279       5.62115640      58.69340000      -4.21187878      -2.27926690      -0.82357747      110        2
Al      10.06367026       4.24011369      10.12384448      26.98153850      -1.31074540       0.98112032      -0.27880585      111        1
Ni       8.53465814       2.86304358       8.68665179      58.69340000       0.31043926      -0.88646438       0.67961859      112        2
Al      10.12916041       7.26161994       1.47435044      26.98153850       1.42404181      -0.44271534       0.03324205      113        1
Ni       8.77069443       5.88527263      -0.02250432      58.69340000       1.01682049       0.80456353      -2.81917340      114        2
Al      10.09097945       7.11487620       4.37039091      26.98153850       0.49470300       0.38314573      -0.03530774      115        1
Ni       8.75820040       5.67064090       2.86412817      58.69340000       0.33660785      -0.81637955      -0.20218199      116        2
Al      10.17538340       7.22724345       7.26230306      26.98153850       0.55490327       0.19243705       1.13835048      117        1
Ni       8.69169931       5.67861135       5.83878193      58.69340000       1.10360883      -1.04855891      -2.97567381      118        2
Al      10.27897966       7.24594422       9.98896325      26.98153850      -0.28124563      -0.10152734      -1.46941820      119        1
Ni       8.66351440       5.81045708       8.71813739      58.69340000       1.85577292      -1.87458941      -0.98683313      120        2
Al      10.08380101      10.05090224       1.42316664      26.98153850       0.34671254       0.92470045      -0.34984919      121        1
Ni       8.61713617       8.63794635      -0.09815592      58.69340000       2.62115109      -0.89622310       1.37431769      122        2
Al      10.21311160      10.18822805       4.27754629      26.98153850      -0.72295310      -1.61077295       1.01247607      123        1
Ni       8.76029765       8.75124794       3.05228446      58.69340000      -1.71114468       1.67461538      -1.39957310      124        2
Al      10.17325141      10.11951248       7.21223963      26.98153850      -0.52530862       0.93373241       0.44673298      125        1
Ni       8.77710405       8.73779656       5.88092478      58.69340000       0.70559048       0.48780553       1.27543337      126        2
Al      10.10483251      10.02645418      10.15689702      26.98153850      -1.33359758       0.01373101       0.51492823      127        1
Ni       8.77058224       8.59301790       8.62755395      58.69340000      -0.63284411       0.77944158       1.33613618      128        2
