LAMMPS data file via write_data, version 22 Jul 2025, timestep = 15007, units = metal

4 atoms
2 atom types

-6.332079501909285e-05 3.5673241421786615 xlo xhi
-8.937413424938581e-07 3.5673865692537334 ylo yhi
-8.937413409921715e-07 3.567386569253731 zlo zhi
8.862131211040454e-16 -1.4186075704437075e-15 1.4078098619522058e-13 xy xz yz

Masses

1 26.98153849305915
2 58.69339998490145

Atoms # atomic/kk

1 1 0.08635900611715944 3.5338801566650817 3.492731081180947 0 -1 -1
2 2 0.039672258558923076 1.7870822794380472 1.8200916857803606 0 0 0
3 2 1.764941387964919 3.5660978656568103 1.7579014584349881 0 -1 0
4 2 1.722855240437135 1.796994482867351 0.023709755965952095 0 0 0

Velocities

1 5.404822679269065 -3.909266598358644 -0.15372216911256975
2 0.7676963361386776 1.6746071772151148 1.104702106056288
3 -0.10985564703734524 -2.0614570033868174 2.134879787797427
4 -3.1424544822428517 2.183951838159001 -3.168915334679905
