LAMMPS data file via write_data, version 22 Jul 2025, timestep = 15000, units = metal

108 atoms
2 atom types

-0.026642279475108666 10.728804668396233 xlo xhi
-0.011889409274584928 10.714051798259806 ylo yhi
-0.02102891493334802 10.723191303918497 zlo zhi
-0.033453171630318794 -0.03968173437640859 0.03454802529565762 xy xz yz

Masses

1 26.98153849305915
2 58.69339998490145

Atoms # atomic/kk

1 1 10.66690040317001 0.04533908596596136 0.09656730676919499 -1 0 0
2 2 10.695655651179887 1.7863754135023724 1.796241627794703 -1 0 0
3 2 1.800765073086572 0.027453492243398513 1.7434201056411278 0 0 0
4 2 1.7341998263424077 1.794095529032713 10.664081323567704 0 0 -1
5 1 10.64295829988389 10.702639040274704 3.4496979581890734 -1 -1 0
6 2 -0.016800899437673024 1.7577281549399102 5.369149084925089 0 0 0
7 2 1.835490863017094 0.08636896406002874 5.380678727186555 0 0 0
8 2 1.8070091442143568 1.8166848003505882 3.4977497541347202 0 0 0
9 1 -0.045253304598986695 10.710518715594112 7.108996024547691 0 -1 0
10 2 10.686121894454509 1.760108245450388 8.986362598478907 -1 0 0
11 2 1.7810988661256641 0.022509758962776488 9.039980115812345 0 0 0
12 2 1.6855479462727316 1.8158841830047192 7.145586860770634 0 0 0
13 1 10.61507169404882 3.5483935367695776 0.07704777171005914 -1 0 0
14 2 10.69754088801165 5.30348891667252 1.7518257581073025 -1 0 0
15 2 1.6691042859529137 3.5420918920017694 1.682652807245062 0 0 0
16 2 1.7414013909955484 5.43273272151455 10.708019823285197 0 0 -1
17 1 0.03863126409415639 3.481913073763641 3.6441243932507046 0 0 0
18 2 -0.05821998306052924 5.358053759901842 5.365316813162244 0 0 0
19 2 1.7548552208354526 3.575064314387582 5.440220656307 0 0 0
20 2 1.7349992233432527 5.409593568440301 3.5010295166231713 0 0 0
21 1 10.657679547226545 3.572267923048014 7.098440164675711 -1 0 0
22 2 10.644218948418592 5.31480172190881 8.952948854828497 -1 0 0
23 2 1.6969244972455368 3.655720492405885 8.932972723575956 0 0 0
24 2 1.7449212513906962 5.428436374754434 7.206673400474396 0 0 0
25 1 10.660855621677731 7.147322564338874 10.70347095469032 -1 0 -1
26 2 10.643223886019213 8.94256292088006 1.738665321343704 -1 0 0
27 2 1.6354237530729032 7.038800193124062 1.8279620557106826 0 0 0
28 2 1.6590911703951983 8.900623496373193 0.08807016794058038 0 0 0
29 1 10.545879056070639 7.112731434127367 3.4479026195882985 -1 0 0
30 2 -0.02251481098510246 8.958965614209799 5.3221034985760065 0 0 0
31 2 1.6238762067078312 7.191028365609691 5.400886157433883 0 0 0
32 2 1.73295196111228 8.833228197510255 3.5576008394518848 0 0 0
33 1 10.656353388723568 7.193634456756939 7.1898616165243405 -1 0 0
34 2 10.63614233086418 8.987035268802643 8.98144373299128 -1 0 0
35 2 1.6931915092818215 7.216041199016026 8.935254388745776 0 0 0
36 2 1.7367043822519759 8.883979433701061 7.2463618898970665 0 0 0
37 1 3.5013045902101796 10.581313073180336 0.02812691299999109 0 -1 0
38 2 3.589463160686315 1.7060082951283522 1.7490072889155588 0 0 0
39 2 5.1856250741307255 10.667146929214386 1.8238597121172582 0 -1 0
40 2 5.412635974815776 1.709998443408958 0.0170357692373186 0 0 0
41 1 3.448626070322271 0.0015262844119545201 3.7017817002311038 0 0 0
42 2 3.534719441959612 1.8633760258015992 5.338342925911025 0 0 0
43 2 5.41622456668103 0.07209521845390139 5.297841198066495 0 0 0
44 2 5.26552498552822 1.8529828785048186 3.5018190256797723 0 0 0
45 1 3.4219555934177763 0.01736631783789307 7.11253810403386 0 0 0
46 2 3.524329751287434 1.831890442158226 8.87619501395793 0 0 0
47 2 5.256787819354478 10.695172579531103 8.920733480848039 0 -1 0
48 2 5.280639629591968 1.7841014828086665 7.142435935307128 0 0 0
49 1 3.531123356786591 3.5831502368314956 10.706468810074288 0 0 -1
50 2 3.522641543410388 5.380881360318449 1.7466282684653134 0 0 0
51 2 5.370403685075501 3.613453584833668 1.7554958564521295 0 0 0
52 2 5.353784310451877 5.316382198644733 0.05191731330053356 0 0 0
53 1 3.429944533993835 3.6532501914790494 3.567590331269365 0 0 0
54 2 3.5120296181059545 5.356777065747507 5.3276083440313045 0 0 0
55 2 5.32486212087285 3.6370606423948693 5.412231746842086 0 0 0
56 2 5.337298201632789 5.414645388632147 3.566375198635712 0 0 0
57 1 3.4853798964069083 3.772479696306475 7.176301818727706 0 0 0
58 2 3.535533979716144 5.433431670107533 8.971708913524473 0 0 0
59 2 5.358855217157556 3.6605150968304416 8.927394943706377 0 0 0
60 2 5.3125011005356075 5.426696244813646 7.1504561868276495 0 0 0
61 1 3.637519836571261 7.215872889611011 0.07499054119957356 0 0 0
62 2 3.4435888645797292 8.868297757009202 1.7162931662964795 0 0 0
63 2 5.45502766797439 7.132933285096331 1.7960813000275975 0 0 0
64 2 5.3624376005220595 8.881925328095317 0.03567925248199114 0 0 0
65 1 3.5991044040621363 7.10956451917915 3.5821150919377858 0 0 0
66 2 3.5554978604892575 8.905851028706472 5.337854923739605 0 0 0
67 2 5.254933826663488 7.207356585112929 5.404710723175238 0 0 0
68 2 5.427723914461015 8.917110791161402 3.492479811476624 0 0 0
69 1 3.505437002836988 7.1494884771810785 7.103045922223759 0 0 0
70 2 3.5079130138793997 8.932217358849385 8.874648911802309 0 0 0
71 2 5.369649493811079 7.0929659745468 8.935862952559356 0 0 0
72 2 5.236883550925404 9.038202908545706 7.236540092193032 0 0 0
73 1 7.145454471701705 0.06764998554345306 10.545441848403826 0 0 -1
74 2 7.074486191512897 1.7642527608993228 1.6398604282303033 0 0 0
75 2 8.862777036173439 0.0015236246801255075 1.713981497074219 0 0 0
76 2 8.802425818874735 1.75189229585961 0.023957668042317595 0 0 0
77 1 7.070888766275345 0.119945821401607 3.454676309780276 0 0 0
78 2 7.067311494389705 1.829158068832192 5.475518728079901 0 0 0
79 2 8.959569091638775 0.05741059904672095 5.340779083414677 0 0 0
80 2 8.871864337670338 1.791237915039695 3.4503918635158723 0 0 0
81 1 7.133886207102504 10.656387968818155 7.184182604062871 0 -1 0
82 2 7.001892740960946 1.8110717622317989 8.85556556860173 0 0 0
83 2 8.980659959105767 10.720806679016118 9.008597758733414 0 -1 0
84 2 8.938726259117505 1.7384057728571498 7.214161034814263 0 0 0
85 1 7.070967180800219 3.5521014370295148 10.676521776733654 0 0 -1
86 2 7.207042455727173 5.310749032891425 1.886993078787401 0 0 0
87 2 8.802015747141873 3.550974099048188 1.698687120182196 0 0 0
88 2 8.819779546246782 5.369949020322824 10.603818869948254 0 0 -1
89 1 7.0806553853022205 3.5529558132066965 3.613602507035362 0 0 0
90 2 7.06933945954873 5.389941216493431 5.241902778146669 0 0 0
91 2 8.857293770163672 3.504794826250338 5.249848757422713 0 0 0
92 2 8.971177015934497 5.287069029221076 3.5222309670242224 0 0 0
93 1 7.175941998786375 3.614976554003596 7.0448685377028735 0 0 0
94 2 7.0767589838616125 5.384357197008981 8.943738847937885 0 0 0
95 2 8.862684061209496 3.495873393769579 8.911170053529547 0 0 0
96 2 8.90631857760801 5.318496703290216 6.96295723599059 0 0 0
97 1 7.091741384064134 7.197765489249316 10.651362462092226 0 0 -1
98 2 7.134349892769741 8.973846084042524 1.794715237290716 0 0 0
99 2 8.897951113541613 7.181844209585667 1.7483003974853912 0 0 0
100 2 8.905909516624389 8.924892952675446 0.025602793358049047 0 0 0
101 1 7.240874011022049 7.0879426930347815 3.552136100245142 0 0 0
102 2 7.1456210125740975 8.986564933829328 5.408902550192747 0 0 0
103 2 9.019689526962443 7.254039346153847 5.33939713918337 0 0 0
104 2 8.86183119711646 8.875935306923978 3.58707687107607 0 0 0
105 1 7.087417662722356 7.291529650875049 7.1222063605037205 0 0 0
106 2 7.12601759751873 8.898652744421312 9.025707052984048 0 0 0
107 2 8.926156954977428 7.214788973486542 8.944813619147512 0 0 0
108 2 9.01120408170559 9.004055485312293 7.0950428255918165 0 0 0

Velocities

1 3.524622430047642 -1.7531736265247475 -3.588479964604811
2 -3.0902844815014543 -3.7636172160446075 0.3515981082966809
3 0.8437248385416578 -0.5759467489786336 0.9938058929098706
4 -1.868731052085006 -0.9784375741329889 1.4115109871866565
5 1.507800859176889 4.2714120974955225 2.009919635725625
6 -0.3024439567031562 -0.4513484556274435 -4.361486119466949
7 -1.8974947460178129 0.5524634094487553 -4.041144895460434
8 -0.4263886370738982 -0.48855627017588577 1.3285653312040882
9 1.5932615631585334 0.8078808444244776 3.852951520192693
10 -1.0336396493676985 1.5152366219583149 -0.026112629930151305
11 -1.139928072265338 -1.1890790736861938 -0.3430176865632313
12 -1.5778538558282547 1.133690227760119 -0.8662482848750424
13 6.687810710598383 -1.476124271764759 4.969115719969617
14 2.6778974133938505 -2.6578939830865753 -1.1051128889595951
15 1.1446972353858547 -0.21622329455755707 1.6595527300942452
16 1.6080644733561302 -1.5964117638480522 1.6802768453081467
17 -0.6361301494859398 -0.7672115299532022 0.22289492855510368
18 1.2810532176559504 2.5188040738039508 -0.8588442407535335
19 -3.1074376594152318 -0.22597438997817657 -2.1920161140138643
20 -4.475075754908823 2.4241428359951316 -0.3594298403685884
21 -1.6703004296660502 -5.366371303873476 -3.799724845908546
22 1.6865597543616475 -2.78002435000715 0.30025015851426956
23 -2.288820010181113 1.7505215378647914 -0.5833904513605885
24 -2.4844289658355456 4.092819813136495 -0.990072415562956
25 -6.036274568794602 4.209349089023382 -5.475591780156564
26 -1.6633576540728767 -0.7122562670842466 -1.956113543331113
27 -3.200174164996796 -0.9554144745896147 -1.8151155730713366
28 0.8092090279479155 -2.775074402337085 0.5350023846598184
29 3.50499889417147 -0.9122770340178313 0.8909959300575948
30 2.3086045738287146 -0.9847396749516146 2.698347828206151
31 0.27780751207460264 -0.946648575342489 -1.3304839641040942
32 -1.5350563970804787 -0.4300029614897338 -0.25518356731835173
33 3.5045598310678807 -0.8723826206024945 1.8953944355761727
34 2.9850313542632763 2.528143163607684 -1.1801427974549161
35 -2.384116993107535 -3.7521771614047963 2.097168957617413
36 2.962120438989436 -1.7512242242523455 -1.6150090769331875
37 4.531043147235296 -2.846330021157421 -1.2306558372016194
38 -1.702890797637844 -2.7248045846384703 0.07367770917736567
39 2.7378157574682764 0.8627481204280777 1.6169517431268838
40 -0.9063587188063833 -0.6456183502122148 -1.2136855934520092
41 6.548381123351916 -0.8154349281210947 -6.733438043384067
42 -2.80153609873783 -3.6507245914924136 1.558870386899909
43 -0.7062889949551748 2.882374931371827 -2.620862757219628
44 -2.5674249637861 0.944278447768514 -1.6771130827787362
45 -4.9008191671696695 -2.7259107377511373 5.264189619490598
46 -2.57284540781118 5.263241679498039 0.7307431271270431
47 2.8113466218555607 2.0368805313805383 0.33203462880342627
48 0.6245079913819378 1.0181122677178844 1.2673082413858514
49 3.9320202447538395 1.7941015411457217 2.0525621210014093
50 1.857392597311783 1.900792242975803 1.795934424957475
51 -0.6064118202024946 1.7200640817799246 -0.40390795393539713
52 0.9095413972123989 -2.40802073627753 -0.775662744274288
53 0.25126080281043894 -2.1150253229425835 -0.5299641244061538
54 1.7442797555068996 2.566332122817715 0.8847938582760714
55 0.4955711054857059 -0.0934642898901305 3.392755562612757
56 -0.021892289471778667 -0.336166345079164 -0.5728666301468627
57 4.372545421337648 4.425325283137551 1.309622877169345
58 2.44286639303869 2.2404410102492744 -0.14357243338319564
59 1.9006584635957953 -1.2281314217936883 -5.349412553573549
60 -2.8550039701256393 0.19479533195971094 -2.504047809656095
61 -4.180816197798476 -1.069841811698933 -5.063662285350762
62 -2.4631439711697904 2.7309424062665273 3.424651340645017
63 -0.6505575982632646 0.6502140613563762 -0.45443814286684725
64 1.6979970861736444 2.9171948779654304 0.034737351183600454
65 3.3073305062236287 5.448141268743461 1.201262948188975
66 0.9245465609690404 1.5743725893662583 3.0060934017031835
67 -0.2479517513474138 -2.4314437927308163 1.0005987610127092
68 1.955827773837468 -0.2992643269673709 0.8385218812427269
69 -5.909148259789633 -5.253380197219096 -2.6353755327679065
70 1.0181410651723366 -0.14883267515125373 2.1888345985983584
71 -0.8094281908825488 0.502077228629518 0.8421171698411699
72 3.2700088744412485 -2.643311592756871 0.11302520110543532
73 -3.341509596145392 -5.6440254952237625 0.51346376089831
74 -0.6586134747671168 -0.7512457075403673 1.7414905679533372
75 2.6330039653640105 0.41840566739146295 1.2834520283241335
76 1.613876118683209 -0.5081435527092684 0.7889900172647367
77 -3.7305086747056317 1.4236886594987974 4.133655964631147
78 -0.7571522595305099 -2.5025969335741234 0.2574065493738759
79 0.8475220474143663 0.41218271068137774 5.216800368089941
80 -0.057979014752371626 0.0953231728668976 -1.403838539299193
81 1.3123822313910674 2.9413261865703606 -2.58690560940606
82 2.1780701769135593 -0.12518032558183895 1.0435648381324196
83 1.7942877527092955 -0.05589693372773763 -1.5704687947825289
84 0.19909276416090121 -0.7164927513940706 -1.9552167457353753
85 0.8421130487150322 2.194507379483373 -1.8317225589427462
86 -0.5291779788983302 1.1426337931644552 6.25536106727087
87 0.4442874861824118 -1.8400229324495088 1.3099796107887152
88 2.794232110190042 0.0721676460376645 0.32868237865581
89 3.2945948190110808 -3.2526293910255593 -4.193253199916898
90 -2.659089014592479 -2.1232014100636483 0.062483919382061166
91 -2.0141599995712522 1.763776659352045 -1.8858519440208084
92 -1.2252966977553825 -0.36961581642488384 -1.0781097664939776
93 3.8222734843146724 2.1678762949862365 -0.5333294784476728
94 1.1869050369285443 0.9520452558331199 1.2906177442539764
95 -2.7659529281476303 0.9967895387857711 0.01335402418495258
96 -1.5515972722072633 4.219065908675705 0.41473178303209574
97 -0.5277752958108769 -1.0749318646565502 -0.33496826447517725
98 1.5280828378809803 -2.335239607033824 0.5465543294647192
99 2.3269596927983245 -5.46511639703347 -0.8479406164539147
100 -0.1731335473787177 2.2488817912197123 3.6847583456718422
101 3.0730854660463467 3.4439798373285977 -2.0112689137089026
102 -0.5026678308810404 2.8153300583631813 -1.915778409195452
103 -0.23548804777414117 -1.5088638882081886 -1.0854523819916162
104 -0.952563674124343 0.12885068758576196 -0.4670876292228022
105 -1.9114425443433234 -0.03999780219197171 2.079529114650047
106 -0.5906410891887447 -1.1081774642270752 -2.198678787507782
107 -4.699874453617581 2.1307637712512726 -1.3871214232358842
108 -0.2265440134822633 0.6473100196401972 -0.338651960259766
