4
Lattice="3.5673874629736804 0.0 0.0 8.862131211040454e-16 3.567387462995076 0.0 -1.4186075704437075e-15 1.4078098619522058e-13 3.567387462995072" Properties=species:S:1:pos:R:3:masses:R:1:momenta:R:3:id:I:1:type:I:1 comment="LAMMPS data file via write_data, version 22 Jul 2025, timestep = 15007, units = metal" config_id=AlNi3_stageD_post_nvt source="Stage D primitive-cell MD endpoint (300K NVT endpoint (t=15ps, primitive)), 300K/1fs, mliap unified Kokkos" pbc="T T T"
Al       0.08635901      -0.03350731      -0.07465638      26.98153850       1.48462753      -1.07381965      -0.04222528        1        1
Ni       0.03967226       1.78708228       1.82009169      58.69340000       0.45872043       1.00062550       0.66009098        2        2
Ni       1.76494139      -0.00128960       1.75790146      58.69340000      -0.06564188      -1.23177929       1.27565150        3        2
Ni       1.72285524       1.79699448       0.02370976      58.69340000      -1.87770609       1.30497345      -1.89351720        4        2
