2
Lattice="2.8954460799559705 0.0 0.0 -1.8621574791868267e-16 2.8954460799559696 0.0 -1.9210563302383843e-16 -1.1310003138161833e-16 2.8954460799559705" Properties=species:S:1:pos:R:3:masses:R:1:momenta:R:3:id:I:1:type:I:1 comment="LAMMPS data file via write_data, version 22 Jul 2025, timestep = 15003, units = metal" config_id=AlNi_stageD_post_nvt source="Stage D primitive-cell MD endpoint (300K NVT endpoint (t=15ps, primitive)), 300K/1fs, mliap unified Kokkos" pbc="T T T"
Al       1.50563433       1.50563433       1.50563433      26.98153850      -0.10368675      -0.10368675      -0.10368675        1        1
Ni      -0.02767141      -0.02767141      -0.02767141      58.69340000       0.10368675       0.10368675       0.10368675        2        2
