108
Lattice="10.755446947871341 0.0 0.0 -0.033453171630318794 10.72594120753439 0.0 -0.03968173437640859 0.03454802529565762 10.744220218851845" Properties=species:S:1:pos:R:3:masses:R:1:momenta:R:3:id:I:1:type:I:1 comment="LAMMPS data file via write_data, version 22 Jul 2025, timestep = 15000, units = metal" config_id=AlNi3_stageD2_post_npt_supercell source="Stage D-2 supercell MD endpoint (300K NPT, t=15ps), mliap unified Kokkos" pbc="T T T"
Al      -0.08854654       0.04533909       0.09656731      26.98153850       0.96816340      -0.48157173      -0.98570415        1        1
Ni      -0.05979130       1.78637541       1.79624163      58.69340000      -1.84653302      -2.24886852       0.21008989        2        2
Ni       1.80076507       0.02745349       1.74342011      58.69340000       0.50414963      -0.34414459       0.59382734        3        2
Ni       1.77388156       1.75954750      -0.08013890      58.69340000      -1.11662005      -0.58464433       0.84341803        4        2
Al      -0.07903548      -0.02330217       3.44969796      26.98153850       0.41417134       1.17329585       0.55209619        5        1
Ni      -0.01680090       1.75772815       5.36914908      58.69340000      -0.18071888      -0.26969356      -2.60611222        6        2
Ni       1.83549086       0.08636896       5.38067873      58.69340000      -1.13380717       0.33011263      -2.41469921        7        2
Ni       1.80700914       1.81668480       3.49774975      58.69340000      -0.25477936      -0.29192629       0.79385564        8        2
Al      -0.01180013      -0.01542249       7.10899602      26.98153850       0.43764618       0.22191332       1.05835071        9        1
Ni      -0.06932505       1.76010825       8.98636260      58.69340000      -0.61762914       0.90539705      -0.01560304       10        2
Ni       1.78109887       0.02250976       9.03998012      58.69340000      -0.68113950      -0.71050863      -0.20496284       11        2
Ni       1.68554795       1.81588418       7.14558686      58.69340000      -0.94281263       0.67741221      -0.51760803       12        2
Al      -0.14037525       3.54839354       0.07704777      26.98153850       1.83704600      -0.40547024       1.36494506       13        1
Ni      -0.05790606       5.30348892       1.75182576      58.69340000       1.60012000      -1.58816738      -0.66033644       14        2
Ni       1.66910429       3.54209189       1.68265281      58.69340000       0.68398921      -0.12919958       0.99163004       15        2
Ni       1.78108313       5.39818470      -0.03620040      58.69340000       0.96086434      -0.95390151       1.00401329       16        2
Al       0.03863126       3.48191307       3.64412439      26.98153850      -0.17473586      -0.21074204       0.06122605       17        1
Ni      -0.05821998       5.35805376       5.36531681      58.69340000       0.76546580       1.50505720      -0.51318390       18        2
Ni       1.75485522       3.57506431       5.44022066      58.69340000      -1.85678254      -0.13502614      -1.30979208       19        2
Ni       1.73499922       5.40959357       3.50102952      58.69340000      -2.67398527       1.44849441      -0.21476957       20        2
Al      -0.09776740       3.57226792       7.09844016      26.98153850      -0.45880765      -1.47406549      -1.04373010       21        1
Ni      -0.11122800       5.31480172       8.95294885      58.69340000       1.00776751      -1.66114376       0.17940802       22        2
Ni       1.69692450       3.65572049       8.93297272      58.69340000      -1.36763517       1.04598649      -0.34859242       23        2
Ni       1.74492125       5.42843637       7.20667340      58.69340000      -1.48451709       2.44557645      -0.59159648       24        2
Al      -0.05490959       7.11277454      -0.04074926      26.98153850      -1.65807834       1.15624803      -1.50406679       25        1
Ni      -0.11222306       8.94256292       1.73866532      58.69340000      -0.99390359      -0.42559341      -1.16883357       26        2
Ni       1.63542375       7.03880019       1.82796206      58.69340000      -1.91219524      -0.57088737      -1.08458327       27        2
Ni       1.65909117       8.90062350       0.08807017      58.69340000       0.48352545      -1.65818602       0.31967917       28        2
Al      -0.20956789       7.11273143       3.44790262      26.98153850       0.96277309      -0.25058946       0.24474385       29        1
Ni      -0.02251481       8.95896561       5.32210350      58.69340000       1.37945701      -0.58841001       1.61233971       30        2
Ni       1.62387621       7.19102837       5.40088616      58.69340000       0.16599790      -0.56564950      -0.79500208       31        2
Ni       1.73295196       8.83322820       3.55760084      58.69340000      -0.91723993      -0.25693902      -0.15247945       32        2
Al      -0.09909356       7.19363446       7.18986162      26.98153850       0.96265249      -0.23963104       0.52063776       33        1
Ni      -0.11930462       8.98703527       8.98144373      58.69340000       1.78364128       1.51063757      -0.70516895       34        2
Ni       1.69319151       7.21604120       8.93525439      58.69340000      -1.42457783      -2.24203276       1.25311820       35        2
Ni       1.73670438       8.88397943       7.24636189      58.69340000       1.76995136      -1.04640637      -0.96501394       36        2
Al       3.53475776      -0.14462813       0.02812691      26.98153850       1.24461278      -0.78184617      -0.33804357       37        1
Ni       3.58946316       1.70600830       1.74900729      58.69340000      -1.01752577      -1.62814837       0.04402453       38        2
Ni       5.21907825      -0.05879428       1.82385971      58.69340000       1.63592292       0.51551658       0.96617474       39        2
Ni       5.41263597       1.70999844       0.01703577      58.69340000      -0.54157516      -0.38577536      -0.72521172       40        2
Al       3.44862607       0.00152628       3.70178170      26.98153850       1.79874669      -0.22398832      -1.84957918       41        1
Ni       3.53471944       1.86337603       5.33834293      58.69340000      -1.67399764      -2.18141196       0.93146947       42        2
Ni       5.41622457       0.07209522       5.29784120      58.69340000      -0.42202780       1.72230114      -1.56604017       43        2
Ni       5.26552499       1.85298288       3.50181903      58.69340000      -1.53410957       0.56423328      -1.00212285       44        2
Al       3.42195559       0.01736632       7.11253810      26.98153850      -1.34618497      -0.74876871       1.44599764       45        1
Ni       3.52432975       1.83189044       8.87619501      58.69340000      -1.53734844       3.14493686       0.43663984       46        2
Ni       5.29024099      -0.03076863       8.92073348      58.69340000       1.67985971       1.21709415       0.19840015       47        2
Ni       5.28063963       1.78410148       7.14243594      58.69340000       0.37316132       0.60835109       0.75725278       48        2
Al       3.57080509       3.54860221      -0.03775141      26.98153850       1.08006976       0.49281405       0.56380947       49        1
Ni       3.52264154       5.38088136       1.74662827      58.69340000       1.10984500       1.13577752       1.07312199       50        2
Ni       5.37040369       3.61345358       1.75549586      58.69340000      -0.36234834       1.02778730      -0.24134651       51        2
Ni       5.35378431       5.31638220       0.05191731      58.69340000       0.54347690      -1.43886100      -0.46348059       52        2
Al       3.42994453       3.65325019       3.56759033      26.98153850       0.06901775      -0.58096722      -0.14557357       53        1
Ni       3.51202962       5.35677707       5.32760834      58.69340000       1.04225685       1.53345656       0.52868954       54        2
Ni       5.32486212       3.63706064       5.41223175      58.69340000       0.29611786      -0.05584758       2.02726811       55        2
Ni       5.33729820       5.41464539       3.56637520      58.69340000      -0.01308127      -0.20086897      -0.34230413       56        2
Al       3.48537990       3.77247970       7.17630182      26.98153850       1.20107572       1.21557360       0.35973468       57        1
Ni       3.53553398       5.43343167       8.97170891      58.69340000       1.45968227       1.33872734      -0.08578862       58        2
Ni       5.35885522       3.66051510       8.92739494      58.69340000       1.13569758      -0.73384352      -3.19642641       59        2
Ni       5.31250110       5.42669624       7.15045619      58.69340000      -1.70594622       0.11639576      -1.49623991       60        2
Al       3.63751984       7.21587289       0.07499054      26.98153850      -1.14841045      -0.29387025      -1.39091565       61        1
Ni       3.44358886       8.86829776       1.71629317      58.69340000      -1.47179870       1.63181590       2.04632675       62        2
Ni       5.45502767       7.13293329       1.79608130      58.69340000      -0.38872670       0.38852143      -0.27153974       63        2
Ni       5.36243760       8.88192533       0.03567925      58.69340000       1.01460164       1.74310706       0.02075656       64        2
Al       3.59910440       7.10956452       3.58211509      26.98153850       0.90847641       1.49652653       0.32996976       65        1
Ni       3.55549786       8.90585103       5.33785492      58.69340000       0.55244291       0.94073248       1.79622646       66        2
Ni       5.25493383       7.20735659       5.40471072      58.69340000      -0.14815824      -1.45285694       0.59788627       67        2
Ni       5.42772391       8.91711079       3.49247981      58.69340000       1.16866282      -0.17881896       0.50104071       68        2
Al       3.50543700       7.14948848       7.10304592      26.98153850      -1.62315856      -1.44302845      -0.72389999       69        1
Ni       3.50791301       8.93221736       8.87464891      58.69340000       0.60836829      -0.08893176       1.30789104       70        2
Ni       5.36964949       7.09296597       8.93586295      58.69340000      -0.48365641       0.30000545       0.50318900       71        2
Ni       5.23688355       9.03820291       7.23654009      58.69340000       1.95392347      -1.57945399       0.06753578       72        2
Al       7.18513621       0.03310196      -0.19877837      26.98153850      -0.91786492      -1.55033313       0.14104116       73        1
Ni       7.07448619       1.76425276       1.63986043      58.69340000      -0.39354032      -0.44889071       1.04059023       74        2
Ni       8.86277704       0.00152362       1.71398150      58.69340000       1.57329489       0.25000931       0.76689915       75        2
Ni       8.80242582       1.75189230       0.02395767      58.69340000       0.96433696      -0.30363025       0.47144401       76        2
Al       7.07088877       0.11994582       3.45467631      26.98153850      -1.02471741       0.39106692       1.13545621       77        1
Ni       7.06731149       1.82915807       5.47551873      58.69340000      -0.45242005      -1.49537297       0.15380775       78        2
Ni       8.95956909       0.05741060       5.34077908      58.69340000       0.50641857       0.24629091       3.11718685       79        2
Ni       8.87186434       1.79123792       3.45039186      58.69340000      -0.03464411       0.05695831      -0.83883352       80        2
Al       7.16733938      -0.06955324       7.18418260      26.98153850       0.36049264       0.80794026      -0.71058599       81        1
Ni       7.00189274       1.81107176       8.85556557      58.69340000       1.30145899      -0.07479881       0.62355972       82        2
Ni       9.01411313      -0.00513453       9.00859776      58.69340000       1.07213805      -0.03340001      -0.93839985       83        2
Ni       8.93872626       1.73840577       7.21416103      58.69340000       0.11896360      -0.42812483      -1.16829771       84        2
Al       7.11064892       3.51755341      -0.06769844      26.98153850       0.23131642       0.60279981      -0.50314800       85        1
Ni       7.20704246       5.31074903       1.88699308      58.69340000      -0.31619892       0.68275625       3.73775646       86        2
Ni       8.80201575       3.55097410       1.69868712      58.69340000       0.26547443      -1.09946613       0.78275014       87        2
Ni       8.85946128       5.33540100      -0.14040135      58.69340000       1.66963330       0.04312222       0.19639709       88        2
Al       7.08065539       3.55295581       3.61360251      26.98153850       0.90497810      -0.89345080      -1.15182671       89        1
Ni       7.06933946       5.38994122       5.24190278      58.69340000      -1.58888145      -1.26867334       0.03733592       90        2
Ni       8.85729377       3.50479483       5.24984876      58.69340000      -1.20351799       1.05390681      -1.12685027       91        2
Ni       8.97117702       5.28706903       3.52223097      58.69340000      -0.73214969      -0.22085598      -0.64420130       92        2
Al       7.17594200       3.61497655       7.04486854      26.98153850       1.04992389       0.59548463      -0.14649798       93        1
Ni       7.07675898       5.38435720       8.94373885      58.69340000       0.70920958       0.56887417       0.77118087       94        2
Ni       8.86268406       3.49587339       8.91117005      58.69340000      -1.65273568       0.59561015       0.00797941       95        2
Ni       8.90631858       5.31849670       6.96295724      58.69340000      -0.92712358       2.52101209       0.24781406       96        2
Al       7.13142312       7.16321746      -0.09285776      26.98153850      -0.14497233      -0.29526842      -0.09201099       97        1
Ni       7.13434989       8.97384608       1.79471524      58.69340000       0.91307303      -1.39537220       0.32658178       98        2
Ni       8.89795111       7.18184421       1.74830040      58.69340000       1.39042472      -3.26556276      -0.50666868       99        2
Ni       8.90590952       8.92489295       0.02560279      58.69340000      -0.10345223       1.34377094       2.20174810      100        2
Al       7.24087401       7.08794269       3.55213610      26.98153850       0.84413265       0.94601203      -0.55246682      101        1
Ni       7.14562101       8.98656493       5.40890255      58.69340000      -0.30035835       1.68223992      -1.14473218      102        2
Ni       9.01968953       7.25403935       5.33939714      58.69340000      -0.14071082      -0.90158916      -0.64858872      103        2
Ni       8.86183120       8.87593531       3.58707687      58.69340000      -0.56918394       0.07699196      -0.27909817      104        2
Al       7.08741766       7.29152965       7.12220636      26.98153850      -0.52504594      -0.01098682       0.57121692      105        1
Ni       7.12601760       8.89865274       9.02570705      58.69340000      -0.35292488      -0.66216761      -1.31377322      106        2
Ni       8.92615695       7.21478897       8.94481362      58.69340000      -2.80830889       1.27319206      -0.82884457      107        2
Ni       9.01120408       9.00405549       7.09504283      58.69340000      -0.13536650       0.38678618      -0.20235419      108        2
