LAMMPS data file via write_data, version 22 Jul 2025, timestep = 30003, units = metal

2 atoms
2 atom types

0.029196982196147525 2.8648112565559667 xlo xhi
-9.90472608255466e-05 2.8941072860129813 ylo yhi
-0.10015959338347091 2.994167832135642 zlo zhi
0.023481717956665545 0.3508992601473931 0.020649482154657558 xy xz yz

Masses

1 26.98153849305915
2 58.69339998490145

Atoms # atomic/kk

1 1 1.6034616576035299 1.510738263701561 1.399387443227393 0 0 0
2 2 0.06680673361919393 2.869554817615023 -0.07827005889640339 0 -1 0

Velocities

1 1.887710707955924 0.903002331230369 -2.903755859521843
2 -0.8677864826977972 -0.4151129797504346 1.3348655984878888
