
     Program PWSCF v.7.6 starts on  7Aug2026 at 17: 7:43 
        Git branch: HEAD
        Last git commit: 9f93ddec427d2b9a45bb72d828c6d324f62fcabd
        Last git commit date: Thu Jul 9 09:42:23 2026 +0200
        Last git commit subject: setting version number to 7.6

     This program is part of the open-source Quantum ESPRESSO suite
     for quantum simulation of materials; please cite
         "P. Giannozzi et al., J. Phys.:Condens. Matter 21 395502 (2009);
         "P. Giannozzi et al., J. Phys.:Condens. Matter 29 465901 (2017);
         "P. Giannozzi et al., J. Chem. Phys. 152 154105 (2020);
          URL http://www.quantum-espresso.org", 
     in publications or presentations arising from this work. More details at
     http://www.quantum-espresso.org/quote

     Parallel version (MPI), running on     2 processors

     MPI processes distributed on     1 nodes
     7346 MiB available memory on the printing compute node when the environment starts

     Reading input from /home/abdulrahim/ni_al_dft_work/cloud_static_inputs/diverse_pilot_01/Al3Ni/rattle_003/Al3Ni_rattle_003_local.in

     Current dimensions of program PWSCF are:
     Max number of different atomic species (ntypx) = 10
     Max number of k-points (npk) =  40000
     Max angular momentum in pseudopotentials (lmaxx) =  4
     file Al.pbe-n-kjpaw_psl.1.0.0.UPF: wavefunction(s)  3S 3P renormalized

     IMPORTANT: XC functional enforced from input :
     Exchange-correlation= PBE
                           (   1   4   3   4   0   0   0)
     Any further DFT definition will be discarded
     Please, verify this is what you really want


     K-points division:     npool     =       2
     Subspace diagonalization in iterative solution of the eigenvalue problem:
     a serial algorithm will be used


     G-vector sticks info
     --------------------
     sticks:   dense  smooth     PW     G-vecs:    dense   smooth      PW
     Sum        6543    3265    907               519381   183681   26691

     Using Slab Decomposition



     bravais-lattice index     =            0
     lattice parameter (alat)  =       9.1189  a.u.
     unit-cell volume          =    1592.2060 (a.u.)^3
     number of atoms/cell      =           16
     number of atomic types    =            2
     number of electrons       =       108.00
     number of Kohn-Sham states=           65
     kinetic-energy cutoff     =      90.0000  Ry
     charge density cutoff     =     720.0000  Ry
     scf convergence threshold =      1.0E-10
     mixing beta               =       0.3000
     number of iterations used =            8  plain     mixing
     Exchange-correlation= PBE
                           (   1   4   3   4   0   0   0)

     celldm(1)=   9.118882  celldm(2)=   0.000000  celldm(3)=   0.000000
     celldm(4)=   0.000000  celldm(5)=   0.000000  celldm(6)=   0.000000

     crystal axes: (cart. coord. in units of alat)
               a(1) = (   1.000000   0.000000   0.000000 )  
               a(2) = (   0.000000   1.372506   0.000000 )  
               a(3) = (   0.000000   0.000000   1.529890 )  

     reciprocal axes: (cart. coord. in units 2 pi/alat)
               b(1) = (  1.000000 -0.000000  0.000000 )  
               b(2) = ( -0.000000  0.728594  0.000000 )  
               b(3) = (  0.000000  0.000000  0.653642 )  


     PseudoPot. # 1 for Al read from file:
     /home/abdulrahim/ni_al_dft_work/cloud_static_inputs/pseudo/Al.pbe-n-kjpaw_psl.1.0.0.UPF
     MD5 check sum: cfc449ca30b5f3223ec38ddd88ac046d
     Pseudo is Projector augmented-wave + core cor, Zval =  3.0
     Generated using "atomic" code by A. Dal Corso  v.5.1
     Shape of augmentation charge: PSQ
     Using radial grid of 1135 points,  6 beta functions with: 
                l(1) =   0
                l(2) =   0
                l(3) =   1
                l(4) =   1
                l(5) =   2
                l(6) =   2
     Q(r) pseudized with 0 coefficients 


     PseudoPot. # 2 for Ni read from file:
     /home/abdulrahim/ni_al_dft_work/cloud_static_inputs/pseudo/ni_pbe_v1.4.uspp.F.UPF
     MD5 check sum: 1ee80287db30b12d2bc1f57a5b5d6409
     Pseudo is Ultrasoft + core correction, Zval = 18.0
     Generated by new atomic code, or converted to UPF format
     Using radial grid of  865 points,  6 beta functions with: 
                l(1) =   0
                l(2) =   0
                l(3) =   1
                l(4) =   1
                l(5) =   2
                l(6) =   2
     Q(r) pseudized with 10 coefficients,  rinner =    0.980   0.980   0.980
                                                       0.980   0.980

     atomic species   valence    mass     pseudopotential
     Al                3.00    26.98154     Al( 1.00)
     Ni               18.00    58.69340     Ni( 1.00)

     No symmetry found



   Cartesian axes

     site n.     atom                  positions (alat units)
         1        Al     tau(   1) = (   0.9191745   0.0092774   0.3803665  )
         2        Al     tau(   2) = (   0.3553458   0.2365768   0.6906987  )
         3        Al     tau(   3) = (   0.3571498   0.2291892   0.0915177  )
         4        Al     tau(   4) = (   0.8624271   0.4532123   0.8478805  )
         5        Al     tau(   5) = (   0.1319374   0.9306334   0.6832510  )
         6        Al     tau(   6) = (   0.6267700   1.1309627   1.4416892  )
         7        Al     tau(   7) = (   0.1374036   0.9136167   0.0830497  )
         8        Al     tau(   8) = (   0.6313319   1.1469614   0.8483987  )
         9        Al     tau(   9) = (   0.8664240   0.4523576   1.4385371  )
        10        Al     tau(  10) = (   0.5872937   0.7045497   0.3739239  )
        11        Al     tau(  11) = (   0.0857364   1.3683747   1.1522712  )
        12        Al     tau(  12) = (   0.4166662   0.6705306   1.1568547  )
        13        Ni     tau(  13) = (   0.4425511   1.1999001   0.3803356  )
        14        Ni     tau(  14) = (   0.0678851   0.5056207   0.3797004  )
        15        Ni     tau(  15) = (   0.5610703   0.1685481   1.1509099  )
        16        Ni     tau(  16) = (   0.9508355   0.8597341   1.1397380  )

     number of k points=   324  Marzari-Vanderbilt smearing, width (Ry)=  0.0100

     Number of k-points >= 100: set verbosity='high' to print them.

     Dense  grid:   519381 G-vectors     FFT dimensions: (  80, 108, 120)

     Smooth grid:   183681 G-vectors     FFT dimensions: (  60,  75,  90)

     Estimated max dynamical RAM per process >       4.88 GB

     Estimated total dynamical RAM >       9.63 GB

     Initial potential from superposition of free atoms

     starting charge      99.9725, renormalised to     108.0000
     Starting wfcs are  100 randomized atomic wfcs
     Checking if some PAW data can be deallocated... 

     total cpu time spent up to now is      189.0 secs

     per-process dynamical memory:  4095.1 Mb

     Self-consistent Calculation

     iteration #  1     ecut=    90.00 Ry     beta= 0.30
     Davidson diagonalization with overlap
     ethr =  1.00E-02,  avg # of iterations =  6.9
Abort is in progress...hit ctrl-c again to forcibly terminate

Abort is in progress...hit ctrl-c again to forcibly terminate

