16
Lattice="4.825504658 4.36e-07 0.0 1.487e-06 6.623032177 0.0 0.0 0.0 7.382493" Properties=species:S:1:pos:R:3 pbc="T T T"
Al       4.43548074       0.04476814       1.83546037
Al       1.71472264       1.14160263       3.33296994
Al       1.72342788       1.10595338       0.44161892
Al       4.16164620       2.18697814       4.09145150
Al       0.63666450       4.49077579       3.29703074
Al       3.02448142       5.45746556       6.95687778
Al       0.66304188       4.40866178       0.40075691
Al       3.04649521       5.53466746       4.09395169
Al       4.18093322       2.18285386       6.94166758
Al       2.83398868       3.39980775       1.80437148
Al       0.41372122       6.60309862       5.56028999
Al       2.01062459       3.23564873       5.58240789
Ni       2.13553257       5.79012356       1.83531123
Ni       0.32757988       2.43987498       1.83224586
Ni       2.70744737       0.81332953       5.55372128
Ni       4.58826117       4.14865100       5.49981085
