
     Program PWSCF v.7.6 starts on  6Aug2026 at 19:10:28 

     This program is part of the open-source Quantum ESPRESSO suite
     for quantum simulation of materials; please cite
         "P. Giannozzi et al., J. Phys.:Condens. Matter 21 395502 (2009);
         "P. Giannozzi et al., J. Phys.:Condens. Matter 29 465901 (2017);
         "P. Giannozzi et al., J. Chem. Phys. 152 154105 (2020);
          URL http://www.quantum-espresso.org", 
     in publications or presentations arising from this work. More details at
     http://www.quantum-espresso.org/quote

     Parallel version (MPI), running on     4 processors

     MPI processes distributed on     1 nodes
     5430 MiB available memory on the printing compute node when the environment starts

     Reading input from /home/linuxuser/ni_al_dft_work/cloud_static_inputs/diverse_pilot_01/Al3Ni5/shear015_rattle002/Al3Ni5_shear015_rattle002.in

     Current dimensions of program PWSCF are:
     Max number of different atomic species (ntypx) = 10
     Max number of k-points (npk) =  40000
     Max angular momentum in pseudopotentials (lmaxx) =  4
     file Al.pbe-n-kjpaw_psl.1.0.0.UPF: wavefunction(s)  3S 3P renormalized

     IMPORTANT: XC functional enforced from input :
     Exchange-correlation= PBE
                           (   1   4   3   4   0   0   0)
     Any further DFT definition will be discarded
     Please, verify this is what you really want


     K-points division:     npool     =       2
     R & G space division:  proc/nbgrp/npool/nimage =       2
     Subspace diagonalization in iterative solution of the eigenvalue problem:
     a serial algorithm will be used


     Parallelization info
     --------------------
     sticks:   dense  smooth     PW     G-vecs:    dense   smooth      PW
     Min        1930     965    277               103394    36556    5612
     Max        1931     966    278               103395    36557    5613
     Sum        3861    1931    555               206789    73113   11225

     Using Slab Decomposition



     bravais-lattice index     =            0
     lattice parameter (alat)  =       7.1097  a.u.
     unit-cell volume          =     633.6560 (a.u.)^3
     number of atoms/cell      =            8
     number of atomic types    =            2
     number of electrons       =        99.00
     number of Kohn-Sham states=           60
     kinetic-energy cutoff     =      90.0000  Ry
     charge density cutoff     =     720.0000  Ry
     scf convergence threshold =      1.0E-10
     mixing beta               =       0.3000
     number of iterations used =            8  plain     mixing
     Exchange-correlation= PBE
                           (   1   4   3   4   0   0   0)

     celldm(1)=   7.109729  celldm(2)=   0.000000  celldm(3)=   0.000000
     celldm(4)=   0.000000  celldm(5)=   0.000000  celldm(6)=   0.000000

     crystal axes: (cart. coord. in units of alat)
               a(1) = (   1.000000   0.000000   0.000000 )  
               a(2) = (   0.019860   1.324008  -0.146639 )  
               a(3) = (  -0.000055  -0.003676   1.332099 )  

     reciprocal axes: (cart. coord. in units 2 pi/alat)
               b(1) = (  1.000000 -0.015000  0.000000 )  
               b(2) = ( -0.000000  0.755513  0.002085 )  
               b(3) = ( -0.000000  0.083168  0.750924 )  


     PseudoPot. # 1 for Al read from file:
     /home/linuxuser/ni_al_dft_work/cloud_static_inputs/pseudo/Al.pbe-n-kjpaw_psl.1.0.0.UPF
     MD5 check sum: cfc449ca30b5f3223ec38ddd88ac046d
     Pseudo is Projector augmented-wave + core cor, Zval =  3.0
     Generated using "atomic" code by A. Dal Corso  v.5.1
     Shape of augmentation charge: PSQ
     Using radial grid of 1135 points,  6 beta functions with: 
                l(1) =   0
                l(2) =   0
                l(3) =   1
                l(4) =   1
                l(5) =   2
                l(6) =   2
     Q(r) pseudized with 0 coefficients 


     PseudoPot. # 2 for Ni read from file:
     /home/linuxuser/ni_al_dft_work/cloud_static_inputs/pseudo/ni_pbe_v1.4.uspp.F.UPF
     MD5 check sum: 1ee80287db30b12d2bc1f57a5b5d6409
     Pseudo is Ultrasoft + core correction, Zval = 18.0
     Generated by new atomic code, or converted to UPF format
     Using radial grid of  865 points,  6 beta functions with: 
                l(1) =   0
                l(2) =   0
                l(3) =   1
                l(4) =   1
                l(5) =   2
                l(6) =   2
     Q(r) pseudized with 10 coefficients,  rinner =    0.980   0.980   0.980
                                                       0.980   0.980

     atomic species   valence    mass     pseudopotential
     Al                3.00    26.98154     Al( 1.00)
     Ni               18.00    58.69340     Ni( 1.00)

     No symmetry found



   Cartesian axes

     site n.     atom                  positions (alat units)
         1        Al     tau(   1) = (   1.0031202   0.6540481   0.5912369  )
         2        Al     tau(   2) = (   0.5000012   0.2987181   1.0050632  )
         3        Al     tau(   3) = (   0.5204833   1.0270334   0.1842488  )
         4        Ni     tau(   4) = (   0.0212615   1.3056540   1.1833738  )
         5        Ni     tau(   5) = (   1.0098043   0.6643585   1.2527864  )
         6        Ni     tau(   6) = (   0.0225978   1.3177721   0.5215910  )
         7        Ni     tau(   7) = (   0.5071024   0.3694877   0.3308906  )
         8        Ni     tau(   8) = (   0.5146544   0.9645887   0.8581067  )

     number of k points=   604  Marzari-Vanderbilt smearing, width (Ry)=  0.0100

     Number of k-points >= 100: set verbosity='high' to print them.

     Dense  grid:   206789 G-vectors     FFT dimensions: (  64,  81,  81)

     Smooth grid:    73113 G-vectors     FFT dimensions: (  45,  60,  60)

     Estimated max dynamical RAM per process >       1.47 GB

     Estimated total dynamical RAM >       5.81 GB

     Check: negative core charge=   -0.000003

     Initial potential from superposition of free atoms

     starting charge      88.9931, renormalised to      99.0000
     Starting wfcs are   77 randomized atomic wfcs
     Checking if some PAW data can be deallocated... 

     total cpu time spent up to now is       44.4 secs

     Self-consistent Calculation

     iteration #  1     ecut=    90.00 Ry     beta= 0.30
     Davidson diagonalization with overlap
     ethr =  1.00E-02,  avg # of iterations =  7.5

     total cpu time spent up to now is      223.6 secs

     total energy              =   -1760.70702780 Ry
     estimated scf accuracy    <     265.95882462 Ry

     iteration #  2     ecut=    90.00 Ry     beta= 0.30
     Davidson diagonalization with overlap
     ethr =  1.00E-02,  avg # of iterations =  4.5

     total cpu time spent up to now is      388.2 secs

     total energy              =   -1832.50699987 Ry
     estimated scf accuracy    <      58.22651145 Ry

     iteration #  3     ecut=    90.00 Ry     beta= 0.30
     Davidson diagonalization with overlap
     ethr =  1.00E-02,  avg # of iterations =  2.0

     total cpu time spent up to now is      501.5 secs

     total energy              =   -1835.18794915 Ry
     estimated scf accuracy    <       7.71401937 Ry

     iteration #  4     ecut=    90.00 Ry     beta= 0.30
     Davidson diagonalization with overlap
     ethr =  7.79E-03,  avg # of iterations =  1.1

     total cpu time spent up to now is      587.2 secs

     total energy              =   -1835.58001532 Ry
     estimated scf accuracy    <       1.43394734 Ry

     iteration #  5     ecut=    90.00 Ry     beta= 0.30
     Davidson diagonalization with overlap
     ethr =  1.45E-03,  avg # of iterations =  2.7

     total cpu time spent up to now is      694.7 secs

     total energy              =   -1834.96074831 Ry
     estimated scf accuracy    <       4.36802028 Ry

     iteration #  6     ecut=    90.00 Ry     beta= 0.30
     Davidson diagonalization with overlap
     ethr =  1.45E-03,  avg # of iterations =  2.2

     total cpu time spent up to now is      795.0 secs

     total energy              =   -1835.11287347 Ry
     estimated scf accuracy    <       0.38463017 Ry

     iteration #  7     ecut=    90.00 Ry     beta= 0.30
     Davidson diagonalization with overlap
     ethr =  3.89E-04,  avg # of iterations =  4.9

     total cpu time spent up to now is      911.4 secs

     total energy              =   -1835.27690469 Ry
     estimated scf accuracy    <       0.77654646 Ry

     iteration #  8     ecut=    90.00 Ry     beta= 0.30
     Davidson diagonalization with overlap
     ethr =  3.89E-04,  avg # of iterations =  1.0

     total cpu time spent up to now is      996.5 secs

     total energy              =   -1835.29557613 Ry
     estimated scf accuracy    <       0.41078549 Ry

     iteration #  9     ecut=    90.00 Ry     beta= 0.30
     Davidson diagonalization with overlap
     ethr =  3.89E-04,  avg # of iterations =  1.2

     total cpu time spent up to now is     1082.4 secs

     total energy              =   -1835.13789373 Ry
     estimated scf accuracy    <       0.74495663 Ry

     iteration # 10     ecut=    90.00 Ry     beta= 0.30
     Davidson diagonalization with overlap
     ethr =  3.89E-04,  avg # of iterations =  2.0

     total cpu time spent up to now is     1184.3 secs

     total energy              =   -1835.22978209 Ry
     estimated scf accuracy    <       0.02022500 Ry

     iteration # 11     ecut=    90.00 Ry     beta= 0.30
     Davidson diagonalization with overlap
     ethr =  2.04E-05,  avg # of iterations =  4.7

     total cpu time spent up to now is     1285.1 secs

     total energy              =   -1835.22875480 Ry
     estimated scf accuracy    <       0.01022672 Ry

     iteration # 12     ecut=    90.00 Ry     beta= 0.30
     Davidson diagonalization with overlap
     ethr =  1.03E-05,  avg # of iterations =  2.1

     total cpu time spent up to now is     1375.5 secs

     total energy              =   -1835.22950452 Ry
     estimated scf accuracy    <       0.00055996 Ry

     iteration # 13     ecut=    90.00 Ry     beta= 0.30
     Davidson diagonalization with overlap
     ethr =  5.66E-07,  avg # of iterations =  4.5

     total cpu time spent up to now is     1486.7 secs

     total energy              =   -1835.22958652 Ry
     estimated scf accuracy    <       0.00021533 Ry

     iteration # 14     ecut=    90.00 Ry     beta= 0.30
     Davidson diagonalization with overlap
     ethr =  2.18E-07,  avg # of iterations =  1.0

     total cpu time spent up to now is     1571.5 secs

     total energy              =   -1835.22954767 Ry
     estimated scf accuracy    <       0.00030024 Ry

     iteration # 15     ecut=    90.00 Ry     beta= 0.30
     Davidson diagonalization with overlap
     ethr =  2.18E-07,  avg # of iterations =  1.1

     total cpu time spent up to now is     1657.1 secs

     total energy              =   -1835.22956896 Ry
     estimated scf accuracy    <       0.00001075 Ry

     iteration # 16     ecut=    90.00 Ry     beta= 0.30
     Davidson diagonalization with overlap
     ethr =  1.09E-08,  avg # of iterations =  2.1

     total cpu time spent up to now is     1760.5 secs

     total energy              =   -1835.22957139 Ry
     estimated scf accuracy    <       0.00000239 Ry

     iteration # 17     ecut=    90.00 Ry     beta= 0.30
     Davidson diagonalization with overlap
     ethr =  2.41E-09,  avg # of iterations =  1.4

     total cpu time spent up to now is     1848.2 secs

     total energy              =   -1835.22957165 Ry
     estimated scf accuracy    <       0.00000005 Ry

     iteration # 18     ecut=    90.00 Ry     beta= 0.30
     Davidson diagonalization with overlap
     ethr =  5.04E-11,  avg # of iterations =  3.4

     total cpu time spent up to now is     1959.8 secs

     total energy              =   -1835.22957167 Ry
     estimated scf accuracy    <       0.00000002 Ry

     iteration # 19     ecut=    90.00 Ry     beta= 0.30
     Davidson diagonalization with overlap
     ethr =  2.07E-11,  avg # of iterations =  1.2

     total cpu time spent up to now is     2046.5 secs

     total energy              =   -1835.22957167 Ry
     estimated scf accuracy    <          1.2E-09 Ry

     iteration # 20     ecut=    90.00 Ry     beta= 0.30
     Davidson diagonalization with overlap
     ethr =  1.16E-12,  avg # of iterations =  2.4

     total cpu time spent up to now is     2153.2 secs

     total energy              =   -1835.22957167 Ry
     estimated scf accuracy    <          9.1E-10 Ry

     iteration # 21     ecut=    90.00 Ry     beta= 0.30
     Davidson diagonalization with overlap
     ethr =  9.17E-13,  avg # of iterations =  1.1

     total cpu time spent up to now is     2240.6 secs

     total energy              =   -1835.22957167 Ry
     estimated scf accuracy    <          4.4E-10 Ry

     iteration # 22     ecut=    90.00 Ry     beta= 0.30
     Davidson diagonalization with overlap
     ethr =  4.40E-13,  avg # of iterations =  1.0

     total cpu time spent up to now is     2327.2 secs

     End of self-consistent calculation

     Number of k-points >= 100: set verbosity='high' to print the bands.

     the Fermi energy is    14.5793 ev

!    total energy              =   -1835.22957167 Ry
     estimated scf accuracy    <          6.4E-11 Ry
     smearing contrib. (-TS)   =      -0.00049960 Ry
     internal energy E=F+TS    =   -1835.22907207 Ry

     The total energy is F=E-TS. E is the sum of the following terms:
     one-electron contribution =   -1264.95261058 Ry
     hartree contribution      =     686.68150974 Ry
     xc contribution           =    -186.07472106 Ry
     ewald contribution        =    -966.81597022 Ry
     one-center paw contrib.   =    -104.06727994 Ry

     convergence has been achieved in  22 iterations

     Forces acting on atoms (cartesian axes, Ry/au):

     atom    1 type  1   force =     0.01302320    0.00720077    0.00119038
     atom    2 type  1   force =     0.00624783   -0.00813555    0.00540264
     atom    3 type  1   force =    -0.00678320    0.00691592   -0.00340029
     atom    4 type  2   force =    -0.00151125    0.02606321    0.00276713
     atom    5 type  2   force =     0.00027210   -0.01606283    0.00677033
     atom    6 type  2   force =    -0.00271732    0.00405974   -0.00265709
     atom    7 type  2   force =    -0.00371236   -0.01154190   -0.00791809
     atom    8 type  2   force =    -0.00481899   -0.00849938   -0.00215499

     Total force =     0.042386     Total SCF correction =     0.000014


     Computing stress (Cartesian axis) and pressure

          total   stress  (Ry/bohr**3)                   (kbar)     P=        2.54
   0.00001822  -0.00010296  -0.00000699            2.68      -15.15       -1.03
  -0.00010296   0.00002035  -0.00000720          -15.15        2.99       -1.06
  -0.00000699  -0.00000720   0.00001313           -1.03       -1.06        1.93


     Writing all to output data dir /home/linuxuser/ni_al_dft_work/cloud_static_inputs/diverse_pilot_01/Al3Ni5/shear015_rattle002/tmp/Al3Ni5_shear015_rattle002.save/ :
     XML data file, charge density, pseudopotentials, collected wavefunctions

     init_run     :     42.35s CPU     44.24s WALL (       1 calls)
     electrons    :   2131.96s CPU   2282.80s WALL (       1 calls)
     forces       :     10.63s CPU     10.87s WALL (       1 calls)
     stress       :     38.65s CPU     39.34s WALL (       1 calls)

     Called by init_run:
     wfcinit      :     40.91s CPU     42.57s WALL (       1 calls)
     potinit      :      0.47s CPU      0.53s WALL (       1 calls)
     hinit0       :      0.33s CPU      0.34s WALL (       1 calls)

     Called by electrons:
     c_bands      :   1849.39s CPU   1984.57s WALL (      22 calls)
     sum_band     :    271.97s CPU    284.18s WALL (      22 calls)
     v_of_rho     :      1.32s CPU      1.61s WALL (      23 calls)
     newd         :      4.10s CPU      7.25s WALL (      23 calls)
     PAW_pot      :      5.37s CPU      5.56s WALL (      23 calls)
     mix_rho      :      0.16s CPU      0.17s WALL (      22 calls)

     Called by c_bands:
     init_us_2    :     28.37s CPU     28.66s WALL (   14194 calls)
     cegterg      :   1712.19s CPU   1845.85s WALL (    6644 calls)

     Called by *egterg:
     cdiaghg      :     60.43s CPU     60.58s WALL (   23566 calls)
     h_psi        :   1237.90s CPU   1306.20s WALL (   23868 calls)
     s_psi        :    101.38s CPU    103.04s WALL (   23868 calls)
     g_psi        :      8.16s CPU      8.24s WALL (   16922 calls)

     Called by h_psi:
     h_psi:calbec :    112.94s CPU    114.36s WALL (   23868 calls)
     vloc_psi     :   1012.45s CPU   1054.77s WALL (   23868 calls)
     add_vuspsi   :    104.36s CPU    104.52s WALL (   23868 calls)

     General routines
     calbec       :    190.69s CPU    192.89s WALL (   35646 calls)
     fft          :      0.81s CPU      0.98s WALL (     322 calls)
     ffts         :      0.18s CPU      0.18s WALL (      45 calls)
     fftw         :   1103.55s CPU   1149.63s WALL ( 2360312 calls)
     interpolate  :      0.22s CPU      0.23s WALL (      23 calls)

     Parallel routines

     PWSCF        :  37m 4.48s CPU  39m40.37s WALL


   This run was terminated on:  19:50: 8   6Aug2026            

=------------------------------------------------------------------------------=
   JOB DONE.
=------------------------------------------------------------------------------=
Note: The following floating-point exceptions are signalling: IEEE_UNDERFLOW_FLAG IEEE_DENORMAL
Note: The following floating-point exceptions are signalling: IEEE_UNDERFLOW_FLAG IEEE_DENORMAL
Note: The following floating-point exceptions are signalling: IEEE_UNDERFLOW_FLAG IEEE_DENORMAL
Note: The following floating-point exceptions are signalling: IEEE_UNDERFLOW_FLAG IEEE_DENORMAL
