8
Lattice="3.762306545 0.0 0.0 0.07471987028999999 4.981324686 -0.551702714 -0.00020745608999999998 -0.013830406 5.01176467" Properties=species:S:1:pos:R:3 pbc="T T T"
Al       3.77404558       2.46072949       2.22441445
Al       1.88115764       1.12386917       3.78135570
Al       1.95821785       3.86401458       0.69320053
Ni       0.07999216       4.91227069       4.45221502
Ni       3.79919317       2.49952016       4.71336633
Ni       0.08501970       4.95786267       1.96238523
Ni       1.90787459       1.39012610       1.24491190
Ni       1.93628759       3.62907853       3.22846063
