
     Program PWSCF v.7.6 starts on  6Aug2026 at 14:28: 9 

     This program is part of the open-source Quantum ESPRESSO suite
     for quantum simulation of materials; please cite
         "P. Giannozzi et al., J. Phys.:Condens. Matter 21 395502 (2009);
         "P. Giannozzi et al., J. Phys.:Condens. Matter 29 465901 (2017);
         "P. Giannozzi et al., J. Chem. Phys. 152 154105 (2020);
          URL http://www.quantum-espresso.org", 
     in publications or presentations arising from this work. More details at
     http://www.quantum-espresso.org/quote

     Parallel version (MPI), running on     4 processors

     MPI processes distributed on     1 nodes
     1454 MiB available memory on the printing compute node when the environment starts

     Reading input from /home/linuxuser/ni_al_dft_work/cloud_static_inputs/diverse_pilot_01/AlNi/shear015_rattle002/AlNi_shear015_rattle002.in

     Current dimensions of program PWSCF are:
     Max number of different atomic species (ntypx) = 10
     Max number of k-points (npk) =  40000
     Max angular momentum in pseudopotentials (lmaxx) =  4
     file Al.pbe-n-kjpaw_psl.1.0.0.UPF: wavefunction(s)  3S 3P renormalized

     IMPORTANT: XC functional enforced from input :
     Exchange-correlation= PBE
                           (   1   4   3   4   0   0   0)
     Any further DFT definition will be discarded
     Please, verify this is what you really want


     K-points division:     npool     =       2
     R & G space division:  proc/nbgrp/npool/nimage =       2
     Subspace diagonalization in iterative solution of the eigenvalue problem:
     a serial algorithm will be used


     Parallelization info
     --------------------
     sticks:   dense  smooth     PW     G-vecs:    dense   smooth      PW
     Min         858     428    130                26670     9452    1583
     Max         859     429    131                26673     9453    1584
     Sum        1717     857    261                53343    18905    3167

     Using Slab Decomposition



     bravais-lattice index     =            0
     lattice parameter (alat)  =       5.4689  a.u.
     unit-cell volume          =     163.5671 (a.u.)^3
     number of atoms/cell      =            2
     number of atomic types    =            2
     number of electrons       =        21.00
     number of Kohn-Sham states=           15
     kinetic-energy cutoff     =      90.0000  Ry
     charge density cutoff     =     720.0000  Ry
     scf convergence threshold =      1.0E-10
     mixing beta               =       0.3000
     number of iterations used =            8  plain     mixing
     Exchange-correlation= PBE
                           (   1   4   3   4   0   0   0)

     celldm(1)=   5.468883  celldm(2)=   0.000000  celldm(3)=   0.000000
     celldm(4)=   0.000000  celldm(5)=   0.000000  celldm(6)=   0.000000

     crystal axes: (cart. coord. in units of alat)
               a(1) = (   1.000000   0.000000   0.000000 )  
               a(2) = (   0.015000   1.000000   0.000000 )  
               a(3) = (   0.000000   0.000000   1.000000 )  

     reciprocal axes: (cart. coord. in units 2 pi/alat)
               b(1) = (  1.000000 -0.015000  0.000000 )  
               b(2) = (  0.000000  1.000000  0.000000 )  
               b(3) = (  0.000000  0.000000  1.000000 )  


     PseudoPot. # 1 for Al read from file:
     /home/linuxuser/ni_al_dft_work/cloud_static_inputs/pseudo/Al.pbe-n-kjpaw_psl.1.0.0.UPF
     MD5 check sum: cfc449ca30b5f3223ec38ddd88ac046d
     Pseudo is Projector augmented-wave + core cor, Zval =  3.0
     Generated using "atomic" code by A. Dal Corso  v.5.1
     Shape of augmentation charge: PSQ
     Using radial grid of 1135 points,  6 beta functions with: 
                l(1) =   0
                l(2) =   0
                l(3) =   1
                l(4) =   1
                l(5) =   2
                l(6) =   2
     Q(r) pseudized with 0 coefficients 


     PseudoPot. # 2 for Ni read from file:
     /home/linuxuser/ni_al_dft_work/cloud_static_inputs/pseudo/ni_pbe_v1.4.uspp.F.UPF
     MD5 check sum: 1ee80287db30b12d2bc1f57a5b5d6409
     Pseudo is Ultrasoft + core correction, Zval = 18.0
     Generated by new atomic code, or converted to UPF format
     Using radial grid of  865 points,  6 beta functions with: 
                l(1) =   0
                l(2) =   0
                l(3) =   1
                l(4) =   1
                l(5) =   2
                l(6) =   2
     Q(r) pseudized with 10 coefficients,  rinner =    0.980   0.980   0.980
                                                       0.980   0.980

     atomic species   valence    mass     pseudopotential
     Al                3.00    26.98154     Al( 1.00)
     Ni               18.00    58.69340     Ni( 1.00)

     No symmetry found



   Cartesian axes

     site n.     atom                  positions (alat units)
         1        Al     tau(   1) = (   0.5121094   0.5076279   0.4949693  )
         2        Ni     tau(   2) = (   1.0103906   0.9923721   0.0050307  )

     number of k points=  2052  Marzari-Vanderbilt smearing, width (Ry)=  0.0100

     Number of k-points >= 100: set verbosity='high' to print them.

     Dense  grid:    53343 G-vectors     FFT dimensions: (  48,  48,  48)

     Smooth grid:    18905 G-vectors     FFT dimensions: (  36,  36,  36)

     Estimated max dynamical RAM per process >     338.66 MB

     Estimated total dynamical RAM >       1.31 GB

     Check: negative core charge=   -0.000002

     Initial potential from superposition of free atoms

     starting charge      18.9977, renormalised to      21.0000
     Starting wfcs are   17 randomized atomic wfcs
     Checking if some PAW data can be deallocated... 

     total cpu time spent up to now is        8.7 secs

     Self-consistent Calculation

     iteration #  1     ecut=    90.00 Ry     beta= 0.30
     Davidson diagonalization with overlap
     ethr =  1.00E-02,  avg # of iterations =  6.2

     total cpu time spent up to now is       41.1 secs

     total energy              =    -367.33378142 Ry
     estimated scf accuracy    <      54.72397606 Ry

     iteration #  2     ecut=    90.00 Ry     beta= 0.30
     Davidson diagonalization with overlap
     ethr =  1.00E-02,  avg # of iterations =  3.1

     total cpu time spent up to now is       66.4 secs

     total energy              =    -382.44527600 Ry
     estimated scf accuracy    <      12.65937539 Ry

     iteration #  3     ecut=    90.00 Ry     beta= 0.30
     Davidson diagonalization with overlap
     ethr =  1.00E-02,  avg # of iterations =  2.0

     total cpu time spent up to now is       86.6 secs

     total energy              =    -382.95188233 Ry
     estimated scf accuracy    <       2.04908245 Ry

     iteration #  4     ecut=    90.00 Ry     beta= 0.30
     Davidson diagonalization with overlap
     ethr =  9.76E-03,  avg # of iterations =  1.0

     total cpu time spent up to now is      102.9 secs

     total energy              =    -383.29428865 Ry
     estimated scf accuracy    <       0.62805813 Ry

     iteration #  5     ecut=    90.00 Ry     beta= 0.30
     Davidson diagonalization with overlap
     ethr =  2.99E-03,  avg # of iterations =  3.0

     total cpu time spent up to now is      126.5 secs

     total energy              =    -382.15379790 Ry
     estimated scf accuracy    <       7.85779094 Ry

     iteration #  6     ecut=    90.00 Ry     beta= 0.30
     Davidson diagonalization with overlap
     ethr =  2.99E-03,  avg # of iterations =  2.7

     total cpu time spent up to now is      149.4 secs

     total energy              =    -382.91371572 Ry
     estimated scf accuracy    <       0.13739916 Ry

     iteration #  7     ecut=    90.00 Ry     beta= 0.30
     Davidson diagonalization with overlap
     ethr =  6.54E-04,  avg # of iterations =  1.3

     total cpu time spent up to now is      165.8 secs

     total energy              =    -382.87402528 Ry
     estimated scf accuracy    <       0.37670446 Ry

     iteration #  8     ecut=    90.00 Ry     beta= 0.30
     Davidson diagonalization with overlap
     ethr =  6.54E-04,  avg # of iterations =  1.0

     total cpu time spent up to now is      181.5 secs

     total energy              =    -382.87333017 Ry
     estimated scf accuracy    <       0.08133647 Ry

     iteration #  9     ecut=    90.00 Ry     beta= 0.30
     Davidson diagonalization with overlap
     ethr =  3.87E-04,  avg # of iterations =  1.0

     total cpu time spent up to now is      197.6 secs

     total energy              =    -382.87545676 Ry
     estimated scf accuracy    <       0.00773444 Ry

     iteration # 10     ecut=    90.00 Ry     beta= 0.30
     Davidson diagonalization with overlap
     ethr =  3.68E-05,  avg # of iterations =  2.3

     total cpu time spent up to now is      215.4 secs

     total energy              =    -382.87642235 Ry
     estimated scf accuracy    <       0.00052734 Ry

     iteration # 11     ecut=    90.00 Ry     beta= 0.30
     Davidson diagonalization with overlap
     ethr =  2.51E-06,  avg # of iterations =  3.3

     total cpu time spent up to now is      234.4 secs

     total energy              =    -382.87650311 Ry
     estimated scf accuracy    <       0.00003200 Ry

     iteration # 12     ecut=    90.00 Ry     beta= 0.30
     Davidson diagonalization with overlap
     ethr =  1.52E-07,  avg # of iterations =  2.3

     total cpu time spent up to now is      253.4 secs

     total energy              =    -382.87651140 Ry
     estimated scf accuracy    <       0.00001541 Ry

     iteration # 13     ecut=    90.00 Ry     beta= 0.30
     Davidson diagonalization with overlap
     ethr =  7.34E-08,  avg # of iterations =  1.0

     total cpu time spent up to now is      269.2 secs

     total energy              =    -382.87651047 Ry
     estimated scf accuracy    <       0.00000840 Ry

     iteration # 14     ecut=    90.00 Ry     beta= 0.30
     Davidson diagonalization with overlap
     ethr =  4.00E-08,  avg # of iterations =  1.0

     total cpu time spent up to now is      284.9 secs

     total energy              =    -382.87651093 Ry
     estimated scf accuracy    <       0.00000097 Ry

     iteration # 15     ecut=    90.00 Ry     beta= 0.30
     Davidson diagonalization with overlap
     ethr =  4.61E-09,  avg # of iterations =  1.0

     total cpu time spent up to now is      300.6 secs

     total energy              =    -382.87651056 Ry
     estimated scf accuracy    <       0.00000135 Ry

     iteration # 16     ecut=    90.00 Ry     beta= 0.30
     Davidson diagonalization with overlap
     ethr =  4.61E-09,  avg # of iterations =  2.0

     total cpu time spent up to now is      318.5 secs

     total energy              =    -382.87651077 Ry
     estimated scf accuracy    <       0.00000006 Ry

     iteration # 17     ecut=    90.00 Ry     beta= 0.30
     Davidson diagonalization with overlap
     ethr =  2.93E-10,  avg # of iterations =  1.1

     total cpu time spent up to now is      334.3 secs

     total energy              =    -382.87651078 Ry
     estimated scf accuracy    <          5.3E-09 Ry

     iteration # 18     ecut=    90.00 Ry     beta= 0.30
     Davidson diagonalization with overlap
     ethr =  2.52E-11,  avg # of iterations =  2.0

     total cpu time spent up to now is      352.6 secs

     total energy              =    -382.87651078 Ry
     estimated scf accuracy    <          5.0E-10 Ry

     iteration # 19     ecut=    90.00 Ry     beta= 0.30
     Davidson diagonalization with overlap
     ethr =  2.38E-12,  avg # of iterations =  2.0

     total cpu time spent up to now is      370.8 secs

     End of self-consistent calculation

     Number of k-points >= 100: set verbosity='high' to print the bands.

     the Fermi energy is    13.5923 ev

!    total energy              =    -382.87651078 Ry
     estimated scf accuracy    <          1.8E-12 Ry
     smearing contrib. (-TS)   =       0.00010915 Ry
     internal energy E=F+TS    =    -382.87661993 Ry

     The total energy is F=E-TS. E is the sum of the following terms:
     one-electron contribution =    -264.50692857 Ry
     hartree contribution      =     143.20891591 Ry
     xc contribution           =     -38.31132120 Ry
     ewald contribution        =    -188.58255060 Ry
     one-center paw contrib.   =     -34.68473547 Ry

     convergence has been achieved in  19 iterations

     Forces acting on atoms (cartesian axes, Ry/au):

     atom    1 type  1   force =    -0.00528145   -0.00944858    0.00652907
     atom    2 type  2   force =     0.00528145    0.00944858   -0.00652907

     Total force =     0.017877     Total SCF correction =     0.000010


     Computing stress (Cartesian axis) and pressure

          total   stress  (Ry/bohr**3)                   (kbar)     P=        2.60
   0.00001793  -0.00010714  -0.00000674            2.64      -15.76       -0.99
  -0.00010714   0.00001646  -0.00001185          -15.76        2.42       -1.74
  -0.00000674  -0.00001185   0.00001859           -0.99       -1.74        2.73


     Writing all to output data dir /home/linuxuser/ni_al_dft_work/cloud_static_inputs/diverse_pilot_01/AlNi/shear015_rattle002/tmp/AlNi_shear015_rattle002.save/ :
     XML data file, charge density, pseudopotentials, collected wavefunctions

     init_run     :      7.88s CPU      8.48s WALL (       1 calls)
     electrons    :    340.69s CPU    362.14s WALL (       1 calls)
     forces       :      1.15s CPU      1.23s WALL (       1 calls)
     stress       :      6.01s CPU      6.23s WALL (       1 calls)

     Called by init_run:
     wfcinit      :      6.77s CPU      7.30s WALL (       1 calls)
     potinit      :      0.22s CPU      0.24s WALL (       1 calls)
     hinit0       :      0.39s CPU      0.40s WALL (       1 calls)

     Called by electrons:
     c_bands      :    287.07s CPU    303.65s WALL (      19 calls)
     sum_band     :     51.09s CPU     54.92s WALL (      19 calls)
     v_of_rho     :      0.29s CPU      0.36s WALL (      20 calls)
     newd         :      0.93s CPU      1.67s WALL (      20 calls)
     PAW_pot      :      1.37s CPU      1.64s WALL (      20 calls)
     mix_rho      :      0.04s CPU      0.04s WALL (      19 calls)

     Called by c_bands:
     init_us_2    :     10.38s CPU     10.81s WALL (   42066 calls)
     cegterg      :    254.73s CPU    270.70s WALL (   19494 calls)

     Called by *egterg:
     cdiaghg      :      9.18s CPU      9.60s WALL (   59939 calls)
     h_psi        :    219.79s CPU    234.52s WALL (   60965 calls)
     s_psi        :      5.77s CPU      6.14s WALL (   60965 calls)
     g_psi        :      1.61s CPU      1.66s WALL (   40445 calls)

     Called by h_psi:
     h_psi:calbec :      7.32s CPU      7.83s WALL (   60965 calls)
     vloc_psi     :    205.51s CPU    219.32s WALL (   60965 calls)
     add_vuspsi   :      5.98s CPU      6.39s WALL (   60965 calls)

     General routines
     calbec       :     12.44s CPU     13.18s WALL (   97901 calls)
     fft          :      0.34s CPU      0.37s WALL (     283 calls)
     ffts         :      0.12s CPU      0.12s WALL (      39 calls)
     fftw         :    223.10s CPU    238.05s WALL ( 1752664 calls)
     interpolate  :      0.13s CPU      0.13s WALL (      20 calls)

     Parallel routines

     PWSCF        :   5m56.34s CPU   6m19.26s WALL


   This run was terminated on:  14:34:28   6Aug2026            

=------------------------------------------------------------------------------=
   JOB DONE.
=------------------------------------------------------------------------------=
Note: The following floating-point exceptions are signalling: IEEE_UNDERFLOW_FLAG IEEE_DENORMAL
Note: The following floating-point exceptions are signalling: IEEE_UNDERFLOW_FLAG IEEE_DENORMAL
Note: The following floating-point exceptions are signalling: IEEE_UNDERFLOW_FLAG IEEE_DENORMAL
Note: The following floating-point exceptions are signalling: IEEE_UNDERFLOW_FLAG IEEE_DENORMAL
