16
Lattice="4.8255046645399995 4.36e-07 0.0 0.09934696965499999 6.623032177 0.0 0.0 0.0 7.382493" Properties=species:S:1:pos:R:3 pbc="T T T"
Al       4.43312319       0.03018209       1.86979563
Al       1.80910218       1.14591957       3.27190744
Al       1.76881014       1.13461725       0.42085980
Al       4.22220588       2.20933760       4.10223646
Al       0.70436711       4.43273250       3.26205703
Al       3.15816683       5.45493620       6.95094784
Al       0.72087277       4.42142139       0.38663115
Al       3.11955839       5.47711294       4.11912718
Al       4.20410935       2.19781278       6.95170709
Al       2.84729987       3.34834147       1.83055121
Al       0.51093168       6.61321906       5.55218537
Al       2.06877641       3.25132748       5.57000677
Ni       2.20414061       5.77579997       1.85201688
Ni       0.28992589       2.45218829       1.84321384
Ni       2.70893260       0.88388683       5.56512196
Ni       4.62849018       4.15542550       5.51157835
