
     Program PWSCF v.7.6 starts on  6Aug2026 at 15: 8:28 

     This program is part of the open-source Quantum ESPRESSO suite
     for quantum simulation of materials; please cite
         "P. Giannozzi et al., J. Phys.:Condens. Matter 21 395502 (2009);
         "P. Giannozzi et al., J. Phys.:Condens. Matter 29 465901 (2017);
         "P. Giannozzi et al., J. Chem. Phys. 152 154105 (2020);
          URL http://www.quantum-espresso.org", 
     in publications or presentations arising from this work. More details at
     http://www.quantum-espresso.org/quote

     Parallel version (MPI), running on     4 processors

     MPI processes distributed on     1 nodes
     3200 MiB available memory on the printing compute node when the environment starts

     Reading input from /home/linuxuser/ni_al_dft_work/cloud_static_inputs/diverse_pilot_01/Al3Ni2/shear015_rattle002/Al3Ni2_shear015_rattle002.in

     Current dimensions of program PWSCF are:
     Max number of different atomic species (ntypx) = 10
     Max number of k-points (npk) =  40000
     Max angular momentum in pseudopotentials (lmaxx) =  4
     file Al.pbe-n-kjpaw_psl.1.0.0.UPF: wavefunction(s)  3S 3P renormalized

     IMPORTANT: XC functional enforced from input :
     Exchange-correlation= PBE
                           (   1   4   3   4   0   0   0)
     Any further DFT definition will be discarded
     Please, verify this is what you really want


     K-points division:     npool     =       2
     R & G space division:  proc/nbgrp/npool/nimage =       2
     Subspace diagonalization in iterative solution of the eigenvalue problem:
     a serial algorithm will be used


     Parallelization info
     --------------------
     sticks:   dense  smooth     PW     G-vecs:    dense   smooth      PW
     Min        1450     723    216                76599    27039    4434
     Max        1451     724    217                76600    27040    4437
     Sum        2901    1447    433               153199    54079    8871

     Using Slab Decomposition



     bravais-lattice index     =            0
     lattice parameter (alat)  =       7.6438  a.u.
     unit-cell volume          =     469.2886 (a.u.)^3
     number of atoms/cell      =            5
     number of atomic types    =            2
     number of electrons       =        45.00
     number of Kohn-Sham states=           28
     kinetic-energy cutoff     =      90.0000  Ry
     charge density cutoff     =     720.0000  Ry
     scf convergence threshold =      1.0E-10
     mixing beta               =       0.3000
     number of iterations used =            8  plain     mixing
     Exchange-correlation= PBE
                           (   1   4   3   4   0   0   0)

     celldm(1)=   7.643796  celldm(2)=   0.000000  celldm(3)=   0.000000
     celldm(4)=   0.000000  celldm(5)=   0.000000  celldm(6)=   0.000000

     crystal axes: (cart. coord. in units of alat)
               a(1) = (   1.000000   0.000000   0.000000 )  
               a(2) = (  -0.487010   0.866025   0.000000 )  
               a(3) = (   0.000000   0.000000   1.213339 )  

     reciprocal axes: (cart. coord. in units 2 pi/alat)
               b(1) = (  1.000000  0.562351 -0.000000 )  
               b(2) = ( -0.000000  1.154701  0.000000 )  
               b(3) = (  0.000000 -0.000000  0.824172 )  


     PseudoPot. # 1 for Al read from file:
     /home/linuxuser/ni_al_dft_work/cloud_static_inputs/pseudo/Al.pbe-n-kjpaw_psl.1.0.0.UPF
     MD5 check sum: cfc449ca30b5f3223ec38ddd88ac046d
     Pseudo is Projector augmented-wave + core cor, Zval =  3.0
     Generated using "atomic" code by A. Dal Corso  v.5.1
     Shape of augmentation charge: PSQ
     Using radial grid of 1135 points,  6 beta functions with: 
                l(1) =   0
                l(2) =   0
                l(3) =   1
                l(4) =   1
                l(5) =   2
                l(6) =   2
     Q(r) pseudized with 0 coefficients 


     PseudoPot. # 2 for Ni read from file:
     /home/linuxuser/ni_al_dft_work/cloud_static_inputs/pseudo/ni_pbe_v1.4.uspp.F.UPF
     MD5 check sum: 1ee80287db30b12d2bc1f57a5b5d6409
     Pseudo is Ultrasoft + core correction, Zval = 18.0
     Generated by new atomic code, or converted to UPF format
     Using radial grid of  865 points,  6 beta functions with: 
                l(1) =   0
                l(2) =   0
                l(3) =   1
                l(4) =   1
                l(5) =   2
                l(6) =   2
     Q(r) pseudized with 10 coefficients,  rinner =    0.980   0.980   0.980
                                                       0.980   0.980

     atomic species   valence    mass     pseudopotential
     Al                3.00    26.98154     Al( 1.00)
     Ni               18.00    58.69340     Ni( 1.00)

     No symmetry found



   Cartesian axes

     site n.     atom                  positions (alat units)
         1        Al     tau(   1) = (  -0.0013785   0.0028980   0.0029933  )
         2        Al     tau(   2) = (   0.0128527   0.5825533   0.7916223  )
         3        Al     tau(   3) = (   0.5043477   0.2892980   0.4285031  )
         4        Ni     tau(   4) = (   0.0017242   0.5687959   0.1785740  )
         5        Ni     tau(   5) = (   0.5084342   0.2885051   1.0249853  )

     number of k points=   984  Marzari-Vanderbilt smearing, width (Ry)=  0.0100

     Number of k-points >= 100: set verbosity='high' to print them.

     Dense  grid:   153199 G-vectors     FFT dimensions: (  72,  72,  80)

     Smooth grid:    54079 G-vectors     FFT dimensions: (  48,  45,  60)

     Estimated max dynamical RAM per process >     887.33 MB

     Estimated total dynamical RAM >       3.43 GB

     Check: negative core charge=   -0.000001

     Initial potential from superposition of free atoms

     starting charge      40.9931, renormalised to      45.0000
     Starting wfcs are   38 randomized atomic wfcs
     Checking if some PAW data can be deallocated... 

     total cpu time spent up to now is       27.1 secs

     Self-consistent Calculation

     iteration #  1     ecut=    90.00 Ry     beta= 0.30
     Davidson diagonalization with overlap
     ethr =  1.00E-02,  avg # of iterations =  7.7

     total cpu time spent up to now is      119.6 secs

     total energy              =    -770.12762870 Ry
     estimated scf accuracy    <     114.62124827 Ry

     iteration #  2     ecut=    90.00 Ry     beta= 0.30
     Davidson diagonalization with overlap
     ethr =  1.00E-02,  avg # of iterations =  4.5

     total cpu time spent up to now is      202.0 secs

     total energy              =    -804.93316439 Ry
     estimated scf accuracy    <      35.83707380 Ry

     iteration #  3     ecut=    90.00 Ry     beta= 0.30
     Davidson diagonalization with overlap
     ethr =  1.00E-02,  avg # of iterations =  2.0

     total cpu time spent up to now is      263.6 secs

     total energy              =    -804.81951944 Ry
     estimated scf accuracy    <       8.02178265 Ry

     iteration #  4     ecut=    90.00 Ry     beta= 0.30
     Davidson diagonalization with overlap
     ethr =  1.00E-02,  avg # of iterations =  2.0

     total cpu time spent up to now is      316.9 secs

     total energy              =    -805.53560414 Ry
     estimated scf accuracy    <       0.79859673 Ry

     iteration #  5     ecut=    90.00 Ry     beta= 0.30
     Davidson diagonalization with overlap
     ethr =  1.77E-03,  avg # of iterations =  2.7

     total cpu time spent up to now is      372.7 secs

     total energy              =    -804.74455051 Ry
     estimated scf accuracy    <       2.68882550 Ry

     iteration #  6     ecut=    90.00 Ry     beta= 0.30
     Davidson diagonalization with overlap
     ethr =  1.77E-03,  avg # of iterations =  3.6

     total cpu time spent up to now is      436.7 secs

     total energy              =    -805.37457258 Ry
     estimated scf accuracy    <       1.31336173 Ry

     iteration #  7     ecut=    90.00 Ry     beta= 0.30
     Davidson diagonalization with overlap
     ethr =  1.77E-03,  avg # of iterations =  1.0

     total cpu time spent up to now is      482.3 secs

     total energy              =    -805.18020482 Ry
     estimated scf accuracy    <       0.75695257 Ry

     iteration #  8     ecut=    90.00 Ry     beta= 0.30
     Davidson diagonalization with overlap
     ethr =  1.68E-03,  avg # of iterations =  2.0

     total cpu time spent up to now is      535.3 secs

     total energy              =    -805.28644412 Ry
     estimated scf accuracy    <       0.02790881 Ry

     iteration #  9     ecut=    90.00 Ry     beta= 0.30
     Davidson diagonalization with overlap
     ethr =  6.20E-05,  avg # of iterations =  5.6

     total cpu time spent up to now is      596.7 secs

     total energy              =    -805.28420601 Ry
     estimated scf accuracy    <       0.02220844 Ry

     iteration # 10     ecut=    90.00 Ry     beta= 0.30
     Davidson diagonalization with overlap
     ethr =  4.94E-05,  avg # of iterations =  1.1

     total cpu time spent up to now is      643.5 secs

     total energy              =    -805.28636271 Ry
     estimated scf accuracy    <       0.00066212 Ry

     iteration # 11     ecut=    90.00 Ry     beta= 0.30
     Davidson diagonalization with overlap
     c_bands:  1 eigenvalues not converged
     c_bands:  1 eigenvalues not converged
     c_bands:  1 eigenvalues not converged
     c_bands:  1 eigenvalues not converged
     ethr =  1.47E-06,  avg # of iterations =  5.6

     total cpu time spent up to now is      723.3 secs

     total energy              =    -805.28406750 Ry
     estimated scf accuracy    <       0.01458895 Ry

     iteration # 12     ecut=    90.00 Ry     beta= 0.30
     Davidson diagonalization with overlap
     ethr =  1.47E-06,  avg # of iterations =  4.4

     total cpu time spent up to now is      802.1 secs

     total energy              =    -805.28629001 Ry
     estimated scf accuracy    <       0.00234498 Ry

     iteration # 13     ecut=    90.00 Ry     beta= 0.30
     Davidson diagonalization with overlap
     ethr =  1.47E-06,  avg # of iterations =  2.0

     total cpu time spent up to now is      855.5 secs

     total energy              =    -805.28642840 Ry
     estimated scf accuracy    <       0.00007129 Ry

     iteration # 14     ecut=    90.00 Ry     beta= 0.30
     Davidson diagonalization with overlap
     ethr =  1.58E-07,  avg # of iterations =  3.1

     total cpu time spent up to now is      913.5 secs

     total energy              =    -805.28643754 Ry
     estimated scf accuracy    <       0.00005978 Ry

     iteration # 15     ecut=    90.00 Ry     beta= 0.30
     Davidson diagonalization with overlap
     ethr =  1.33E-07,  avg # of iterations =  2.0

     total cpu time spent up to now is      965.5 secs

     total energy              =    -805.28644845 Ry
     estimated scf accuracy    <       0.00001191 Ry

     iteration # 16     ecut=    90.00 Ry     beta= 0.30
     Davidson diagonalization with overlap
     ethr =  2.65E-08,  avg # of iterations =  1.0

     total cpu time spent up to now is     1012.7 secs

     total energy              =    -805.28644867 Ry
     estimated scf accuracy    <       0.00000216 Ry

     iteration # 17     ecut=    90.00 Ry     beta= 0.30
     Davidson diagonalization with overlap
     ethr =  4.80E-09,  avg # of iterations =  1.1

     total cpu time spent up to now is     1059.5 secs

     total energy              =    -805.28644880 Ry
     estimated scf accuracy    <       0.00000012 Ry

     iteration # 18     ecut=    90.00 Ry     beta= 0.30
     Davidson diagonalization with overlap
     ethr =  2.71E-10,  avg # of iterations =  2.1

     total cpu time spent up to now is     1111.8 secs

     total energy              =    -805.28644880 Ry
     estimated scf accuracy    <       0.00000003 Ry

     iteration # 19     ecut=    90.00 Ry     beta= 0.30
     Davidson diagonalization with overlap
     ethr =  6.61E-11,  avg # of iterations =  2.3

     total cpu time spent up to now is     1167.2 secs

     total energy              =    -805.28644881 Ry
     estimated scf accuracy    <          5.9E-09 Ry

     iteration # 20     ecut=    90.00 Ry     beta= 0.30
     Davidson diagonalization with overlap
     ethr =  1.31E-11,  avg # of iterations =  1.5

     total cpu time spent up to now is     1216.5 secs

     total energy              =    -805.28644881 Ry
     estimated scf accuracy    <          1.7E-09 Ry

     iteration # 21     ecut=    90.00 Ry     beta= 0.30
     Davidson diagonalization with overlap
     ethr =  3.67E-12,  avg # of iterations =  2.0

     total cpu time spent up to now is     1270.5 secs

     End of self-consistent calculation

     Number of k-points >= 100: set verbosity='high' to print the bands.

     the Fermi energy is    10.8361 ev

!    total energy              =    -805.28644881 Ry
     estimated scf accuracy    <          8.9E-11 Ry
     smearing contrib. (-TS)   =      -0.00017244 Ry
     internal energy E=F+TS    =    -805.28627637 Ry

     The total energy is F=E-TS. E is the sum of the following terms:
     one-electron contribution =    -624.97857065 Ry
     hartree contribution      =     332.09736795 Ry
     xc contribution           =     -79.10873014 Ry
     ewald contribution        =    -329.23989074 Ry
     one-center paw contrib.   =    -104.05645280 Ry

     convergence has been achieved in  21 iterations

     Forces acting on atoms (cartesian axes, Ry/au):

     atom    1 type  1   force =     0.00172660   -0.00975542   -0.00182247
     atom    2 type  1   force =    -0.00499787   -0.00455856   -0.01151988
     atom    3 type  1   force =     0.00058311   -0.00127675   -0.00726836
     atom    4 type  2   force =     0.00830665    0.01261176    0.00143344
     atom    5 type  2   force =    -0.00561849    0.00297898    0.01917727

     Total force =     0.031194     Total SCF correction =     0.000015


     Computing stress (Cartesian axis) and pressure

          total   stress  (Ry/bohr**3)                   (kbar)     P=        1.72
  -0.00001460  -0.00009836   0.00001770           -2.15      -14.47        2.60
  -0.00009836   0.00002074   0.00001154          -14.47        3.05        1.70
   0.00001770   0.00001154   0.00002883            2.60        1.70        4.24


     Writing all to output data dir /home/linuxuser/ni_al_dft_work/cloud_static_inputs/diverse_pilot_01/Al3Ni2/shear015_rattle002/tmp/Al3Ni2_shear015_rattle002.save/ :
     XML data file, charge density, pseudopotentials, collected wavefunctions

     init_run     :     25.68s CPU     26.93s WALL (       1 calls)
     electrons    :   1199.69s CPU   1243.42s WALL (       1 calls)
     forces       :      4.99s CPU      5.16s WALL (       1 calls)
     stress       :     20.01s CPU     20.46s WALL (       1 calls)

     Called by init_run:
     wfcinit      :     23.61s CPU     24.68s WALL (       1 calls)
     potinit      :      0.48s CPU      0.54s WALL (       1 calls)
     hinit0       :      0.52s CPU      0.54s WALL (       1 calls)

     Called by electrons:
     c_bands      :   1029.95s CPU   1062.32s WALL (      21 calls)
     sum_band     :    160.37s CPU    168.55s WALL (      21 calls)
     v_of_rho     :      1.19s CPU      1.51s WALL (      22 calls)
     newd         :      3.05s CPU      5.33s WALL (      22 calls)
     PAW_pot      :      5.37s CPU      6.08s WALL (      22 calls)
     mix_rho      :      0.11s CPU      0.12s WALL (      21 calls)

     Called by c_bands:
     init_us_2    :     23.05s CPU     23.27s WALL (   22140 calls)
     cegterg      :    925.28s CPU    957.30s WALL (   10332 calls)

     Called by *egterg:
     cdiaghg      :     22.85s CPU     23.02s WALL (   39721 calls)
     h_psi        :    755.40s CPU    786.97s WALL (   40213 calls)
     s_psi        :     42.05s CPU     42.33s WALL (   40213 calls)
     g_psi        :      5.05s CPU      5.08s WALL (   29389 calls)

     Called by h_psi:
     h_psi:calbec :     53.54s CPU     55.02s WALL (   40213 calls)
     vloc_psi     :    655.75s CPU    685.61s WALL (   40213 calls)
     add_vuspsi   :     43.55s CPU     43.78s WALL (   40213 calls)

     General routines
     calbec       :     85.01s CPU     87.07s WALL (   58909 calls)
     fft          :      0.84s CPU      0.95s WALL (     309 calls)
     ffts         :      0.18s CPU      0.18s WALL (      43 calls)
     fftw         :    711.68s CPU    743.64s WALL ( 1812138 calls)
     interpolate  :      0.21s CPU      0.21s WALL (      22 calls)

     Parallel routines

     PWSCF        :  20m51.11s CPU  21m38.06s WALL


   This run was terminated on:  15:30: 6   6Aug2026            

=------------------------------------------------------------------------------=
   JOB DONE.
=------------------------------------------------------------------------------=
Note: The following floating-point exceptions are signalling: IEEE_UNDERFLOW_FLAG IEEE_DENORMAL
Note: The following floating-point exceptions are signalling: IEEE_UNDERFLOW_FLAG IEEE_DENORMAL
Note: The following floating-point exceptions are signalling: IEEE_UNDERFLOW_FLAG IEEE_DENORMAL
Note: The following floating-point exceptions are signalling: IEEE_UNDERFLOW_FLAG IEEE_DENORMAL
