
     Program PWSCF v.7.6 starts on  6Aug2026 at 18:27:37 

     This program is part of the open-source Quantum ESPRESSO suite
     for quantum simulation of materials; please cite
         "P. Giannozzi et al., J. Phys.:Condens. Matter 21 395502 (2009);
         "P. Giannozzi et al., J. Phys.:Condens. Matter 29 465901 (2017);
         "P. Giannozzi et al., J. Chem. Phys. 152 154105 (2020);
          URL http://www.quantum-espresso.org", 
     in publications or presentations arising from this work. More details at
     http://www.quantum-espresso.org/quote

     Parallel version (MPI), running on     4 processors

     MPI processes distributed on     1 nodes
     3650 MiB available memory on the printing compute node when the environment starts

     Reading input from /home/linuxuser/ni_al_dft_work/cloud_static_inputs/diverse_pilot_01/Al3Ni5/rattle_003/Al3Ni5_rattle_003.in

     Current dimensions of program PWSCF are:
     Max number of different atomic species (ntypx) = 10
     Max number of k-points (npk) =  40000
     Max angular momentum in pseudopotentials (lmaxx) =  4
     file Al.pbe-n-kjpaw_psl.1.0.0.UPF: wavefunction(s)  3S 3P renormalized

     IMPORTANT: XC functional enforced from input :
     Exchange-correlation= PBE
                           (   1   4   3   4   0   0   0)
     Any further DFT definition will be discarded
     Please, verify this is what you really want


     K-points division:     npool     =       2
     R & G space division:  proc/nbgrp/npool/nimage =       2
     Subspace diagonalization in iterative solution of the eigenvalue problem:
     a serial algorithm will be used


     Parallelization info
     --------------------
     sticks:   dense  smooth     PW     G-vecs:    dense   smooth      PW
     Min        1930     965    278               103416    36581    5632
     Max        1931     966    279               103417    36582    5633
     Sum        3861    1931    557               206833    73163   11265

     Using Slab Decomposition



     bravais-lattice index     =            0
     lattice parameter (alat)  =       7.1097  a.u.
     unit-cell volume          =     633.6560 (a.u.)^3
     number of atoms/cell      =            8
     number of atomic types    =            2
     number of electrons       =        99.00
     number of Kohn-Sham states=           60
     kinetic-energy cutoff     =      90.0000  Ry
     charge density cutoff     =     720.0000  Ry
     scf convergence threshold =      1.0E-10
     mixing beta               =       0.3000
     number of iterations used =            8  plain     mixing
     Exchange-correlation= PBE
                           (   1   4   3   4   0   0   0)

     celldm(1)=   7.109729  celldm(2)=   0.000000  celldm(3)=   0.000000
     celldm(4)=   0.000000  celldm(5)=   0.000000  celldm(6)=   0.000000

     crystal axes: (cart. coord. in units of alat)
               a(1) = (   1.000000   0.000000   0.000000 )  
               a(2) = (   0.000000   1.324008  -0.146639 )  
               a(3) = (   0.000000  -0.003676   1.332099 )  

     reciprocal axes: (cart. coord. in units 2 pi/alat)
               b(1) = (  1.000000 -0.000000 -0.000000 )  
               b(2) = ( -0.000000  0.755513  0.002085 )  
               b(3) = ( -0.000000  0.083168  0.750924 )  


     PseudoPot. # 1 for Al read from file:
     /home/linuxuser/ni_al_dft_work/cloud_static_inputs/pseudo/Al.pbe-n-kjpaw_psl.1.0.0.UPF
     MD5 check sum: cfc449ca30b5f3223ec38ddd88ac046d
     Pseudo is Projector augmented-wave + core cor, Zval =  3.0
     Generated using "atomic" code by A. Dal Corso  v.5.1
     Shape of augmentation charge: PSQ
     Using radial grid of 1135 points,  6 beta functions with: 
                l(1) =   0
                l(2) =   0
                l(3) =   1
                l(4) =   1
                l(5) =   2
                l(6) =   2
     Q(r) pseudized with 0 coefficients 


     PseudoPot. # 2 for Ni read from file:
     /home/linuxuser/ni_al_dft_work/cloud_static_inputs/pseudo/ni_pbe_v1.4.uspp.F.UPF
     MD5 check sum: 1ee80287db30b12d2bc1f57a5b5d6409
     Pseudo is Ultrasoft + core correction, Zval = 18.0
     Generated by new atomic code, or converted to UPF format
     Using radial grid of  865 points,  6 beta functions with: 
                l(1) =   0
                l(2) =   0
                l(3) =   1
                l(4) =   1
                l(5) =   2
                l(6) =   2
     Q(r) pseudized with 10 coefficients,  rinner =    0.980   0.980   0.980
                                                       0.980   0.980

     atomic species   valence    mass     pseudopotential
     Al                3.00    26.98154     Al( 1.00)
     Ni               18.00    58.69340     Ni( 1.00)

     No symmetry found



   Cartesian axes

     site n.     atom                  positions (alat units)
         1        Al     tau(   1) = (   0.0016486   0.6653804   0.5869675  )
         2        Al     tau(   2) = (   0.5062881   0.2806064   1.0050506  )
         3        Al     tau(   3) = (   0.5065878   1.0212906   0.1678282  )
         4        Ni     tau(   4) = (   0.9935288   0.0116248   0.0099440  )
         5        Ni     tau(   5) = (   0.9953461   0.6678220   1.2536124  )
         6        Ni     tau(   6) = (   0.9972469   1.3172287   0.5278344  )
         7        Ni     tau(   7) = (   0.5026532   0.3649801   0.3286204  )
         8        Ni     tau(   8) = (   0.4967004   0.9523956   0.8619805  )

     number of k points=   604  Marzari-Vanderbilt smearing, width (Ry)=  0.0100

     Number of k-points >= 100: set verbosity='high' to print them.

     Dense  grid:   206833 G-vectors     FFT dimensions: (  64,  81,  81)

     Smooth grid:    73163 G-vectors     FFT dimensions: (  45,  60,  60)

     Estimated max dynamical RAM per process >       1.47 GB

     Estimated total dynamical RAM >       5.81 GB

     Check: negative core charge=   -0.000003

     Initial potential from superposition of free atoms

     starting charge      88.9931, renormalised to      99.0000
     Starting wfcs are   77 randomized atomic wfcs
     Checking if some PAW data can be deallocated... 

     total cpu time spent up to now is       45.4 secs

     Self-consistent Calculation

     iteration #  1     ecut=    90.00 Ry     beta= 0.30
     Davidson diagonalization with overlap
     ethr =  1.00E-02,  avg # of iterations =  7.6

     total cpu time spent up to now is      228.7 secs

     total energy              =   -1760.90995111 Ry
     estimated scf accuracy    <     265.56376176 Ry

     iteration #  2     ecut=    90.00 Ry     beta= 0.30
     Davidson diagonalization with overlap
     ethr =  1.00E-02,  avg # of iterations =  4.7

     total cpu time spent up to now is      395.1 secs

     total energy              =   -1832.49674418 Ry
     estimated scf accuracy    <      57.82609580 Ry

     iteration #  3     ecut=    90.00 Ry     beta= 0.30
     Davidson diagonalization with overlap
     ethr =  1.00E-02,  avg # of iterations =  2.0

     total cpu time spent up to now is      510.2 secs

     total energy              =   -1835.24455252 Ry
     estimated scf accuracy    <       7.60175444 Ry

     iteration #  4     ecut=    90.00 Ry     beta= 0.30
     Davidson diagonalization with overlap
     ethr =  7.68E-03,  avg # of iterations =  1.1

     total cpu time spent up to now is      596.7 secs

     total energy              =   -1835.60347268 Ry
     estimated scf accuracy    <       1.53049293 Ry

     iteration #  5     ecut=    90.00 Ry     beta= 0.30
     Davidson diagonalization with overlap
     ethr =  1.55E-03,  avg # of iterations =  2.4

     total cpu time spent up to now is      704.0 secs

     total energy              =   -1835.10342431 Ry
     estimated scf accuracy    <       3.99436540 Ry

     iteration #  6     ecut=    90.00 Ry     beta= 0.30
     Davidson diagonalization with overlap
     ethr =  1.55E-03,  avg # of iterations =  2.2

     total cpu time spent up to now is      798.5 secs

     total energy              =   -1835.00427328 Ry
     estimated scf accuracy    <       0.68425724 Ry

     iteration #  7     ecut=    90.00 Ry     beta= 0.30
     Davidson diagonalization with overlap
     ethr =  6.91E-04,  avg # of iterations =  2.7

     total cpu time spent up to now is      908.3 secs

     total energy              =   -1835.35017993 Ry
     estimated scf accuracy    <       1.18473012 Ry

     iteration #  8     ecut=    90.00 Ry     beta= 0.30
     Davidson diagonalization with overlap
     ethr =  6.91E-04,  avg # of iterations =  1.0

     total cpu time spent up to now is      995.5 secs

     total energy              =   -1835.30272652 Ry
     estimated scf accuracy    <       0.95420781 Ry

     iteration #  9     ecut=    90.00 Ry     beta= 0.30
     Davidson diagonalization with overlap
     ethr =  6.91E-04,  avg # of iterations =  1.2

     total cpu time spent up to now is     1082.8 secs

     total energy              =   -1835.15285890 Ry
     estimated scf accuracy    <       0.77219448 Ry

     iteration # 10     ecut=    90.00 Ry     beta= 0.30
     Davidson diagonalization with overlap
     ethr =  6.91E-04,  avg # of iterations =  1.9

     total cpu time spent up to now is     1176.0 secs

     total energy              =   -1835.22690395 Ry
     estimated scf accuracy    <       0.02428933 Ry

     iteration # 11     ecut=    90.00 Ry     beta= 0.30
     Davidson diagonalization with overlap
     ethr =  2.45E-05,  avg # of iterations =  7.5

     total cpu time spent up to now is     1300.4 secs

     total energy              =   -1835.22975117 Ry
     estimated scf accuracy    <       0.02395456 Ry

     iteration # 12     ecut=    90.00 Ry     beta= 0.30
     Davidson diagonalization with overlap
     ethr =  2.42E-05,  avg # of iterations =  1.0

     total cpu time spent up to now is     1386.6 secs

     total energy              =   -1835.23012363 Ry
     estimated scf accuracy    <       0.00639760 Ry

     iteration # 13     ecut=    90.00 Ry     beta= 0.30
     Davidson diagonalization with overlap
     ethr =  6.46E-06,  avg # of iterations =  1.4

     total cpu time spent up to now is     1473.9 secs

     total energy              =   -1835.22987531 Ry
     estimated scf accuracy    <       0.00409676 Ry

     iteration # 14     ecut=    90.00 Ry     beta= 0.30
     Davidson diagonalization with overlap
     ethr =  4.14E-06,  avg # of iterations =  1.1

     total cpu time spent up to now is     1560.4 secs

     total energy              =   -1835.22953309 Ry
     estimated scf accuracy    <       0.00227578 Ry

     iteration # 15     ecut=    90.00 Ry     beta= 0.30
     Davidson diagonalization with overlap
     ethr =  2.30E-06,  avg # of iterations =  1.4

     total cpu time spent up to now is     1648.8 secs

     total energy              =   -1835.22959855 Ry
     estimated scf accuracy    <       0.00022525 Ry

     iteration # 16     ecut=    90.00 Ry     beta= 0.30
     Davidson diagonalization with overlap
     ethr =  2.28E-07,  avg # of iterations =  2.0

     total cpu time spent up to now is     1752.7 secs

     total energy              =   -1835.22963852 Ry
     estimated scf accuracy    <       0.00001055 Ry

     iteration # 17     ecut=    90.00 Ry     beta= 0.30
     Davidson diagonalization with overlap
     ethr =  1.07E-08,  avg # of iterations =  1.9

     total cpu time spent up to now is     1845.4 secs

     total energy              =   -1835.22963939 Ry
     estimated scf accuracy    <       0.00000137 Ry

     iteration # 18     ecut=    90.00 Ry     beta= 0.30
     Davidson diagonalization with overlap
     ethr =  1.38E-09,  avg # of iterations =  2.1

     total cpu time spent up to now is     1944.8 secs

     total energy              =   -1835.22963958 Ry
     estimated scf accuracy    <       0.00000019 Ry

     iteration # 19     ecut=    90.00 Ry     beta= 0.30
     Davidson diagonalization with overlap
     ethr =  1.89E-10,  avg # of iterations =  2.3

     total cpu time spent up to now is     2040.4 secs

     total energy              =   -1835.22963959 Ry
     estimated scf accuracy    <       0.00000005 Ry

     iteration # 20     ecut=    90.00 Ry     beta= 0.30
     Davidson diagonalization with overlap
     ethr =  5.13E-11,  avg # of iterations =  2.0

     total cpu time spent up to now is     2137.7 secs

     total energy              =   -1835.22963959 Ry
     estimated scf accuracy    <       0.00000002 Ry

     iteration # 21     ecut=    90.00 Ry     beta= 0.30
     Davidson diagonalization with overlap
     ethr =  1.85E-11,  avg # of iterations =  1.7

     total cpu time spent up to now is     2229.2 secs

     total energy              =   -1835.22963959 Ry
     estimated scf accuracy    <          5.7E-09 Ry

     iteration # 22     ecut=    90.00 Ry     beta= 0.30
     Davidson diagonalization with overlap
     ethr =  5.76E-12,  avg # of iterations =  1.3

     total cpu time spent up to now is     2317.4 secs

     total energy              =   -1835.22963959 Ry
     estimated scf accuracy    <          3.8E-10 Ry

     iteration # 23     ecut=    90.00 Ry     beta= 0.30
     Davidson diagonalization with overlap
     ethr =  3.83E-13,  avg # of iterations =  3.1

     total cpu time spent up to now is     2428.3 secs

     total energy              =   -1835.22963959 Ry
     estimated scf accuracy    <          1.2E-09 Ry

     iteration # 24     ecut=    90.00 Ry     beta= 0.30
     Davidson diagonalization with overlap
     ethr =  3.83E-13,  avg # of iterations =  1.4

     total cpu time spent up to now is     2517.4 secs

     End of self-consistent calculation

     Number of k-points >= 100: set verbosity='high' to print the bands.

     the Fermi energy is    14.5791 ev

!    total energy              =   -1835.22963959 Ry
     estimated scf accuracy    <          6.2E-11 Ry
     smearing contrib. (-TS)   =      -0.00048331 Ry
     internal energy E=F+TS    =   -1835.22915628 Ry

     The total energy is F=E-TS. E is the sum of the following terms:
     one-electron contribution =   -1264.70880010 Ry
     hartree contribution      =     686.55146150 Ry
     xc contribution           =    -186.07910517 Ry
     ewald contribution        =    -966.92507152 Ry
     one-center paw contrib.   =    -104.06764099 Ry

     convergence has been achieved in  24 iterations

     Forces acting on atoms (cartesian axes, Ry/au):

     atom    1 type  1   force =    -0.00128494   -0.01071331    0.00301707
     atom    2 type  1   force =    -0.01201351    0.00998911    0.00047693
     atom    3 type  1   force =    -0.01288081    0.01371752    0.01655795
     atom    4 type  2   force =     0.01281883   -0.00645572   -0.00454068
     atom    5 type  2   force =     0.00941837   -0.01076931    0.00035595
     atom    6 type  2   force =     0.00664659    0.00541729   -0.00745548
     atom    7 type  2   force =    -0.00489596   -0.00204489    0.00173953
     atom    8 type  2   force =     0.00219144    0.00085932   -0.01015127

     Total force =     0.041212     Total SCF correction =     0.000019


     Computing stress (Cartesian axis) and pressure

          total   stress  (Ry/bohr**3)                   (kbar)     P=        3.81
   0.00003416  -0.00000165   0.00000376            5.02       -0.24        0.55
  -0.00000165   0.00000929   0.00000901           -0.24        1.37        1.33
   0.00000376   0.00000901   0.00003418            0.55        1.33        5.03


     Writing all to output data dir /home/linuxuser/ni_al_dft_work/cloud_static_inputs/diverse_pilot_01/Al3Ni5/rattle_003/tmp/Al3Ni5_rattle_003.save/ :
     XML data file, charge density, pseudopotentials, collected wavefunctions

     init_run     :     43.17s CPU     45.26s WALL (       1 calls)
     electrons    :   2299.17s CPU   2472.01s WALL (       1 calls)
     forces       :     10.58s CPU     10.86s WALL (       1 calls)
     stress       :     37.95s CPU     38.63s WALL (       1 calls)

     Called by init_run:
     wfcinit      :     42.05s CPU     43.89s WALL (       1 calls)
     potinit      :      0.46s CPU      0.53s WALL (       1 calls)
     hinit0       :      0.33s CPU      0.35s WALL (       1 calls)

     Called by electrons:
     c_bands      :   1984.03s CPU   2138.61s WALL (      24 calls)
     sum_band     :    303.34s CPU    317.98s WALL (      24 calls)
     v_of_rho     :      1.45s CPU      1.76s WALL (      25 calls)
     newd         :      4.57s CPU      7.92s WALL (      25 calls)
     PAW_pot      :      5.92s CPU      6.09s WALL (      25 calls)
     mix_rho      :      0.18s CPU      0.18s WALL (      24 calls)

     Called by c_bands:
     init_us_2    :     29.68s CPU     30.13s WALL (   15402 calls)
     cegterg      :   1851.68s CPU   2004.64s WALL (    7248 calls)

     Called by *egterg:
     cdiaghg      :     62.88s CPU     63.03s WALL (   24480 calls)
     h_psi        :   1345.63s CPU   1427.71s WALL (   24782 calls)
     s_psi        :    107.69s CPU    109.42s WALL (   24782 calls)
     g_psi        :      8.53s CPU      8.62s WALL (   17232 calls)

     Called by h_psi:
     h_psi:calbec :    123.33s CPU    125.02s WALL (   24782 calls)
     vloc_psi     :   1102.63s CPU   1156.29s WALL (   24782 calls)
     add_vuspsi   :    110.53s CPU    110.72s WALL (   24782 calls)

     General routines
     calbec       :    205.70s CPU    208.31s WALL (   37164 calls)
     fft          :      0.88s CPU      1.06s WALL (     348 calls)
     ffts         :      0.18s CPU      0.19s WALL (      49 calls)
     fftw         :   1217.18s CPU   1275.92s WALL ( 2518124 calls)
     interpolate  :      0.22s CPU      0.23s WALL (      25 calls)

     Parallel routines

     PWSCF        :  39m51.78s CPU  42m49.94s WALL


   This run was terminated on:  19:10:27   6Aug2026            

=------------------------------------------------------------------------------=
   JOB DONE.
=------------------------------------------------------------------------------=
Note: The following floating-point exceptions are signalling: IEEE_UNDERFLOW_FLAG IEEE_DENORMAL
Note: The following floating-point exceptions are signalling: IEEE_UNDERFLOW_FLAG IEEE_DENORMAL
Note: The following floating-point exceptions are signalling: IEEE_UNDERFLOW_FLAG IEEE_DENORMAL
Note: The following floating-point exceptions are signalling: IEEE_UNDERFLOW_FLAG IEEE_DENORMAL
