8
Lattice="3.762306545 0.0 0.0 0.0 4.981324686 -0.551702714 0.0 -0.013830406 5.01176467" Properties=species:S:1:pos:R:3 pbc="T T T"
Al       0.00620246       2.50336496       2.20835150
Al       1.90481103       1.05572738       3.78130861
Al       1.90593873       3.84240819       0.63142122
Ni       3.73795998       0.04373600       0.03741224
Ni       3.74479721       2.51255119       4.71647411
Ni       3.75194853       4.95581803       1.98587464
Ni       1.89113548       1.37316707       1.23637062
Ni       1.86873933       3.58320429       3.24303491
