
     Program PWSCF v.7.6 starts on  6Aug2026 at 14:39:46 

     This program is part of the open-source Quantum ESPRESSO suite
     for quantum simulation of materials; please cite
         "P. Giannozzi et al., J. Phys.:Condens. Matter 21 395502 (2009);
         "P. Giannozzi et al., J. Phys.:Condens. Matter 29 465901 (2017);
         "P. Giannozzi et al., J. Chem. Phys. 152 154105 (2020);
          URL http://www.quantum-espresso.org", 
     in publications or presentations arising from this work. More details at
     http://www.quantum-espresso.org/quote

     Parallel version (MPI), running on     4 processors

     MPI processes distributed on     1 nodes
     1324 MiB available memory on the printing compute node when the environment starts

     Reading input from /home/linuxuser/ni_al_dft_work/cloud_static_inputs/diverse_pilot_01/Al3Ni2/iso_p02/Al3Ni2_iso_p02.in

     Current dimensions of program PWSCF are:
     Max number of different atomic species (ntypx) = 10
     Max number of k-points (npk) =  40000
     Max angular momentum in pseudopotentials (lmaxx) =  4
     file Al.pbe-n-kjpaw_psl.1.0.0.UPF: wavefunction(s)  3S 3P renormalized

     IMPORTANT: XC functional enforced from input :
     Exchange-correlation= PBE
                           (   1   4   3   4   0   0   0)
     Any further DFT definition will be discarded
     Please, verify this is what you really want

     Message from routine setup:
     using ibrav=0 with symmetry is DISCOURAGED, use correct ibrav instead

     K-points division:     npool     =       2
     R & G space division:  proc/nbgrp/npool/nimage =       2
     Subspace diagonalization in iterative solution of the eigenvalue problem:
     a serial algorithm will be used


     Parallelization info
     --------------------
     sticks:   dense  smooth     PW     G-vecs:    dense   smooth      PW
     Min        1512     753    216                81274    28751    4359
     Max        1513     754    217                81275    28756    4360
     Sum        3025    1507    433               162549    57507    8719

     Using Slab Decomposition



     bravais-lattice index     =            0
     lattice parameter (alat)  =       7.7967  a.u.
     unit-cell volume          =     498.0128 (a.u.)^3
     number of atoms/cell      =            5
     number of atomic types    =            2
     number of electrons       =        45.00
     number of Kohn-Sham states=           28
     kinetic-energy cutoff     =      90.0000  Ry
     charge density cutoff     =     720.0000  Ry
     scf convergence threshold =      1.0E-10
     mixing beta               =       0.3000
     number of iterations used =            8  plain     mixing
     Exchange-correlation= PBE
                           (   1   4   3   4   0   0   0)

     celldm(1)=   7.796672  celldm(2)=   0.000000  celldm(3)=   0.000000
     celldm(4)=   0.000000  celldm(5)=   0.000000  celldm(6)=   0.000000

     crystal axes: (cart. coord. in units of alat)
               a(1) = (   1.000000   0.000000   0.000000 )  
               a(2) = (  -0.500000   0.866025  -0.000000 )  
               a(3) = (  -0.000000  -0.000000   1.213339 )  

     reciprocal axes: (cart. coord. in units 2 pi/alat)
               b(1) = (  1.000000  0.577351  0.000000 )  
               b(2) = ( -0.000000  1.154701  0.000000 )  
               b(3) = ( -0.000000  0.000000  0.824172 )  


     PseudoPot. # 1 for Al read from file:
     /home/linuxuser/ni_al_dft_work/cloud_static_inputs/pseudo/Al.pbe-n-kjpaw_psl.1.0.0.UPF
     MD5 check sum: cfc449ca30b5f3223ec38ddd88ac046d
     Pseudo is Projector augmented-wave + core cor, Zval =  3.0
     Generated using "atomic" code by A. Dal Corso  v.5.1
     Shape of augmentation charge: PSQ
     Using radial grid of 1135 points,  6 beta functions with: 
                l(1) =   0
                l(2) =   0
                l(3) =   1
                l(4) =   1
                l(5) =   2
                l(6) =   2
     Q(r) pseudized with 0 coefficients 


     PseudoPot. # 2 for Ni read from file:
     /home/linuxuser/ni_al_dft_work/cloud_static_inputs/pseudo/ni_pbe_v1.4.uspp.F.UPF
     MD5 check sum: 1ee80287db30b12d2bc1f57a5b5d6409
     Pseudo is Ultrasoft + core correction, Zval = 18.0
     Generated by new atomic code, or converted to UPF format
     Using radial grid of  865 points,  6 beta functions with: 
                l(1) =   0
                l(2) =   0
                l(3) =   1
                l(4) =   1
                l(5) =   2
                l(6) =   2
     Q(r) pseudized with 10 coefficients,  rinner =    0.980   0.980   0.980
                                                       0.980   0.980

     atomic species   valence    mass     pseudopotential
     Al                3.00    26.98154     Al( 1.00)
     Ni               18.00    58.69340     Ni( 1.00)

     12 Sym. Ops., with inversion, found



   Cartesian axes

     site n.     atom                  positions (alat units)
         1        Al     tau(   1) = (   0.0000000   0.0000000   0.0000000  )
         2        Al     tau(   2) = (  -0.0000007   0.5773504   0.7856499  )
         3        Al     tau(   3) = (   0.5000004   0.2886747   0.4276890  )
         4        Ni     tau(   4) = (  -0.0000007   0.5773504   0.1779233  )
         5        Ni     tau(   5) = (   0.5000004   0.2886747   1.0354157  )

     number of k points=   208  Marzari-Vanderbilt smearing, width (Ry)=  0.0100

     Number of k-points >= 100: set verbosity='high' to print them.

     Dense  grid:   162549 G-vectors     FFT dimensions: (  72,  72,  81)

     Smooth grid:    57507 G-vectors     FFT dimensions: (  48,  48,  60)

     Estimated max dynamical RAM per process >     345.70 MB

     Estimated total dynamical RAM >       1.31 GB

     Check: negative core charge=   -0.000001

     Initial potential from superposition of free atoms

     starting charge      40.9931, renormalised to      45.0000
     Starting wfcs are   38 randomized atomic wfcs
     Checking if some PAW data can be deallocated... 

     total cpu time spent up to now is        6.9 secs

     Self-consistent Calculation

     iteration #  1     ecut=    90.00 Ry     beta= 0.30
     Davidson diagonalization with overlap
     ethr =  1.00E-02,  avg # of iterations =  7.6

     total cpu time spent up to now is       26.8 secs

     total energy              =    -769.15994452 Ry
     estimated scf accuracy    <     117.16194221 Ry

     iteration #  2     ecut=    90.00 Ry     beta= 0.30
     Davidson diagonalization with overlap
     ethr =  1.00E-02,  avg # of iterations =  4.7

     total cpu time spent up to now is       44.9 secs

     total energy              =    -805.10119536 Ry
     estimated scf accuracy    <      37.59304981 Ry

     iteration #  3     ecut=    90.00 Ry     beta= 0.30
     Davidson diagonalization with overlap
     ethr =  1.00E-02,  avg # of iterations =  2.0

     total cpu time spent up to now is       58.6 secs

     total energy              =    -804.74509241 Ry
     estimated scf accuracy    <       8.82663411 Ry

     iteration #  4     ecut=    90.00 Ry     beta= 0.30
     Davidson diagonalization with overlap
     ethr =  1.00E-02,  avg # of iterations =  2.0

     total cpu time spent up to now is       70.4 secs

     total energy              =    -805.52941176 Ry
     estimated scf accuracy    <       0.83352393 Ry

     iteration #  5     ecut=    90.00 Ry     beta= 0.30
     Davidson diagonalization with overlap
     ethr =  1.85E-03,  avg # of iterations =  2.7

     total cpu time spent up to now is       82.6 secs

     total energy              =    -805.27668418 Ry
     estimated scf accuracy    <       0.89281874 Ry

     iteration #  6     ecut=    90.00 Ry     beta= 0.30
     Davidson diagonalization with overlap
     ethr =  1.85E-03,  avg # of iterations =  3.0

     total cpu time spent up to now is       95.9 secs

     total energy              =    -805.60773505 Ry
     estimated scf accuracy    <       3.12306040 Ry

     iteration #  7     ecut=    90.00 Ry     beta= 0.30
     Davidson diagonalization with overlap
     ethr =  1.85E-03,  avg # of iterations =  1.0

     total cpu time spent up to now is      106.2 secs

     total energy              =    -805.38185815 Ry
     estimated scf accuracy    <       3.55482335 Ry

     iteration #  8     ecut=    90.00 Ry     beta= 0.30
     Davidson diagonalization with overlap
     ethr =  1.85E-03,  avg # of iterations =  1.0

     total cpu time spent up to now is      116.5 secs

     total energy              =    -805.23437457 Ry
     estimated scf accuracy    <       1.71442668 Ry

     iteration #  9     ecut=    90.00 Ry     beta= 0.30
     Davidson diagonalization with overlap
     ethr =  1.85E-03,  avg # of iterations =  1.4

     total cpu time spent up to now is      127.3 secs

     total energy              =    -805.27912894 Ry
     estimated scf accuracy    <       0.21674946 Ry

     iteration # 10     ecut=    90.00 Ry     beta= 0.30
     Davidson diagonalization with overlap
     ethr =  4.82E-04,  avg # of iterations =  1.4

     total cpu time spent up to now is      138.0 secs

     total energy              =    -805.27185491 Ry
     estimated scf accuracy    <       0.10262818 Ry

     iteration # 11     ecut=    90.00 Ry     beta= 0.30
     Davidson diagonalization with overlap
     ethr =  2.28E-04,  avg # of iterations =  2.2

     total cpu time spent up to now is      149.5 secs

     total energy              =    -805.28206997 Ry
     estimated scf accuracy    <       0.00294766 Ry

     iteration # 12     ecut=    90.00 Ry     beta= 0.30
     Davidson diagonalization with overlap
     ethr =  6.55E-06,  avg # of iterations =  6.9

     total cpu time spent up to now is      165.1 secs

     total energy              =    -805.28313512 Ry
     estimated scf accuracy    <       0.00604406 Ry

     iteration # 13     ecut=    90.00 Ry     beta= 0.30
     Davidson diagonalization with overlap
     ethr =  6.55E-06,  avg # of iterations =  1.0

     total cpu time spent up to now is      175.6 secs

     total energy              =    -805.28209791 Ry
     estimated scf accuracy    <       0.00780012 Ry

     iteration # 14     ecut=    90.00 Ry     beta= 0.30
     Davidson diagonalization with overlap
     ethr =  6.55E-06,  avg # of iterations =  1.7

     total cpu time spent up to now is      186.7 secs

     total energy              =    -805.28223722 Ry
     estimated scf accuracy    <       0.00471549 Ry

     iteration # 15     ecut=    90.00 Ry     beta= 0.30
     Davidson diagonalization with overlap
     ethr =  6.55E-06,  avg # of iterations =  1.0

     total cpu time spent up to now is      197.1 secs

     total energy              =    -805.28195959 Ry
     estimated scf accuracy    <       0.00398694 Ry

     iteration # 16     ecut=    90.00 Ry     beta= 0.30
     Davidson diagonalization with overlap
     ethr =  6.55E-06,  avg # of iterations =  1.0

     total cpu time spent up to now is      207.7 secs

     total energy              =    -805.28173544 Ry
     estimated scf accuracy    <       0.00252053 Ry

     iteration # 17     ecut=    90.00 Ry     beta= 0.30
     Davidson diagonalization with overlap
     ethr =  5.60E-06,  avg # of iterations =  1.0

     total cpu time spent up to now is      218.3 secs

     total energy              =    -805.28181358 Ry
     estimated scf accuracy    <       0.00048040 Ry

     iteration # 18     ecut=    90.00 Ry     beta= 0.30
     Davidson diagonalization with overlap
     ethr =  1.07E-06,  avg # of iterations =  1.1

     total cpu time spent up to now is      228.9 secs

     total energy              =    -805.28178379 Ry
     estimated scf accuracy    <       0.00042097 Ry

     iteration # 19     ecut=    90.00 Ry     beta= 0.30
     Davidson diagonalization with overlap
     ethr =  9.35E-07,  avg # of iterations =  1.1

     total cpu time spent up to now is      239.5 secs

     total energy              =    -805.28177103 Ry
     estimated scf accuracy    <       0.00010901 Ry

     iteration # 20     ecut=    90.00 Ry     beta= 0.30
     Davidson diagonalization with overlap
     ethr =  2.42E-07,  avg # of iterations =  2.1

     total cpu time spent up to now is      251.5 secs

     total energy              =    -805.28178168 Ry
     estimated scf accuracy    <       0.00001018 Ry

     iteration # 21     ecut=    90.00 Ry     beta= 0.30
     Davidson diagonalization with overlap
     ethr =  2.26E-08,  avg # of iterations =  3.2

     total cpu time spent up to now is      264.6 secs

     total energy              =    -805.28178410 Ry
     estimated scf accuracy    <       0.00000364 Ry

     iteration # 22     ecut=    90.00 Ry     beta= 0.30
     Davidson diagonalization with overlap
     ethr =  8.08E-09,  avg # of iterations =  1.4

     total cpu time spent up to now is      275.5 secs

     total energy              =    -805.28178435 Ry
     estimated scf accuracy    <       0.00000021 Ry

     iteration # 23     ecut=    90.00 Ry     beta= 0.30
     Davidson diagonalization with overlap
     ethr =  4.73E-10,  avg # of iterations =  2.6

     total cpu time spent up to now is      288.3 secs

     total energy              =    -805.28178441 Ry
     estimated scf accuracy    <       0.00000004 Ry

     iteration # 24     ecut=    90.00 Ry     beta= 0.30
     Davidson diagonalization with overlap
     ethr =  8.54E-11,  avg # of iterations =  2.1

     total cpu time spent up to now is      299.9 secs

     total energy              =    -805.28178440 Ry
     estimated scf accuracy    <       0.00000002 Ry

     iteration # 25     ecut=    90.00 Ry     beta= 0.30
     Davidson diagonalization with overlap
     ethr =  4.77E-11,  avg # of iterations =  2.0

     total cpu time spent up to now is      311.8 secs

     total energy              =    -805.28178440 Ry
     estimated scf accuracy    <          1.9E-09 Ry

     iteration # 26     ecut=    90.00 Ry     beta= 0.30
     Davidson diagonalization with overlap
     ethr =  4.13E-12,  avg # of iterations =  3.0

     total cpu time spent up to now is      325.1 secs

     total energy              =    -805.28178441 Ry
     estimated scf accuracy    <          3.8E-10 Ry

     iteration # 27     ecut=    90.00 Ry     beta= 0.30
     Davidson diagonalization with overlap
     ethr =  8.48E-13,  avg # of iterations =  1.8

     total cpu time spent up to now is      336.4 secs

     End of self-consistent calculation

     Number of k-points >= 100: set verbosity='high' to print the bands.

     the Fermi energy is    10.0494 ev

!    total energy              =    -805.28178441 Ry
     estimated scf accuracy    <          6.5E-11 Ry
     smearing contrib. (-TS)   =      -0.00021091 Ry
     internal energy E=F+TS    =    -805.28157350 Ry

     The total energy is F=E-TS. E is the sum of the following terms:
     one-electron contribution =    -638.65706085 Ry
     hartree contribution      =     337.75050585 Ry
     xc contribution           =     -78.94057107 Ry
     ewald contribution        =    -321.39963880 Ry
     one-center paw contrib.   =    -104.03480863 Ry

     convergence has been achieved in  27 iterations

     Forces acting on atoms (cartesian axes, Ry/au):

     atom    1 type  1   force =    -0.00000000    0.00000000    0.00000000
     atom    2 type  1   force =     0.00000000    0.00000000    0.00274255
     atom    3 type  1   force =    -0.00000000    0.00000000   -0.00274255
     atom    4 type  2   force =    -0.00000000   -0.00000000   -0.00205193
     atom    5 type  2   force =     0.00000000   -0.00000000    0.00205193

     Total force =     0.004844     Total SCF correction =     0.000008


     Computing stress (Cartesian axis) and pressure

          total   stress  (Ry/bohr**3)                   (kbar)     P=      -69.57
  -0.00046175  -0.00000000  -0.00000000          -67.93       -0.00       -0.00
  -0.00000000  -0.00046175  -0.00000000           -0.00      -67.93       -0.00
  -0.00000000  -0.00000000  -0.00049525           -0.00       -0.00      -72.85


     Writing all to output data dir /home/linuxuser/ni_al_dft_work/cloud_static_inputs/diverse_pilot_01/Al3Ni2/iso_p02/tmp/Al3Ni2_iso_p02.save/ :
     XML data file, charge density, pseudopotentials, collected wavefunctions

     init_run     :      6.33s CPU      6.72s WALL (       1 calls)
     electrons    :    311.15s CPU    329.50s WALL (       1 calls)
     forces       :      1.40s CPU      1.56s WALL (       1 calls)
     stress       :      6.06s CPU      6.49s WALL (       1 calls)

     Called by init_run:
     wfcinit      :      5.02s CPU      5.23s WALL (       1 calls)
     potinit      :      0.52s CPU      0.56s WALL (       1 calls)
     hinit0       :      0.46s CPU      0.47s WALL (       1 calls)

     Called by electrons:
     c_bands      :    251.94s CPU    260.25s WALL (      27 calls)
     sum_band     :     46.84s CPU     51.89s WALL (      27 calls)
     v_of_rho     :      1.59s CPU      2.02s WALL (      28 calls)
     newd         :      4.12s CPU      7.66s WALL (      28 calls)
     PAW_pot      :      6.82s CPU      7.96s WALL (      28 calls)
     mix_rho      :      0.16s CPU      0.17s WALL (      27 calls)

     Called by c_bands:
     init_us_2    :      6.36s CPU      6.42s WALL (    5928 calls)
     cegterg      :    224.90s CPU    233.11s WALL (    2808 calls)

     Called by *egterg:
     cdiaghg      :      5.21s CPU      5.25s WALL (    9322 calls)
     h_psi        :    182.87s CPU    190.94s WALL (    9426 calls)
     s_psi        :     10.77s CPU     10.84s WALL (    9426 calls)
     g_psi        :      1.25s CPU      1.26s WALL (    6514 calls)

     Called by h_psi:
     h_psi:calbec :     13.27s CPU     13.61s WALL (    9426 calls)
     vloc_psi     :    157.66s CPU    165.33s WALL (    9426 calls)
     add_vuspsi   :     11.18s CPU     11.23s WALL (    9426 calls)

     General routines
     calbec       :     21.46s CPU     21.95s WALL (   14002 calls)
     fft          :      0.91s CPU      1.06s WALL (     387 calls)
     ffts         :      0.22s CPU      0.23s WALL (      55 calls)
     fftw         :    172.30s CPU    180.50s WALL (  456114 calls)
     interpolate  :      0.26s CPU      0.27s WALL (      28 calls)

     Parallel routines

     PWSCF        :   5m25.21s CPU   5m44.86s WALL


   This run was terminated on:  14:45:31   6Aug2026            

=------------------------------------------------------------------------------=
   JOB DONE.
=------------------------------------------------------------------------------=
Note: The following floating-point exceptions are signalling: IEEE_UNDERFLOW_FLAG IEEE_DENORMAL
Note: The following floating-point exceptions are signalling: IEEE_UNDERFLOW_FLAG IEEE_DENORMAL
Note: The following floating-point exceptions are signalling: IEEE_UNDERFLOW_FLAG IEEE_DENORMAL
Note: The following floating-point exceptions are signalling: IEEE_UNDERFLOW_FLAG IEEE_DENORMAL
