(written by ASE)

135 atoms
2 atom types

0.0      12.154604135200245  xlo xhi
0.0      10.526195953613703  ylo yhi
0.0        14.6928635448779  zlo zhi
    -6.0773020685802228  1.6989751527202716e-10 -1.2426153741671316e-11  xy xz yz

Masses

1      26.981538493059151 # Al
2      58.693399984901454 # Ni

Atoms # atomic

     1   1  -0.0033065281093218263  -0.0028637680654016659   0.0051205150763494094
     2   1  -0.0033065282626212689      2.3362908882925963      3.1758010224900399
     3   1      2.0224608276397955      1.1667135601106373      1.7320611892842661
     4   2  -0.0033065283383111438       2.336290888292254     0.72225910899047152
     5   2      2.0224608277163694      1.1667135601106793      4.1856031027835821
     6   1  -0.0033065280526893212  -0.0028637680695437172      4.9027416967023161
     7   1  -0.0033065282059887638      2.3362908882884543      8.0734222041160066
     8   1       2.022460827696428      1.1667135601064953       6.629682370910233
     9   2  -0.0033065282816786387      2.3362908882881119      5.6198802906164378
    10   2      2.0224608277730018      1.1667135601065373      9.0832242844095497
    11   1  -0.0033065279960568161  -0.0028637680736857685      9.8003628783282828
    12   1  -0.0033065281493562587      2.3362908882843123      12.971043385741973
    13   1      2.0224608277530605      1.1667135601023533        11.5273035525362
    14   2  -0.0033065282250461336      2.3362908882839699      10.517501472242405
    15   2      2.0224608278296343      1.1667135601023952      13.980845466035515
    16   1     -2.0290738843027292       3.505868216472499   0.0051205150763494094
    17   1     -2.0290738844560288      5.8450228728304969      3.1758010224900399
    18   1  -0.0033065285536117983      4.6754455446485377      1.7320611892842661
    19   2     -2.0290738845317184      5.8450228728301541     0.72225910899047152
    20   2    -0.00330652847703794      4.6754455446485794      4.1856031027835821
    21   1     -2.0290738842460967       3.505868216468357      4.9027416967023161
    22   1     -2.0290738843993963      5.8450228728263545      8.0734222041160066
    23   1  -0.0033065284969793218      4.6754455446443952       6.629682370910233
    24   2      -2.029073884475086      5.8450228728260125      5.6198802906164378
    25   2  -0.0033065284204054635       4.675445544644437      9.0832242844095497
    26   1     -2.0290738841894642       3.505868216464215      9.8003628783282828
    27   1     -2.0290738843427638      5.8450228728222129      12.971043385741973
    28   1  -0.0033065284403468453      4.6754455446402536        11.5273035525362
    29   2     -2.0290738844184535      5.8450228728218709      10.517501472242405
    30   2   -0.003306528363772987      4.6754455446402954      13.980845466035515
    31   1     -4.0548412404961365      7.0146002010103992   0.0051205150763494094
    32   1     -4.0548412406494361      9.3537548573683971      3.1758010224900399
    33   1     -2.0290738847470191      8.1841775291864369      1.7320611892842661
    34   2     -4.0548412407251258      9.3537548573680542     0.72225910899047152
    35   2     -2.0290738846704452      8.1841775291864796      4.1856031027835821
    36   1     -4.0548412404395036      7.0146002010062567      4.9027416967023161
    37   1     -4.0548412405928032      9.3537548573642546      8.0734222041160066
    38   1     -2.0290738846903862      8.1841775291822945       6.629682370910233
    39   2     -4.0548412406684928      9.3537548573639118      5.6198802906164378
    40   2     -2.0290738846138123      8.1841775291823371      9.0832242844095497
    41   1     -4.0548412403828715      7.0146002010021151      9.8003628783282828
    42   1     -4.0548412405361711      9.3537548573601139      12.971043385741973
    43   1     -2.0290738846337542      8.1841775291781538        11.5273035525362
    44   2     -4.0548412406118608      9.3537548573597711      10.517501472242405
    45   2     -2.0290738845571803      8.1841775291781946      13.980845466035515
    46   1      4.0482281836240928  -0.0028637680654012422   0.0051205150763494094
    47   1      4.0482281834707932      2.3362908882925968      3.1758010224900399
    48   1      6.0739955393732101      1.1667135601106378      1.7320611892842661
    49   2      4.0482281833951035      2.3362908882922544     0.72225910899047152
    50   2      6.0739955394497844      1.1667135601106797      4.1856031027835821
    51   1      4.0482281836807257  -0.0028637680695432935      4.9027416967023161
    52   1      4.0482281835274261      2.3362908882884548      8.0734222041160066
    53   1       6.073995539429843      1.1667135601064957       6.629682370910233
    54   2      4.0482281834517364      2.3362908882881124      5.6198802906164378
    55   2      6.0739955395064165      1.1667135601065377      9.0832242844095497
    56   1      4.0482281837373577  -0.0028637680736853448      9.8003628783282828
    57   1      4.0482281835840581      2.3362908882843128      12.971043385741973
    58   1      6.0739955394864751      1.1667135601023537        11.5273035525362
    59   2      4.0482281835083684      2.3362908882839704      10.517501472242405
    60   2      6.0739955395630485      1.1667135601023957      13.980845466035515
    61   1      2.0224608274306854      3.5058682164724995   0.0051205150763494094
    62   1      2.0224608272773859      5.8450228728304978      3.1758010224900399
    63   1      4.0482281831798028      4.6754455446485386      1.7320611892842661
    64   2      2.0224608272016962       5.845022872830155     0.72225910899047152
    65   2      4.0482281832563771      4.6754455446485803      4.1856031027835821
    66   1      2.0224608274873179      3.5058682164683574      4.9027416967023161
    67   1      2.0224608273340183      5.8450228728263554      8.0734222041160066
    68   1      4.0482281832364357      4.6754455446443961       6.629682370910233
    69   2      2.0224608272583287      5.8450228728260134      5.6198802906164378
    70   2      4.0482281833130092      4.6754455446444378      9.0832242844095497
    71   1      2.0224608275439504      3.5058682164642154      9.8003628783282828
    72   1      2.0224608273906508      5.8450228728222138      12.971043385741973
    73   1      4.0482281832930678      4.6754455446402545        11.5273035525362
    74   2      2.0224608273149611      5.8450228728218718      10.517501472242405
    75   2      4.0482281833696412      4.6754455446402963      13.980845466035515
    76   1  -0.0033065287627218271      7.0146002010103992   0.0051205150763494094
    77   1  -0.0033065289160212697      9.3537548573683971      3.1758010224900399
    78   1      2.0224608269863955      8.1841775291864387      1.7320611892842661
    79   2  -0.0033065289917111446      9.3537548573680542     0.72225910899047152
    80   2      2.0224608270629694      8.1841775291864813      4.1856031027835821
    81   1   -0.003306528706089322      7.0146002010062567      4.9027416967023161
    82   1  -0.0033065288593887646      9.3537548573642546      8.0734222041160066
    83   1       2.022460827043028      8.1841775291822962       6.629682370910233
    84   2  -0.0033065289350786395      9.3537548573639118      5.6198802906164378
    85   2      2.0224608271196018      8.1841775291823389      9.0832242844095497
    86   1  -0.0033065286494568169      7.0146002010021151      9.8003628783282828
    87   1  -0.0033065288027562595      9.3537548573601139      12.971043385741973
    88   1      2.0224608270996605      8.1841775291781556        11.5273035525362
    89   2  -0.0033065288784461344      9.3537548573597711      10.517501472242405
    90   2      2.0224608271762343      8.1841775291781964      13.980845466035515
    91   1      8.0997628953575074  -0.0028637680654008189   0.0051205150763494094
    92   1      8.0997628952042078      2.3362908882925972      3.1758010224900399
    93   1      10.125530251106625      1.1667135601106382      1.7320611892842661
    94   2      8.0997628951285172      2.3362908882922548     0.72225910899047152
    95   2      10.125530251183198      1.1667135601106802      4.1856031027835821
    96   1      8.0997628954141394  -0.0028637680695428702      4.9027416967023161
    97   1      8.0997628952608398      2.3362908882884552      8.0734222041160066
    98   1      10.125530251163257      1.1667135601064962       6.629682370910233
    99   2      8.0997628951851492      2.3362908882881128      5.6198802906164378
   100   2       10.12553025123983      1.1667135601065382      9.0832242844095497
   101   1      8.0997628954707732  -0.0028637680736849215      9.8003628783282828
   102   1      8.0997628953174736      2.3362908882843132      12.971043385741973
   103   1      10.125530251219891      1.1667135601023542        11.5273035525362
   104   2      8.0997628952417831      2.3362908882839708      10.517501472242405
   105   2      10.125530251296464      1.1667135601023961      13.980845466035515
   106   1      6.0739955391641001      3.5058682164724999   0.0051205150763494094
   107   1      6.0739955390108005      5.8450228728304978      3.1758010224900399
   108   1      8.0997628949132174      4.6754455446485386      1.7320611892842661
   109   2      6.0739955389351108       5.845022872830155     0.72225910899047152
   110   2      8.0997628949897909      4.6754455446485803      4.1856031027835821
   111   1       6.073995539220733      3.5058682164683579      4.9027416967023161
   112   1      6.0739955390674334      5.8450228728263554      8.0734222041160066
   113   1      8.0997628949698495      4.6754455446443961       6.629682370910233
   114   2      6.0739955389917437      5.8450228728260134      5.6198802906164378
   115   2      8.0997628950464247      4.6754455446444378      9.0832242844095497
   116   1       6.073995539277365      3.5058682164642159      9.8003628783282828
   117   1      6.0739955391240654      5.8450228728222138      12.971043385741973
   118   1      8.0997628950264833      4.6754455446402545        11.5273035525362
   119   2      6.0739955390483757      5.8450228728218718      10.517501472242405
   120   2      8.0997628951030567      4.6754455446402963      13.980845466035515
   121   1      4.0482281829706928         7.0146002010104   0.0051205150763494094
   122   1      4.0482281828173932      9.3537548573683988      3.1758010224900399
   123   1      6.0739955387198101      8.1841775291864387      1.7320611892842661
   124   2      4.0482281827417035       9.353754857368056     0.72225910899047152
   125   2      6.0739955387963835      8.1841775291864813      4.1856031027835821
   126   1      4.0482281830273257      7.0146002010062576      4.9027416967023161
   127   1      4.0482281828740261      9.3537548573642564      8.0734222041160066
   128   1       6.073995538776443      8.1841775291822962       6.629682370910233
   129   2      4.0482281827983364      9.3537548573639135      5.6198802906164378
   130   2      6.0739955388530174      8.1841775291823389      9.0832242844095497
   131   1      4.0482281830839577       7.014600201002116      9.8003628783282828
   132   1      4.0482281829306581      9.3537548573601157      12.971043385741973
   133   1      6.0739955388330751      8.1841775291781556        11.5273035525362
   134   2      4.0482281828549684      9.3537548573597729      10.517501472242405
   135   2      6.0739955389096494      8.1841775291781964      13.980845466035515
