144
Lattice="11.395059998347463 0.0 0.0 -3.2200950675093977e-12 15.010498423217276 0.0 -3.2396262456542126e-12 -1.4409026997352812 9.902718180739997" Properties=species:S:1:pos:R:3 config_id=Al3Ni5_supercell_0K source="LAMMPS mliap unified (Kokkos) zero-stress primitive cell, replicated 3x3x2, NO MD run on the supercell" pbc="T T T"
Al      -0.01802340       2.14566578       2.48989136
Al       1.88115327       0.54860502       3.87138843
Al       1.88115327       3.74272654       1.10839428
Ni      -0.01802340       0.00414172       0.01421181
Ni      -0.01802340       1.78544011       4.96557090
Ni      -0.01802340       4.64741552       2.48989136
Ni       1.88115327       1.19150014       1.38684124
Ni       1.88115327       3.09983143       3.59294147
Al      -0.01802340       1.42521443       7.44125045
Al       1.88115327      -0.17184633       8.82274752
Al       1.88115327       3.02227519       6.05975337
Ni      -0.01802340      -0.71630963       4.96557090
Ni      -0.01802340       1.06498876       9.91692999
Ni      -0.01802340       3.92696417       7.44125045
Ni       1.88115327       0.47104879       6.33820033
Ni       1.88115327       2.37938008       8.54430056
Al      -0.01802340       7.14916526       2.48989136
Al       1.88115327       5.55210450       3.87138843
Al       1.88115327       8.74622602       1.10839428
Ni      -0.01802340       5.00764119       0.01421181
Ni      -0.01802340       6.78893958       4.96557090
Ni      -0.01802340       9.65091500       2.48989136
Ni       1.88115327       6.19499962       1.38684124
Ni       1.88115327       8.10333090       3.59294147
Al      -0.01802340       6.42871391       7.44125045
Al       1.88115327       4.83165315       8.82274752
Al       1.88115327       8.02577467       6.05975337
Ni      -0.01802340       4.28718985       4.96557090
Ni      -0.01802340       6.06848823       9.91692999
Ni      -0.01802340       8.93046365       7.44125045
Ni       1.88115327       5.47454827       6.33820033
Ni       1.88115327       7.38287955       8.54430056
Al      -0.01802340      12.15266473       2.48989136
Al       1.88115327      10.55560397       3.87138843
Al       1.88115327      13.74972549       1.10839428
Ni      -0.01802340      10.01114067       0.01421181
Ni      -0.01802340      11.79243906       4.96557090
Ni      -0.01802340      14.65441447       2.48989136
Ni       1.88115327      11.19849909       1.38684124
Ni       1.88115327      13.10683037       3.59294147
Al      -0.01802340      11.43221338       7.44125045
Al       1.88115327       9.83515262       8.82274752
Al       1.88115327      13.02927414       6.05975337
Ni      -0.01802340       9.29068932       4.96557090
Ni      -0.01802340      11.07198771       9.91692999
Ni      -0.01802340      13.93396312       7.44125045
Ni       1.88115327      10.47804774       6.33820033
Ni       1.88115327      12.38637902       8.54430056
Al       3.78032994       2.14566578       2.48989136
Al       5.67950660       0.54860502       3.87138843
Al       5.67950660       3.74272654       1.10839428
Ni       3.78032994       0.00414172       0.01421181
Ni       3.78032994       1.78544011       4.96557090
Ni       3.78032994       4.64741552       2.48989136
Ni       5.67950660       1.19150014       1.38684124
Ni       5.67950660       3.09983143       3.59294147
Al       3.78032994       1.42521443       7.44125045
Al       5.67950660      -0.17184633       8.82274752
Al       5.67950660       3.02227519       6.05975337
Ni       3.78032994      -0.71630963       4.96557090
Ni       3.78032994       1.06498876       9.91692999
Ni       3.78032994       3.92696417       7.44125045
Ni       5.67950660       0.47104879       6.33820033
Ni       5.67950660       2.37938008       8.54430056
Al       3.78032994       7.14916526       2.48989136
Al       5.67950660       5.55210450       3.87138843
Al       5.67950660       8.74622602       1.10839428
Ni       3.78032994       5.00764119       0.01421181
Ni       3.78032994       6.78893958       4.96557090
Ni       3.78032994       9.65091500       2.48989136
Ni       5.67950660       6.19499962       1.38684124
Ni       5.67950660       8.10333090       3.59294147
Al       3.78032994       6.42871391       7.44125045
Al       5.67950660       4.83165315       8.82274752
Al       5.67950660       8.02577467       6.05975337
Ni       3.78032994       4.28718985       4.96557090
Ni       3.78032994       6.06848823       9.91692999
Ni       3.78032994       8.93046365       7.44125045
Ni       5.67950660       5.47454827       6.33820033
Ni       5.67950660       7.38287955       8.54430056
Al       3.78032994      12.15266473       2.48989136
Al       5.67950660      10.55560397       3.87138843
Al       5.67950660      13.74972549       1.10839428
Ni       3.78032994      10.01114067       0.01421181
Ni       3.78032994      11.79243906       4.96557090
Ni       3.78032994      14.65441447       2.48989136
Ni       5.67950660      11.19849909       1.38684124
Ni       5.67950660      13.10683037       3.59294147
Al       3.78032994      11.43221338       7.44125045
Al       5.67950660       9.83515262       8.82274752
Al       5.67950660      13.02927414       6.05975337
Ni       3.78032994       9.29068932       4.96557090
Ni       3.78032994      11.07198771       9.91692999
Ni       3.78032994      13.93396312       7.44125045
Ni       5.67950660      10.47804774       6.33820033
Ni       5.67950660      12.38637902       8.54430056
Al       7.57868327       2.14566578       2.48989136
Al       9.47785994       0.54860502       3.87138843
Al       9.47785994       3.74272654       1.10839428
Ni       7.57868327       0.00414172       0.01421181
Ni       7.57868327       1.78544011       4.96557090
Ni       7.57868327       4.64741552       2.48989136
Ni       9.47785994       1.19150014       1.38684124
Ni       9.47785994       3.09983143       3.59294147
Al       7.57868327       1.42521443       7.44125045
Al       9.47785994      -0.17184633       8.82274752
Al       9.47785994       3.02227519       6.05975337
Ni       7.57868327      -0.71630963       4.96557090
Ni       7.57868327       1.06498876       9.91692999
Ni       7.57868327       3.92696417       7.44125045
Ni       9.47785994       0.47104879       6.33820033
Ni       9.47785994       2.37938008       8.54430056
Al       7.57868327       7.14916526       2.48989136
Al       9.47785994       5.55210450       3.87138843
Al       9.47785994       8.74622602       1.10839428
Ni       7.57868327       5.00764119       0.01421181
Ni       7.57868327       6.78893958       4.96557090
Ni       7.57868327       9.65091500       2.48989136
Ni       9.47785994       6.19499962       1.38684124
Ni       9.47785994       8.10333090       3.59294147
Al       7.57868327       6.42871391       7.44125045
Al       9.47785994       4.83165315       8.82274752
Al       9.47785994       8.02577467       6.05975337
Ni       7.57868327       4.28718985       4.96557090
Ni       7.57868327       6.06848823       9.91692999
Ni       7.57868327       8.93046365       7.44125045
Ni       9.47785994       5.47454827       6.33820033
Ni       9.47785994       7.38287955       8.54430056
Al       7.57868327      12.15266473       2.48989136
Al       9.47785994      10.55560397       3.87138843
Al       9.47785994      13.74972549       1.10839428
Ni       7.57868327      10.01114067       0.01421181
Ni       7.57868327      11.79243906       4.96557090
Ni       7.57868327      14.65441447       2.48989136
Ni       9.47785994      11.19849909       1.38684124
Ni       9.47785994      13.10683037       3.59294147
Al       7.57868327      11.43221338       7.44125045
Al       9.47785994       9.83515262       8.82274752
Al       9.47785994      13.02927414       6.05975337
Ni       7.57868327       9.29068932       4.96557090
Ni       7.57868327      11.07198771       9.91692999
Ni       7.57868327      13.93396312       7.44125045
Ni       9.47785994      10.47804774       6.33820033
Ni       9.47785994      12.38637902       8.54430056
