(written by ASE)

128 atoms
2 atom types

0.0      9.6310058222563253  xlo xhi
0.0       13.19986821329241  ylo yhi
0.0      14.853477759811586  zlo zhi
 -8.454133628989803e-11 -1.4481125451940118e-10 -6.0966927203541904e-11  xy xz yz

Masses

1      26.981538493059148 # Al
2      58.693399984901447 # Ni

Atoms # atomic

     1   1      4.4156448817841634    0.054868347584266973      1.8345617454466305
     2   1      1.7555761438347124      1.1413963992377323      3.2846961615121044
     3   1      1.7555761438681172      1.1413963992383875     0.38442732937489493
     4   1      4.1633275994693184      2.1816690125663114      4.0977967694341615
     5   1     0.66217836739023495      4.4413634524490391      3.2846961614585881
     6   1      3.0699298229914342      5.4816360657777041      6.9980656015178555
     7   1     0.66217836741165825      4.4413634524495009     0.38442732942882357
     8   1      3.0699298230214938      5.4816360657787451      4.0977967692875783
     9   1      4.1633275994445524      2.1816690125654601      6.9980656013708638
    10   1       2.817612540556536      3.3548354010583012      1.8345617454463325
    11   1     0.40986108508908264      6.5681641174419676      5.5479311854006861
    12   1      2.0078934263167141      3.2681970639469045      5.5479311854009854
    13   2      2.1354731582898347      5.7538646519581089       1.834561745423299
    14   2     0.28228135332380133       2.453897598758612      1.8345617454234129
    15   2      2.6900328086415835     0.86916781313899649      5.5479311854257931
    16   2      4.5432246136076193      4.1691348661757246      5.5479311854256776
    17   1      4.4156448817117582     0.05486834755378351      9.2613006253524226
    18   1      1.7555761437623068      1.1413963992072489      10.711435041417896
    19   1      1.7555761437957116      1.1413963992079041      7.8111662092806871
    20   1      4.1633275993969132      2.1816690125358278      11.524535649339954
    21   1     0.66217836731782931      4.4413634524185559       10.71143504136438
    22   1      3.0699298229190286       5.481636065747221      14.424804481423648
    23   1     0.66217836733925262      4.4413634524190178      7.8111662093346155
    24   1      3.0699298229490881      5.4816360657482619      11.524535649193369
    25   1      4.1633275993721472      2.1816690125349765      14.424804481276656
    26   1      2.8176125404841303      3.3548354010278176      9.2613006253521242
    27   1     0.40986108501667701      6.5681641174114844      12.974670065306478
    28   1      2.0078934262443084      3.2681970639164208      12.974670065306777
    29   2      2.1354731582174291      5.7538646519276258      9.2613006253290902
    30   2     0.28228135325139569      2.4538975987281284      9.2613006253292038
    31   2      2.6900328085691778     0.86916781310851299      12.974670065331585
    32   2      4.5432246135352141      4.1691348661452414       12.97467006533147
    33   1      4.4156448817418923       6.654802454230472      1.8345617454466305
    34   1      1.7555761437924418       7.741330505883937      3.2846961615121044
    35   1      1.7555761438258466      7.7413305058845925     0.38442732937489493
    36   1      4.1633275994270473      8.7816031192125159      4.0977967694341615
    37   1     0.66217836734796431      11.041297559095245      3.2846961614585881
    38   1      3.0699298229491636      12.081570172423909      6.9980656015178555
    39   1     0.66217836736938762      11.041297559095707     0.38442732942882357
    40   1      3.0699298229792231       12.08157017242495      4.0977967692875783
    41   1      4.1633275994022814       8.781603119211665      6.9980656013708638
    42   1      2.8176125405142654      9.9547695077045066      1.8345617454463325
    43   1     0.40986108504681196      13.168098224088173      5.5479311854006861
    44   1      2.0078934262744434      9.8681311705931094      5.5479311854009854
    45   2      2.1354731582475641      12.353798758604313       1.834561745423299
    46   2     0.28228135328153064      9.0538317054048179      1.8345617454234129
    47   2      2.6900328085993128      7.4691019197852011      5.5479311854257931
    48   2      4.5432246135653482       10.76906897282193      5.5479311854256776
    49   1      4.4156448816694871      6.6548024541999888      9.2613006253524226
    50   1      1.7555761437200361      7.7413305058534538      10.711435041417896
    51   1       1.755576143753441      7.7413305058541093      7.8111662092806871
    52   1      4.1633275993546421      8.7816031191820336      11.524535649339954
    53   1     0.66217836727555868      11.041297559064761       10.71143504136438
    54   1       3.069929822876758      12.081570172393427      14.424804481423648
    55   1     0.66217836729698198      11.041297559065223      7.8111662093346155
    56   1      3.0699298229068175      12.081570172394468      11.524535649193369
    57   1      4.1633275993298762       8.781603119181181      14.424804481276656
    58   1      2.8176125404418597      9.9547695076740226      9.2613006253521242
    59   1     0.40986108497440638       13.16809822405769      12.974670065306478
    60   1      2.0078934262020378      9.8681311705626271      12.974670065306777
    61   2      2.1354731581751585      12.353798758573831      9.2613006253290902
    62   2     0.28228135320912506      9.0538317053743338      9.2613006253292038
    63   2      2.6900328085269072      7.4691019197547179      12.974670065331585
    64   2       4.543224613492943      10.769068972791446       12.97467006533147
    65   1       9.231147792912326    0.054868347584266973      1.8345617454466305
    66   1      6.5710790549628753      1.1413963992377323      3.2846961615121044
    67   1      6.5710790549962796      1.1413963992383875     0.38442732937489493
    68   1      8.9788305105974811      2.1816690125663114      4.0977967694341615
    69   1      5.4776812785183973      4.4413634524490391      3.2846961614585881
    70   1      7.8854327341195969      5.4816360657777041      6.9980656015178555
    71   1       5.477681278539821      4.4413634524495009     0.38442732942882357
    72   1      7.8854327341496564      5.4816360657787451      4.0977967692875783
    73   1      8.9788305105727151      2.1816690125654601      6.9980656013708638
    74   1      7.6331154516846986      3.3548354010583012      1.8345617454463325
    75   1      5.2253639962172453      6.5681641174419676      5.5479311854006861
    76   1      6.8233963374448763      3.2681970639469045      5.5479311854009854
    77   2      6.9509760694179974      5.7538646519581089       1.834561745423299
    78   2      5.0977842644519642       2.453897598758612      1.8345617454234129
    79   2      7.5055357197697461     0.86916781313899649      5.5479311854257931
    80   2       9.358727524735782      4.1691348661757246      5.5479311854256776
    81   1      9.2311477928399199     0.05486834755378351      9.2613006253524226
    82   1      6.5710790548904701      1.1413963992072489      10.711435041417896
    83   1      6.5710790549238745      1.1413963992079041      7.8111662092806871
    84   1       8.978830510525075      2.1816690125358278      11.524535649339954
    85   1      5.4776812784459921      4.4413634524185559       10.71143504136438
    86   1      7.8854327340471917       5.481636065747221      14.424804481423648
    87   1      5.4776812784674158      4.4413634524190178      7.8111662093346155
    88   1      7.8854327340772512      5.4816360657482619      11.524535649193369
    89   1       8.978830510500309      2.1816690125349765      14.424804481276656
    90   1      7.6331154516122934      3.3548354010278176      9.2613006253521242
    91   1      5.2253639961448402      6.5681641174114844      12.974670065306478
    92   1       6.823396337372472      3.2681970639164208      12.974670065306777
    93   2      6.9509760693455922      5.7538646519276258      9.2613006253290902
    94   2       5.097784264379559      2.4538975987281284      9.2613006253292038
    95   2      7.5055357196973409     0.86916781310851299      12.974670065331585
    96   2      9.3587275246633759      4.1691348661452414       12.97467006533147
    97   1       9.231147792870054       6.654802454230472      1.8345617454466305
    98   1      6.5710790549206042       7.741330505883937      3.2846961615121044
    99   1      6.5710790549540086      7.7413305058845925     0.38442732937489493
   100   1      8.9788305105552091      8.7816031192125159      4.0977967694341615
   101   1      5.4776812784761262      11.041297559095245      3.2846961614585881
   102   1      7.8854327340773258      12.081570172423909      6.9980656015178555
   103   1      5.4776812784975499      11.041297559095707     0.38442732942882357
   104   1      7.8854327341073853       12.08157017242495      4.0977967692875783
   105   1      8.9788305105304431       8.781603119211665      6.9980656013708638
   106   1      7.6331154516424276      9.9547695077045066      1.8345617454463325
   107   1      5.2253639961749743      13.168098224088173      5.5479311854006861
   108   1      6.8233963374026061      9.8681311705931094      5.5479311854009854
   109   2      6.9509760693757263      12.353798758604313       1.834561745423299
   110   2      5.0977842644096931      9.0538317054048179      1.8345617454234129
   111   2       7.505535719727475      7.4691019197852011      5.5479311854257931
   112   2        9.35872752469351       10.76906897282193      5.5479311854256776
   113   1      9.2311477927976497      6.6548024541999888      9.2613006253524226
   114   1       6.571079054848199      7.7413305058534538      10.711435041417896
   115   1      6.5710790548816034      7.7413305058541093      7.8111662092806871
   116   1      8.9788305104828048      8.7816031191820336      11.524535649339954
   117   1       5.477681278403721      11.041297559064761       10.71143504136438
   118   1      7.8854327340049206      12.081570172393427      14.424804481423648
   119   1      5.4776812784251447      11.041297559065223      7.8111662093346155
   120   1      7.8854327340349801      12.081570172394468      11.524535649193369
   121   1      8.9788305104580388       8.781603119181181      14.424804481276656
   122   1      7.6331154515700224      9.9547695076740226      9.2613006253521242
   123   1      5.2253639961025691       13.16809822405769      12.974670065306478
   124   1         6.8233963373302      9.8681311705626271      12.974670065306777
   125   2      6.9509760693033211      12.353798758573831      9.2613006253290902
   126   2      5.0977842643372879      9.0538317053743338      9.2613006253292038
   127   2      7.5055357196550698      7.4691019197547179      12.974670065331585
   128   2      9.3587275246211057      10.769068972791446       12.97467006533147
