LAMMPS data file via write_data, version 22 Jul 2025, timestep = 15000, units = metal

128 atoms
2 atom types

-0.025461545030665 11.607245864854594 xlo xhi
-0.02195860412345052 11.603742923947266 ylo yhi
-0.0011605625696162747 11.582944882393488 zlo zhi
0.019598873236359057 0.020035650387948245 -0.013409588338910289 xy xz yz

Masses

1 26.98153849305915
2 58.69339998490145

Atoms # atomic/kk

1 1 1.431453168513709 1.448681057356035 1.439113231319414 0 0 0
2 2 11.596851103835377 -0.011376342993992424 0.16495225223472826 -1 0 0
3 1 1.522909588953823 1.3547875069852278 4.347815580554552 0 0 0
4 2 0.10834546094285552 -0.006245426212550871 2.8392092938939255 0 0 0
5 1 1.3759567046019732 1.427988929614784 7.329277511866617 0 0 0
6 2 0.0683012301627748 11.379895068875133 5.771384135849087 0 -1 0
7 1 1.3046745204488306 1.4640396313326685 10.162597492348384 0 0 0
8 2 11.599110260646643 -0.026981376834956036 8.746765964943648 -1 0 0
9 1 1.4106693524620062 4.395824656895267 1.377286169826364 0 0 0
10 2 11.596597133678785 2.837255762439905 0.12097622516757947 -1 0 0
11 1 1.4134381258790436 4.283513567826675 4.350858421823823 0 0 0
12 2 11.558567284343201 2.998375209786735 2.884762317455095 -1 0 0
13 1 1.4586368092129565 4.28285498999938 7.3108352006925 0 0 0
14 2 0.032124512598563026 2.9152064013853476 5.785036710601594 0 0 0
15 1 1.3764948158092822 4.333347367914832 10.163972224712136 0 0 0
16 2 11.490190644507013 2.821726579239664 8.742349758758715 -1 0 0
17 1 1.3955323809777915 7.1971336236111405 1.4303802986229726 0 0 0
18 2 11.416855791505391 5.755521105258915 11.498592776193757 -1 0 -1
19 1 1.4328903777662352 7.158477640451079 4.294493929296283 0 0 0
20 2 0.021554843350689613 5.6974187378182375 2.940788805846384 0 0 0
21 1 1.3972957750195178 7.189174480544556 7.285528146356241 0 0 0
22 2 0.03536676704362342 5.796317203428759 5.9058918982393696 0 0 0
23 1 1.4929685906633847 7.241611536575775 10.169580091821501 0 0 0
24 2 0.05687556307222619 5.741629272256635 8.74254881879348 0 0 0
25 1 1.510303033872182 10.205332133640717 1.496164529312261 0 0 0
26 2 0.0830819861121093 8.690179930653127 11.536121388746135 0 0 -1
27 1 1.403252031846555 10.214217218561569 4.308862594605633 0 0 0
28 2 11.598233716536807 8.646752182126491 2.7901111248001462 -1 0 0
29 1 1.5410485438907495 10.13899583642436 7.144231686678339 0 0 0
30 2 11.581730504549643 8.65521585012301 5.852633514380336 -1 0 0
31 1 1.4374666964912204 10.117545777529958 10.186136360767941 0 0 0
32 2 0.17736432134628483 8.820569062866635 8.668182663861623 0 0 0
33 1 4.246955120455775 1.4895877669916515 1.448817942936673 0 0 0
34 2 2.854985201669779 0.011726078211316417 11.474635191822266 0 0 -1
35 1 4.3756167065916864 1.522614599068827 4.300549911585117 0 0 0
36 2 2.891549808963062 0.03448321468227433 2.936275100077283 0 0 0
37 1 4.314873131298667 1.5070433657598281 7.185804137799046 0 0 0
38 2 2.9736825382582692 11.580956954618514 5.953646736757811 0 -1 0
39 1 4.396020872509865 1.501978871900486 10.236652608552662 0 0 0
40 2 2.888454370672347 11.577391613493475 8.685215717579636 0 -1 0
41 1 4.4504091448581065 4.27136942564035 1.5671687737095377 0 0 0
42 2 2.8676975457252456 2.843251012851691 11.400992383718211 0 0 -1
43 1 4.244835944062759 4.313647919930004 4.364411534220019 0 0 0
44 2 2.711828362680637 2.931123442162462 2.8459718644967973 0 0 0
45 1 4.352630271225066 4.379150555503201 7.26609630260814 0 0 0
46 2 2.9207716467831086 2.876349500130684 5.884949571234251 0 0 0
47 1 4.407707330040181 4.239216938305535 10.181144957687529 0 0 0
48 2 2.979802913785657 2.920047187379112 8.711912550777692 0 0 0
49 1 4.318443870176219 7.183482263105369 1.4800858199873332 0 0 0
50 2 2.834397136092728 5.664970920844252 0.09376253694348312 0 0 0
51 1 4.357943356252887 7.290811250799189 4.287068760706677 0 0 0
52 2 2.9946386514117562 5.783717047135179 3.023964646387789 0 0 0
53 1 4.375655961877685 7.327012860526014 7.160029966463322 0 0 0
54 2 2.876602905300765 5.744293497173138 5.6560921660227725 0 0 0
55 1 4.390219611586518 7.158919464924418 10.196066076772595 0 0 0
56 2 2.933672048702566 5.819008941098716 8.753969445804328 0 0 0
57 1 4.347804145102507 10.268457267853698 1.516138510167761 0 0 0
58 2 2.9003327455224333 8.695112325000679 11.55925858453242 0 0 -1
59 1 4.349821039879593 10.194020605756357 4.35630468058129 0 0 0
60 2 2.8020346791240285 8.639780794220325 2.852599216212034 0 0 0
61 1 4.42518687634578 10.167260806954715 7.152434742442555 0 0 0
62 2 2.896059513101323 8.570544454258076 5.737027339722821 0 0 0
63 1 4.440974812787323 10.198372349972079 10.091287687202426 0 0 0
64 2 2.9425466157393205 8.618795029678239 8.6314610750121 0 0 0
65 1 7.3483113213593905 1.4750793257331527 1.4757689293005622 0 0 0
66 2 5.8929785008832045 0.04860207889287603 0.09093060822115853 0 0 0
67 1 7.332144229881312 1.346037624564109 4.30417444776253 0 0 0
68 2 5.737436099914267 0.07789296091216298 2.8434860773508244 0 0 0
69 1 7.2452474549197445 1.4538543453819779 7.144659517323737 0 0 0
70 2 5.683508648975391 0.02281313361145168 5.828990702168768 0 0 0
71 1 7.292833295034668 1.4800135668048273 10.196398438140422 0 0 0
72 2 5.800274401641462 0.11163698394858226 8.658920054127723 0 0 0
73 1 7.260374826153085 4.42593327462995 1.4123282406519988 0 0 0
74 2 5.877731043639702 2.9687821568113453 0.04405839741946214 0 0 0
75 1 7.2920246352055464 4.338700186365727 4.382672675928322 0 0 0
76 2 5.925217928164597 2.8865988308148065 2.8646558627486933 0 0 0
77 1 7.178032193849012 4.406125505054597 7.251303279935232 0 0 0
78 2 5.878780804532363 2.7750127468443675 5.677669058635329 0 0 0
79 1 7.204141398837725 4.34423321276438 10.091173466367325 0 0 0
80 2 5.881930706069165 2.838131266635925 8.683596753653774 0 0 0
81 1 7.2926621422035005 7.19041330380289 1.5418039847253284 0 0 0
82 2 5.807833120488437 5.731223667138204 0.04147555353486258 0 0 0
83 1 7.26211813076155 7.253698384891589 4.363597662682393 0 0 0
84 2 5.826976597795039 5.733861234878682 2.9535598637392555 0 0 0
85 1 7.1936315836366616 7.288519313243635 7.123002673933281 0 0 0
86 2 5.762147215771274 5.846439983623412 5.744906802213407 0 0 0
87 1 7.2902069951006725 7.211957509107196 10.055238179481975 0 0 0
88 2 5.767924836243463 5.80587474422573 8.644125478589654 0 0 0
89 1 7.350536166888164 10.037827284709 1.4516369525830395 0 0 0
90 2 5.813733982003611 8.712296550538959 0.16592066589288312 0 0 0
91 1 7.344181698656235 10.17230892184011 4.351418283412639 0 0 0
92 2 5.92610905327999 8.802258975739676 2.9843786215633448 0 0 0
93 1 7.2244187519292336 10.261219911196285 7.134383614508904 0 0 0
94 2 5.818855772502628 8.864688852159581 5.631241084942726 0 0 0
95 1 7.117014437320962 10.201153788743103 10.073935652867982 0 0 0
96 2 5.7551452597596775 8.7468174523068 8.640327165630378 0 0 0
97 1 10.176162859456028 1.4149090407548481 1.5648413070366498 0 0 0
98 2 8.864152724051568 11.507705358465063 11.553532262122147 0 -1 -1
99 1 10.299537130435628 1.4420136418556586 4.27796138818385 0 0 0
100 2 8.711320722621949 11.506499800568967 2.779580624410374 0 -1 0
101 1 10.181753603712863 1.3773878270149065 7.164181539536277 0 0 0
102 2 8.714984567090024 0.009718587476077747 5.766970745685885 0 0 0
103 1 10.122988871024226 1.3292675975345851 10.060002299788145 0 0 0
104 2 8.676912025306127 11.572380487519005 8.566410996001556 0 -1 0
105 1 10.089613243908822 4.28067376427011 1.4656157621530146 0 0 0
106 2 8.711841081544687 2.826541444729178 11.507019039460328 0 0 -1
107 1 10.27578358117049 4.3368245459245784 4.398661463606256 0 0 0
108 2 8.678318642017608 2.8662681027438257 2.993313186430819 0 0 0
109 1 10.159221659473179 4.413157024650418 7.324371613565065 0 0 0
110 2 8.766207165787783 2.861682792162832 5.621156395781453 0 0 0
111 1 10.063670255521448 4.240113690955997 10.123844482772654 0 0 0
112 2 8.534658137296429 2.863043579487568 8.686651787171556 0 0 0
113 1 10.129160411374912 7.261619943510254 1.4743504383146486 0 0 0
114 2 8.790730078478973 5.871863043225075 11.561601128972535 0 0 -1
115 1 10.090979452322504 7.114876202006841 4.370390912334326 0 0 0
116 2 8.75820039641195 5.670640896747532 2.864128173365452 0 0 0
117 1 10.175383396884943 7.22724345020362 7.262303055859375 0 0 0
118 2 8.691699308315684 5.678611353191623 5.838781932109906 0 0 0
119 1 10.278979663712967 7.245944218490094 9.988963247993587 0 0 0
120 2 8.663514401034735 5.81045707637161 8.718137391057544 0 0 0
121 1 10.083801007421833 10.050902240025234 1.4231666397152078 0 0 0
122 2 8.63717182187914 8.624536761855612 11.485949529764166 0 0 -1
123 1 10.213111597499719 10.188228052085329 4.27754629111829 0 0 0
124 2 8.760297648352175 8.751247936993458 3.0522844621379464 0 0 0
125 1 10.173251413912915 10.119512481787432 7.2122396264923 0 0 0
126 2 8.777104050130376 8.737796559020222 5.880924781706943 0 0 0
127 1 10.104832512408965 10.026454177510328 10.156897016124873 0 0 0
128 2 8.770582244917229 8.59301789533869 8.62755394731618 0 0 0

Velocities

1 0.39849841590039403 -1.9555222800081662 -5.88681985036046
2 -1.458814762852641 3.4702959095133754 -0.17094613651474155
3 0.2791142199327586 0.8194211107183532 -1.986449153497544
4 -2.4463179945888265 2.930913050913813 0.7541936772428544
5 0.05227261622180317 -2.771355232753085 -5.111935694457324
6 1.4465558560062435 -2.1282763146573616 -1.3907589658239072
7 1.7230272168397935 -3.414449707351827 -2.2920846473889083
8 -0.2884593867224032 -2.1514965786703715 -0.18926166792580829
9 3.403576498965029 -0.6983315192919727 2.1908064014755544
10 0.6165446391020794 -0.056750015900482245 4.169659901946527
11 -2.7570978752078203 0.9862232995383085 0.31249063772120583
12 2.0463203355308424 0.8437643544331821 -1.6690151010315304
13 -4.02915454352184 2.8962506027716564 -0.7199026438868377
14 2.1162651504166092 2.3777165441296995 0.7774004515491785
15 -2.76374504942121 2.203205145224494 2.6826243457297143
16 1.4904112031753043 -2.7317593836303597 -2.8387759468165132
17 1.8564491600784385 -2.3704855129575986 2.041247515497836
18 0.388115183351085 -0.08945961995375978 0.8030855585009947
19 3.4799949333337556 6.179274006745289 -0.15299346734302327
20 -2.198409127521121 -0.7185622292030576 -4.615805606300809
21 -3.382947720494536 -1.3435778372974045 1.0741486459236003
22 1.4003338093775424 1.814712604195756 0.6682661583449226
23 -4.821734968240529 3.452969704676917 2.614990192791156
24 -2.2936603088974437 -2.86615358498618 -1.3816567333712884
25 0.337036855171386 3.1671075067501984 1.3447582243899023
26 -0.5240240700566082 -1.3616657979045323 -0.4398778534877828
27 4.980492861887629 -1.1898077076647087 4.907839663309772
28 2.2242354391008936 3.274906561961205 2.858138691905545
29 4.543722257195939 -3.418019839702064 -0.6601398875453913
30 0.10302055582903613 0.8291985799009741 -1.0692541956725665
31 3.392526279561297 3.8700241672850804 -6.688783092390318
32 3.239082831462356 1.1530783739478487 3.0258306052359014
33 -2.352451631559492 -1.2521192045262435 1.317259043030524
34 -2.954682050474922 -1.767711607638312 0.7485298086057769
35 -1.1055098490318003 7.171156715604178 -5.0780322429695435
36 2.0119885044955983 -1.435133405965405 1.051112904665199
37 -2.1666226662821657 4.337326356234775 -7.461808988508651
38 -1.1628946500830653 0.20143799873319648 -3.767048411175048
39 2.82348622918835 -1.5749038627583292 3.707529675507325
40 -1.2751975869904062 3.3533879399956636 1.2858241796031022
41 -6.424753235304151 -4.69040721274172 -0.382645534219802
42 0.6715263731151256 2.9685728021531688 2.265000599171195
43 -3.3428835444546903 -0.10411456197253298 0.6195842572445187
44 1.068961549288538 1.8316275327400384 1.0457371743206423
45 4.643500540979341 -3.9448974124589897 0.4710102626192612
46 5.598450166266638 -2.76754081562206 -0.41253773956651385
47 -2.1432358266566163 -0.49333593447015955 3.258063080006647
48 2.9803703603306246 2.985895527208703 1.0162446659437796
49 4.07372318623895 0.5907567473165066 8.082043708688488
50 0.6537286810269503 -2.945163659787063 -0.6214243378916837
51 0.47804094432422356 -4.487484936665817 1.6229850900782217
52 -0.8382997385393509 -2.668381045780388 6.0627161417545725
53 2.754606468564278 -2.8941128804942955 -1.0869057418035146
54 -2.3886857186136474 -0.8364126447234087 2.3934738298287295
55 0.7185446640836954 -1.4958185434214486 -0.7635514427668402
56 0.19103494041519764 1.7673014480912128 1.9290188299656474
57 0.01882588819738497 0.035210233227156655 3.8447782226270557
58 1.2879599719723813 1.2986930017472087 -0.8022102888012459
59 -8.40594641469078 -3.1434542655667093 -0.7602909197512219
60 -2.4596179887665124 -0.7065006402410122 -0.5284098364068134
61 4.08369561230462 -0.8998010763517326 -0.3186481018475456
62 -0.5051663563182803 3.8088503260639484 0.06069044088457197
63 -2.810538403032112 -4.94142612004372 -4.0833907093645445
64 -0.7931446351249941 2.004833277628759 1.5066703473774612
65 -3.462079055948993 -1.4156179616423976 5.468774040062386
66 2.245650646152067 0.44051097971730074 0.15764888198187701
67 4.649342724510393 3.443044342284725 2.463888845435881
68 -1.9622862924659386 -0.9682295969819392 0.36276318050161976
69 -4.752683057604782 0.14694452565219437 -5.263367717575119
70 -0.11058233742320676 -1.8631990433823415 1.8072686201828403
71 -0.44262004418278006 -1.3653145530638493 -2.5442809423291317
72 -3.6853742060884493 -0.7974606200667305 -2.5153099181341476
73 2.9294586452789173 -1.1789910755741537 -3.380850935442463
74 -3.326910133832948 -2.73398606358783 0.0030170851327300315
75 1.9766662103963353 9.153248581047093 -1.1645189182330067
76 0.2267602990599102 2.30785186211463 0.6891822261675666
77 0.5963411962821105 4.693947856198255 3.7879149622363433
78 2.3348489231354845 0.5569882431075058 -1.2860235285582893
79 4.525671569577439 1.5731091910038852 -2.6279731008228655
80 1.4519150712839257 0.10396660291451082 -0.8104556414658609
81 3.8869470496159293 -1.5513796967938822 -2.609863902051343
82 -3.3244103278483963 1.4924882112800768 2.1824744917520964
83 -2.4884126955725017 2.4787519448822257 -5.291134754516032
84 -1.2252181745717652 -0.32466338163006714 -2.590575300301487
85 1.447758553813164 -2.7815205840341353 -2.2553879348516306
86 2.0510881387066306 -1.1271567514082517 -0.13009860461562575
87 0.18122929331457255 -1.625962328977885 1.6135755617388097
88 -0.126140146936996 -2.2846794514681967 3.0156026837447185
89 -0.07993590329087288 -2.5032345298793883 1.074234230084489
90 -0.19055319304526067 3.702557923279701 1.5548573816119247
91 5.52711332227763 4.106626677526824 -0.5800757108674095
92 -1.129877145291383 -0.15739652405498877 -1.46920544466622
93 -4.252341277182241 1.1296952855889637 4.9743188572035395
94 0.9322044321602753 0.0015082441765010943 0.45269354717454763
95 0.5789928615888427 4.710029690171329 -3.271622513995898
96 -2.428394011110583 -1.1806401045796393 3.2174790233295436
97 1.1804483548632292 -3.4884960510059964 -1.5179705427866739
98 1.280914741029352 -6.316379556754534 0.0984750284909396
99 1.9182559639788688 -5.137080607132549 3.726763667244526
100 -0.058486402098061704 -0.5304457601244154 -2.5976198126204024
101 0.9226890615344457 5.142436137698974 -3.9050228755137346
102 -0.9292206813575037 -0.27683946186337255 -0.42041108989426995
103 3.672529597038726 4.52432446719281 0.0450393302668567
104 -1.471598810390986 -2.35382241275559 -1.6634871540510139
105 0.20678937445885368 1.0987528496223253 4.4899708037824695
106 -3.0231225082867255 1.4919591906317644 -1.7119932589886482
107 -0.9313985294898685 2.678586433492855 -4.104228209177571
108 -1.234115281809238 0.1527239138682265 2.304403960447989
109 -2.9534362110467893 -4.550907807184496 -1.5984215041140504
110 -7.04883339182308 -3.814490747682298 -1.3783066146617602
111 -4.77180055519941 3.57179241393717 -1.0149994992472724
112 0.5195388343838343 -1.4835516483801128 1.1373827324137167
113 5.184258874070973 -1.6117159824921758 0.12101849058828465
114 1.7017104619314196 1.3464856384640993 -4.718056858325088
115 1.8009783325319788 1.3948513740035147 -0.12853867059668378
116 0.5633335636772131 -1.3662604546531611 -0.3383637687510023
117 2.0201388585120235 0.7005717828289104 4.1441926330662415
118 1.8469560014263797 -1.7548266263654189 -4.9799697393040185
119 -1.0238815744875407 -0.3696127523422051 -5.349452734974328
120 3.10574799889247 -3.1372385308307207 -1.6515248146279184
121 1.2622154439366673 3.366394515773909 -1.2736345099076203
122 4.386654573339411 -1.4998834646234538 2.300003612131594
123 -2.6319283478710855 -5.864058129138673 3.6859437969264968
124 -2.8637039066831855 2.802569928490729 -2.3422700645849273
125 -1.9123988162821794 3.3992755885785453 1.626342291402462
126 1.180848259836706 0.816371997397639 2.1345147372248796
127 -4.854994460446297 0.0499880905809746 1.874608750897845
128 -1.0591028152033897 1.304442529947902 2.2361045512136277
