(written by ASE)

8 atoms
2 atom types

0.0      3.7983533327824874  xlo xhi
0.0      5.0034994744057588  ylo yhi
0.0      4.9513590903699987  zlo zhi
-1.0733650225031326e-12 -1.6198131228271063e-12    -0.72045134986764059  xy xz yz

Masses

1      26.981538493059151 # Al
2      58.693399984901454 # Ni

Atoms # atomic

     1   1    -0.01802339531049809      2.1456657839117024      2.4898913570380201
     2   1      1.8811532710805841     0.54860502264754452      3.8713884313554683
     3   1      1.8811532710808876      3.7427265438109965      1.1083942838348295
     4   2   -0.018023395309160167   0.0041417205154848187    0.014211812764524248
     5   2   -0.018023395311317317      1.7854401078705513      4.9655709020406986
     6   2   -0.018023395311043688      4.6474155211401973      2.4898913580918904
     7   2      1.8811532710813998      1.1915001408351034      1.3868412421016587
     8   2      1.8811532710800871      3.0998314258440263      3.5929414729087781
