8
Lattice="3.7983533327824874 0.0 0.0 -1.0733650225031326e-12 5.003499474405759 0.0 -1.6198131228271063e-12 -0.7204513498676406 4.951359090369999" Properties=species:S:1:pos:R:3:masses:R:1:id:I:1:type:I:1 comment="(written by ASE)" config_id=Al3Ni5_lammps_0K_primitive source="LAMMPS mliap unified (Kokkos), box/relax tri + minimize, PRIMITIVE cell, this session -- directly atom-count-comparable to the dft/ entry for this phase" pbc="T T T"
Al      -0.01802340       2.14566578       2.48989136      26.98153850        1        1
Al       1.88115327       0.54860502       3.87138843      26.98153850        2        1
Al       1.88115327       3.74272654       1.10839428      26.98153850        3        1
Ni      -0.01802340       0.00414172       0.01421181      58.69340000        4        2
Ni      -0.01802340       1.78544011       4.96557090      58.69340000        5        2
Ni      -0.01802340       4.64741552       2.48989136      58.69340000        6        2
Ni       1.88115327       1.19150014       1.38684124      58.69340000        7        2
Ni       1.88115327       3.09983143       3.59294147      58.69340000        8        2
