128
Lattice="11.581784319823878 0.0 0.0 -2.0790882131804088e-16 11.581784319823878 0.0 -1.9454016707761374e-16 -3.0901716430321603e-16 11.581784319823878" Properties=species:S:1:pos:R:3:masses:R:1:id:I:1:type:I:1 comment="(written by ASE)" config_id=AlNi_lammps_0K_supercell source="LAMMPS mliap unified (Kokkos), Stage D-2 zero-stress SUPERCELL (0 K, pre-MD) -- NOT atom-count-comparable to the dft/ entry for this phase (different size); compare lattice parameters/symmetry only, not a literal side-by-side" pbc="T T T"
Al       1.44700412       1.44700412       1.44700412      26.98153850        1        1
Ni      -0.00071892      -0.00071892      -0.00071892      58.69340000        2        2
Al       1.44700412       1.44700412       4.34245020      26.98153850        3        1
Ni      -0.00071892      -0.00071892       2.89472716      58.69340000        4        2
Al       1.44700412       1.44700412       7.23789628      26.98153850        5        1
Ni      -0.00071892      -0.00071892       5.79017324      58.69340000        6        2
Al       1.44700412       1.44700412      10.13334236      26.98153850        7        1
Ni      -0.00071892      -0.00071892       8.68561932      58.69340000        8        2
Al       1.44700412       4.34245020       1.44700412      26.98153850        9        1
Ni      -0.00071892       2.89472716      -0.00071892      58.69340000       10        2
Al       1.44700412       4.34245020       4.34245020      26.98153850       11        1
Ni      -0.00071892       2.89472716       2.89472716      58.69340000       12        2
Al       1.44700412       4.34245020       7.23789628      26.98153850       13        1
Ni      -0.00071892       2.89472716       5.79017324      58.69340000       14        2
Al       1.44700412       4.34245020      10.13334236      26.98153850       15        1
Ni      -0.00071892       2.89472716       8.68561932      58.69340000       16        2
Al       1.44700412       7.23789628       1.44700412      26.98153850       17        1
Ni      -0.00071892       5.79017324      -0.00071892      58.69340000       18        2
Al       1.44700412       7.23789628       4.34245020      26.98153850       19        1
Ni      -0.00071892       5.79017324       2.89472716      58.69340000       20        2
Al       1.44700412       7.23789628       7.23789628      26.98153850       21        1
Ni      -0.00071892       5.79017324       5.79017324      58.69340000       22        2
Al       1.44700412       7.23789628      10.13334236      26.98153850       23        1
Ni      -0.00071892       5.79017324       8.68561932      58.69340000       24        2
Al       1.44700412      10.13334236       1.44700412      26.98153850       25        1
Ni      -0.00071892       8.68561932      -0.00071892      58.69340000       26        2
Al       1.44700412      10.13334236       4.34245020      26.98153850       27        1
Ni      -0.00071892       8.68561932       2.89472716      58.69340000       28        2
Al       1.44700412      10.13334236       7.23789628      26.98153850       29        1
Ni      -0.00071892       8.68561932       5.79017324      58.69340000       30        2
Al       1.44700412      10.13334236      10.13334236      26.98153850       31        1
Ni      -0.00071892       8.68561932       8.68561932      58.69340000       32        2
Al       4.34245020       1.44700412       1.44700412      26.98153850       33        1
Ni       2.89472716      -0.00071892      -0.00071892      58.69340000       34        2
Al       4.34245020       1.44700412       4.34245020      26.98153850       35        1
Ni       2.89472716      -0.00071892       2.89472716      58.69340000       36        2
Al       4.34245020       1.44700412       7.23789628      26.98153850       37        1
Ni       2.89472716      -0.00071892       5.79017324      58.69340000       38        2
Al       4.34245020       1.44700412      10.13334236      26.98153850       39        1
Ni       2.89472716      -0.00071892       8.68561932      58.69340000       40        2
Al       4.34245020       4.34245020       1.44700412      26.98153850       41        1
Ni       2.89472716       2.89472716      -0.00071892      58.69340000       42        2
Al       4.34245020       4.34245020       4.34245020      26.98153850       43        1
Ni       2.89472716       2.89472716       2.89472716      58.69340000       44        2
Al       4.34245020       4.34245020       7.23789628      26.98153850       45        1
Ni       2.89472716       2.89472716       5.79017324      58.69340000       46        2
Al       4.34245020       4.34245020      10.13334236      26.98153850       47        1
Ni       2.89472716       2.89472716       8.68561932      58.69340000       48        2
Al       4.34245020       7.23789628       1.44700412      26.98153850       49        1
Ni       2.89472716       5.79017324      -0.00071892      58.69340000       50        2
Al       4.34245020       7.23789628       4.34245020      26.98153850       51        1
Ni       2.89472716       5.79017324       2.89472716      58.69340000       52        2
Al       4.34245020       7.23789628       7.23789628      26.98153850       53        1
Ni       2.89472716       5.79017324       5.79017324      58.69340000       54        2
Al       4.34245020       7.23789628      10.13334236      26.98153850       55        1
Ni       2.89472716       5.79017324       8.68561932      58.69340000       56        2
Al       4.34245020      10.13334236       1.44700412      26.98153850       57        1
Ni       2.89472716       8.68561932      -0.00071892      58.69340000       58        2
Al       4.34245020      10.13334236       4.34245020      26.98153850       59        1
Ni       2.89472716       8.68561932       2.89472716      58.69340000       60        2
Al       4.34245020      10.13334236       7.23789628      26.98153850       61        1
Ni       2.89472716       8.68561932       5.79017324      58.69340000       62        2
Al       4.34245020      10.13334236      10.13334236      26.98153850       63        1
Ni       2.89472716       8.68561932       8.68561932      58.69340000       64        2
Al       7.23789628       1.44700412       1.44700412      26.98153850       65        1
Ni       5.79017324      -0.00071892      -0.00071892      58.69340000       66        2
Al       7.23789628       1.44700412       4.34245020      26.98153850       67        1
Ni       5.79017324      -0.00071892       2.89472716      58.69340000       68        2
Al       7.23789628       1.44700412       7.23789628      26.98153850       69        1
Ni       5.79017324      -0.00071892       5.79017324      58.69340000       70        2
Al       7.23789628       1.44700412      10.13334236      26.98153850       71        1
Ni       5.79017324      -0.00071892       8.68561932      58.69340000       72        2
Al       7.23789628       4.34245020       1.44700412      26.98153850       73        1
Ni       5.79017324       2.89472716      -0.00071892      58.69340000       74        2
Al       7.23789628       4.34245020       4.34245020      26.98153850       75        1
Ni       5.79017324       2.89472716       2.89472716      58.69340000       76        2
Al       7.23789628       4.34245020       7.23789628      26.98153850       77        1
Ni       5.79017324       2.89472716       5.79017324      58.69340000       78        2
Al       7.23789628       4.34245020      10.13334236      26.98153850       79        1
Ni       5.79017324       2.89472716       8.68561932      58.69340000       80        2
Al       7.23789628       7.23789628       1.44700412      26.98153850       81        1
Ni       5.79017324       5.79017324      -0.00071892      58.69340000       82        2
Al       7.23789628       7.23789628       4.34245020      26.98153850       83        1
Ni       5.79017324       5.79017324       2.89472716      58.69340000       84        2
Al       7.23789628       7.23789628       7.23789628      26.98153850       85        1
Ni       5.79017324       5.79017324       5.79017324      58.69340000       86        2
Al       7.23789628       7.23789628      10.13334236      26.98153850       87        1
Ni       5.79017324       5.79017324       8.68561932      58.69340000       88        2
Al       7.23789628      10.13334236       1.44700412      26.98153850       89        1
Ni       5.79017324       8.68561932      -0.00071892      58.69340000       90        2
Al       7.23789628      10.13334236       4.34245020      26.98153850       91        1
Ni       5.79017324       8.68561932       2.89472716      58.69340000       92        2
Al       7.23789628      10.13334236       7.23789628      26.98153850       93        1
Ni       5.79017324       8.68561932       5.79017324      58.69340000       94        2
Al       7.23789628      10.13334236      10.13334236      26.98153850       95        1
Ni       5.79017324       8.68561932       8.68561932      58.69340000       96        2
Al      10.13334236       1.44700412       1.44700412      26.98153850       97        1
Ni       8.68561932      -0.00071892      -0.00071892      58.69340000       98        2
Al      10.13334236       1.44700412       4.34245020      26.98153850       99        1
Ni       8.68561932      -0.00071892       2.89472716      58.69340000      100        2
Al      10.13334236       1.44700412       7.23789628      26.98153850      101        1
Ni       8.68561932      -0.00071892       5.79017324      58.69340000      102        2
Al      10.13334236       1.44700412      10.13334236      26.98153850      103        1
Ni       8.68561932      -0.00071892       8.68561932      58.69340000      104        2
Al      10.13334236       4.34245020       1.44700412      26.98153850      105        1
Ni       8.68561932       2.89472716      -0.00071892      58.69340000      106        2
Al      10.13334236       4.34245020       4.34245020      26.98153850      107        1
Ni       8.68561932       2.89472716       2.89472716      58.69340000      108        2
Al      10.13334236       4.34245020       7.23789628      26.98153850      109        1
Ni       8.68561932       2.89472716       5.79017324      58.69340000      110        2
Al      10.13334236       4.34245020      10.13334236      26.98153850      111        1
Ni       8.68561932       2.89472716       8.68561932      58.69340000      112        2
Al      10.13334236       7.23789628       1.44700412      26.98153850      113        1
Ni       8.68561932       5.79017324      -0.00071892      58.69340000      114        2
Al      10.13334236       7.23789628       4.34245020      26.98153850      115        1
Ni       8.68561932       5.79017324       2.89472716      58.69340000      116        2
Al      10.13334236       7.23789628       7.23789628      26.98153850      117        1
Ni       8.68561932       5.79017324       5.79017324      58.69340000      118        2
Al      10.13334236       7.23789628      10.13334236      26.98153850      119        1
Ni       8.68561932       5.79017324       8.68561932      58.69340000      120        2
Al      10.13334236      10.13334236       1.44700412      26.98153850      121        1
Ni       8.68561932       8.68561932      -0.00071892      58.69340000      122        2
Al      10.13334236      10.13334236       4.34245020      26.98153850      123        1
Ni       8.68561932       8.68561932       2.89472716      58.69340000      124        2
Al      10.13334236      10.13334236       7.23789628      26.98153850      125        1
Ni       8.68561932       8.68561932       5.79017324      58.69340000      126        2
Al      10.13334236      10.13334236      10.13334236      26.98153850      127        1
Ni       8.68561932       8.68561932       8.68561932      58.69340000      128        2
