
     Program PWSCF v.7.6 starts on  6Aug2026 at 14:20:32 

     This program is part of the open-source Quantum ESPRESSO suite
     for quantum simulation of materials; please cite
         "P. Giannozzi et al., J. Phys.:Condens. Matter 21 395502 (2009);
         "P. Giannozzi et al., J. Phys.:Condens. Matter 29 465901 (2017);
         "P. Giannozzi et al., J. Chem. Phys. 152 154105 (2020);
          URL http://www.quantum-espresso.org", 
     in publications or presentations arising from this work. More details at
     http://www.quantum-espresso.org/quote

     Parallel version (MPI), running on     4 processors

     MPI processes distributed on     1 nodes
     2147 MiB available memory on the printing compute node when the environment starts

     Reading input from /home/linuxuser/ni_al_dft_work/cloud_static_inputs/diverse_pilot_01/AlNi/iso_m02/AlNi_iso_m02.in

     Current dimensions of program PWSCF are:
     Max number of different atomic species (ntypx) = 10
     Max number of k-points (npk) =  40000
     Max angular momentum in pseudopotentials (lmaxx) =  4
     file Al.pbe-n-kjpaw_psl.1.0.0.UPF: wavefunction(s)  3S 3P renormalized

     IMPORTANT: XC functional enforced from input :
     Exchange-correlation= PBE
                           (   1   4   3   4   0   0   0)
     Any further DFT definition will be discarded
     Please, verify this is what you really want

     Message from routine setup:
     using ibrav=0 with symmetry is DISCOURAGED, use correct ibrav instead

     K-points division:     npool     =       2
     R & G space division:  proc/nbgrp/npool/nimage =       2
     Subspace diagonalization in iterative solution of the eigenvalue problem:
     a serial algorithm will be used


     Parallelization info
     --------------------
     sticks:   dense  smooth     PW     G-vecs:    dense   smooth      PW
     Min         824     414    123                25090     8886    1484
     Max         825     415    126                25091     8887    1485
     Sum        1649     829    249                50181    17773    2969

     Using Slab Decomposition



     bravais-lattice index     =            0
     lattice parameter (alat)  =       5.3595  a.u.
     unit-cell volume          =     153.9480 (a.u.)^3
     number of atoms/cell      =            2
     number of atomic types    =            2
     number of electrons       =        21.00
     number of Kohn-Sham states=           15
     kinetic-energy cutoff     =      90.0000  Ry
     charge density cutoff     =     720.0000  Ry
     scf convergence threshold =      1.0E-10
     mixing beta               =       0.3000
     number of iterations used =            8  plain     mixing
     Exchange-correlation= PBE
                           (   1   4   3   4   0   0   0)

     celldm(1)=   5.359505  celldm(2)=   0.000000  celldm(3)=   0.000000
     celldm(4)=   0.000000  celldm(5)=   0.000000  celldm(6)=   0.000000

     crystal axes: (cart. coord. in units of alat)
               a(1) = (   1.000000   0.000000  -0.000000 )  
               a(2) = (  -0.000000   1.000000  -0.000000 )  
               a(3) = (   0.000000  -0.000000   1.000000 )  

     reciprocal axes: (cart. coord. in units 2 pi/alat)
               b(1) = (  1.000000  0.000000  0.000000 )  
               b(2) = (  0.000000  1.000000  0.000000 )  
               b(3) = (  0.000000  0.000000  1.000000 )  


     PseudoPot. # 1 for Al read from file:
     /home/linuxuser/ni_al_dft_work/cloud_static_inputs/pseudo/Al.pbe-n-kjpaw_psl.1.0.0.UPF
     MD5 check sum: cfc449ca30b5f3223ec38ddd88ac046d
     Pseudo is Projector augmented-wave + core cor, Zval =  3.0
     Generated using "atomic" code by A. Dal Corso  v.5.1
     Shape of augmentation charge: PSQ
     Using radial grid of 1135 points,  6 beta functions with: 
                l(1) =   0
                l(2) =   0
                l(3) =   1
                l(4) =   1
                l(5) =   2
                l(6) =   2
     Q(r) pseudized with 0 coefficients 


     PseudoPot. # 2 for Ni read from file:
     /home/linuxuser/ni_al_dft_work/cloud_static_inputs/pseudo/ni_pbe_v1.4.uspp.F.UPF
     MD5 check sum: 1ee80287db30b12d2bc1f57a5b5d6409
     Pseudo is Ultrasoft + core correction, Zval = 18.0
     Generated by new atomic code, or converted to UPF format
     Using radial grid of  865 points,  6 beta functions with: 
                l(1) =   0
                l(2) =   0
                l(3) =   1
                l(4) =   1
                l(5) =   2
                l(6) =   2
     Q(r) pseudized with 10 coefficients,  rinner =    0.980   0.980   0.980
                                                       0.980   0.980

     atomic species   valence    mass     pseudopotential
     Al                3.00    26.98154     Al( 1.00)
     Ni               18.00    58.69340     Ni( 1.00)

     48 Sym. Ops., with inversion, found



   Cartesian axes

     site n.     atom                  positions (alat units)
         1        Al     tau(   1) = (   0.5000000   0.5000000   0.5000000  )
         2        Ni     tau(   2) = (   0.0000000   0.0000000   0.0000000  )

     number of k points=   165  Marzari-Vanderbilt smearing, width (Ry)=  0.0100

     Number of k-points >= 100: set verbosity='high' to print them.

     Dense  grid:    50181 G-vectors     FFT dimensions: (  45,  45,  45)

     Smooth grid:    17773 G-vectors     FFT dimensions: (  36,  36,  36)

     Estimated max dynamical RAM per process >      79.10 MB

     Estimated total dynamical RAM >     304.15 MB

     Check: negative core charge=   -0.000002

     Initial potential from superposition of free atoms

     starting charge      18.9977, renormalised to      21.0000
     Starting wfcs are   17 randomized atomic wfcs
     Checking if some PAW data can be deallocated... 

     total cpu time spent up to now is        1.5 secs

     Self-consistent Calculation

     iteration #  1     ecut=    90.00 Ry     beta= 0.30
     Davidson diagonalization with overlap
     ethr =  1.00E-02,  avg # of iterations =  5.9

     total cpu time spent up to now is        4.3 secs

     total energy              =    -367.76493626 Ry
     estimated scf accuracy    <      53.40208719 Ry

     iteration #  2     ecut=    90.00 Ry     beta= 0.30
     Davidson diagonalization with overlap
     ethr =  1.00E-02,  avg # of iterations =  3.1

     total cpu time spent up to now is        6.6 secs

     total energy              =    -382.37794447 Ry
     estimated scf accuracy    <      12.07209785 Ry

     iteration #  3     ecut=    90.00 Ry     beta= 0.30
     Davidson diagonalization with overlap
     ethr =  1.00E-02,  avg # of iterations =  2.0

     total cpu time spent up to now is        8.5 secs

     total energy              =    -382.93583820 Ry
     estimated scf accuracy    <       1.74769997 Ry

     iteration #  4     ecut=    90.00 Ry     beta= 0.30
     Davidson diagonalization with overlap
     ethr =  8.32E-03,  avg # of iterations =  1.0

     total cpu time spent up to now is       10.1 secs

     total energy              =    -383.00850315 Ry
     estimated scf accuracy    <       0.51616285 Ry

     iteration #  5     ecut=    90.00 Ry     beta= 0.30
     Davidson diagonalization with overlap
     ethr =  2.46E-03,  avg # of iterations =  2.0

     total cpu time spent up to now is       11.8 secs

     total energy              =    -382.78224522 Ry
     estimated scf accuracy    <       0.73491274 Ry

     iteration #  6     ecut=    90.00 Ry     beta= 0.30
     Davidson diagonalization with overlap
     ethr =  2.46E-03,  avg # of iterations =  2.0

     total cpu time spent up to now is       13.7 secs

     total energy              =    -382.90064967 Ry
     estimated scf accuracy    <       0.04838599 Ry

     iteration #  7     ecut=    90.00 Ry     beta= 0.30
     Davidson diagonalization with overlap
     ethr =  2.30E-04,  avg # of iterations =  2.8

     total cpu time spent up to now is       15.5 secs

     total energy              =    -382.84646348 Ry
     estimated scf accuracy    <       0.34061935 Ry

     iteration #  8     ecut=    90.00 Ry     beta= 0.30
     Davidson diagonalization with overlap
     ethr =  2.30E-04,  avg # of iterations =  2.0

     total cpu time spent up to now is       17.3 secs

     total energy              =    -382.87323939 Ry
     estimated scf accuracy    <       0.00833008 Ry

     iteration #  9     ecut=    90.00 Ry     beta= 0.30
     Davidson diagonalization with overlap
     ethr =  3.97E-05,  avg # of iterations =  2.0

     total cpu time spent up to now is       19.0 secs

     total energy              =    -382.87390279 Ry
     estimated scf accuracy    <       0.00045473 Ry

     iteration # 10     ecut=    90.00 Ry     beta= 0.30
     Davidson diagonalization with overlap
     ethr =  2.17E-06,  avg # of iterations =  4.3

     total cpu time spent up to now is       21.1 secs

     total energy              =    -382.87377670 Ry
     estimated scf accuracy    <       0.00328744 Ry

     iteration # 11     ecut=    90.00 Ry     beta= 0.30
     Davidson diagonalization with overlap
     ethr =  2.17E-06,  avg # of iterations =  2.0

     total cpu time spent up to now is       22.7 secs

     total energy              =    -382.87388448 Ry
     estimated scf accuracy    <       0.00034696 Ry

     iteration # 12     ecut=    90.00 Ry     beta= 0.30
     Davidson diagonalization with overlap
     ethr =  1.65E-06,  avg # of iterations =  1.1

     total cpu time spent up to now is       24.3 secs

     total energy              =    -382.87390605 Ry
     estimated scf accuracy    <       0.00001526 Ry

     iteration # 13     ecut=    90.00 Ry     beta= 0.30
     Davidson diagonalization with overlap
     ethr =  7.27E-08,  avg # of iterations =  2.3

     total cpu time spent up to now is       26.0 secs

     total energy              =    -382.87390913 Ry
     estimated scf accuracy    <       0.00000013 Ry

     iteration # 14     ecut=    90.00 Ry     beta= 0.30
     Davidson diagonalization with overlap
     ethr =  6.42E-10,  avg # of iterations =  4.0

     total cpu time spent up to now is       28.2 secs

     total energy              =    -382.87390912 Ry
     estimated scf accuracy    <       0.00000066 Ry

     iteration # 15     ecut=    90.00 Ry     beta= 0.30
     Davidson diagonalization with overlap
     ethr =  6.42E-10,  avg # of iterations =  2.2

     total cpu time spent up to now is       30.0 secs

     total energy              =    -382.87390924 Ry
     estimated scf accuracy    <       0.00000011 Ry

     iteration # 16     ecut=    90.00 Ry     beta= 0.30
     Davidson diagonalization with overlap
     ethr =  5.15E-10,  avg # of iterations =  1.0

     total cpu time spent up to now is       31.6 secs

     total energy              =    -382.87390926 Ry
     estimated scf accuracy    <          1.6E-09 Ry

     iteration # 17     ecut=    90.00 Ry     beta= 0.30
     Davidson diagonalization with overlap
     ethr =  7.68E-12,  avg # of iterations =  2.5

     total cpu time spent up to now is       33.4 secs

     total energy              =    -382.87390925 Ry
     estimated scf accuracy    <       0.00000005 Ry

     iteration # 18     ecut=    90.00 Ry     beta= 0.30
     Davidson diagonalization with overlap
     ethr =  7.68E-12,  avg # of iterations =  2.1

     total cpu time spent up to now is       35.2 secs

     total energy              =    -382.87390925 Ry
     estimated scf accuracy    <          8.1E-09 Ry

     iteration # 19     ecut=    90.00 Ry     beta= 0.30
     Davidson diagonalization with overlap
     ethr =  7.68E-12,  avg # of iterations =  2.0

     total cpu time spent up to now is       36.9 secs

     total energy              =    -382.87390925 Ry
     estimated scf accuracy    <          5.0E-10 Ry

     iteration # 20     ecut=    90.00 Ry     beta= 0.30
     Davidson diagonalization with overlap
     ethr =  2.37E-12,  avg # of iterations =  2.0

     total cpu time spent up to now is       38.6 secs

     total energy              =    -382.87390925 Ry
     estimated scf accuracy    <          2.0E-10 Ry

     iteration # 21     ecut=    90.00 Ry     beta= 0.30
     Davidson diagonalization with overlap
     ethr =  9.48E-13,  avg # of iterations =  1.0

     total cpu time spent up to now is       40.1 secs

     End of self-consistent calculation

     Number of k-points >= 100: set verbosity='high' to print the bands.

     the Fermi energy is    14.6345 ev

!    total energy              =    -382.87390925 Ry
     estimated scf accuracy    <          8.4E-12 Ry
     smearing contrib. (-TS)   =       0.00010505 Ry
     internal energy E=F+TS    =    -382.87401430 Ry

     The total energy is F=E-TS. E is the sum of the following terms:
     one-electron contribution =    -258.04047400 Ry
     hartree contribution      =     140.69520676 Ry
     xc contribution           =     -38.38675984 Ry
     ewald contribution        =    -192.44856926 Ry
     one-center paw contrib.   =     -34.69341797 Ry

     convergence has been achieved in  21 iterations

     Forces acting on atoms (cartesian axes, Ry/au):

     atom    1 type  1   force =     0.00000000    0.00000000    0.00000000
     atom    2 type  2   force =     0.00000000    0.00000000    0.00000000

     Total force =     0.000000     Total SCF correction =     0.000000


     Computing stress (Cartesian axis) and pressure

          total   stress  (Ry/bohr**3)                   (kbar)     P=      110.54
   0.00075144   0.00000000   0.00000000          110.54        0.00        0.00
   0.00000000   0.00075144   0.00000000            0.00      110.54        0.00
   0.00000000   0.00000000   0.00075144            0.00        0.00      110.54


     Writing all to output data dir /home/linuxuser/ni_al_dft_work/cloud_static_inputs/diverse_pilot_01/AlNi/iso_m02/tmp/AlNi_iso_m02.save/ :
     XML data file, charge density, pseudopotentials, collected wavefunctions

     init_run     :      1.13s CPU      1.25s WALL (       1 calls)
     electrons    :     34.99s CPU     38.67s WALL (       1 calls)
     forces       :      0.15s CPU      0.20s WALL (       1 calls)
     stress       :      0.91s CPU      1.04s WALL (       1 calls)

     Called by init_run:
     wfcinit      :      0.55s CPU      0.60s WALL (       1 calls)
     potinit      :      0.22s CPU      0.24s WALL (       1 calls)
     hinit0       :      0.30s CPU      0.31s WALL (       1 calls)

     Called by electrons:
     c_bands      :     26.48s CPU     27.98s WALL (      21 calls)
     sum_band     :      5.73s CPU      6.78s WALL (      21 calls)
     v_of_rho     :      0.28s CPU      0.34s WALL (      22 calls)
     newd         :      1.02s CPU      1.81s WALL (      22 calls)
     PAW_pot      :      1.52s CPU      1.85s WALL (      22 calls)
     mix_rho      :      0.04s CPU      0.04s WALL (      21 calls)

     Called by c_bands:
     init_us_2    :      0.83s CPU      0.87s WALL (    3735 calls)
     cegterg      :     23.04s CPU     24.48s WALL (    1743 calls)

     Called by *egterg:
     cdiaghg      :      0.88s CPU      0.93s WALL (    5892 calls)
     h_psi        :     19.78s CPU     21.10s WALL (    5975 calls)
     s_psi        :      0.50s CPU      0.53s WALL (    5975 calls)
     g_psi        :      0.14s CPU      0.15s WALL (    4149 calls)

     Called by h_psi:
     h_psi:calbec :      0.65s CPU      0.70s WALL (    5975 calls)
     vloc_psi     :     18.53s CPU     19.77s WALL (    5975 calls)
     add_vuspsi   :      0.51s CPU      0.55s WALL (    5975 calls)

     General routines
     calbec       :      1.06s CPU      1.13s WALL (    9129 calls)
     fft          :      0.22s CPU      0.26s WALL (     309 calls)
     ffts         :      0.12s CPU      0.12s WALL (      43 calls)
     fftw         :     19.92s CPU     21.25s WALL (  159981 calls)
     interpolate  :      0.13s CPU      0.13s WALL (      22 calls)

     Parallel routines

     PWSCF        :     37.43s CPU     41.46s WALL


   This run was terminated on:  14:21:14   6Aug2026            

=------------------------------------------------------------------------------=
   JOB DONE.
=------------------------------------------------------------------------------=
Note: The following floating-point exceptions are signalling: IEEE_UNDERFLOW_FLAG IEEE_DENORMAL
Note: The following floating-point exceptions are signalling: IEEE_UNDERFLOW_FLAG IEEE_DENORMAL
Note: The following floating-point exceptions are signalling: IEEE_UNDERFLOW_FLAG IEEE_DENORMAL
Note: The following floating-point exceptions are signalling: IEEE_UNDERFLOW_FLAG IEEE_DENORMAL
