16
Lattice="5.0474777247529845 0.0 0.0 0.0 6.927693462089924 0.0 0.0 0.0 7.7220856963227815" Properties=species:S:1:pos:R:3:forces:R:3 config_id=cfg111_Al3Ni_iso_expansion phase=Al3Ni config_type=iso_expansion target_role=TRAIN strain_type=isotropic strain_value=0.046 rattle_sigma_A=0.0 random_seed=NONE source=QE_7.6_PBE source_structure=Al3Ni_relaxed design_round=round2_cfg111-115 provenance=/workspace/ni_al/data/al3ni_remediation_v1/round2_production_dft/cfg111_Al3Ni_iso_expansion/attempt_001/qe.out qe_output_sha256=bdaca399293e6310e9f4cee3ff3280c9438110d4cc5ef5b2363e026e454e137b canonical_input=/workspace/ni_al/data/al3ni_remediation_v1/round2_qe_inputs/cfg111_Al3Ni_iso_expansion.in canonical_input_sha256=a1eedbbda6a571124f2df923d67fa4a22ac5dbe73782e26b99f524d4a8ca4fd4 energy=-25136.80326359608 stress="0.06870074315239487 -0.0 -0.0 -0.0 0.07147683074787389 -0.0 -0.0 -0.0 0.07353257616847635" pbc="T T T"
Al       4.62361629       0.05200820       1.93052193       0.01413944      -0.03580022       0.00000000
Al       1.83778311       1.18685887       3.43437804      -0.03055929      -0.04770032      -0.01395465
Al       1.83778311       1.18685887       0.42666582      -0.03055929      -0.04770032       0.01395465
Al       4.36152349       2.27698837       4.28770816      -0.03055929       0.04770032       0.01395465
Al       0.68595575       4.65070358       3.43437956       0.03055929      -0.04770032      -0.01395465
Al       3.20969613       5.74083308       7.29542190       0.03055929       0.04770032      -0.01395465
Al       0.68595575       4.65070358       0.42666430       0.03055929      -0.04770032       0.01395465
Al       3.20969613       5.74083308       4.28770917       0.03055929       0.04770032       0.01395465
Al       4.36152349       2.27698837       7.29542291      -0.03055929       0.04770032      -0.01395465
Al       2.94760080       3.51585240       1.93052193      -0.01413944      -0.03580022       0.00000000
Al       0.42386295       6.87568375       5.79156579      -0.01413944       0.03580022       0.00000000
Al       2.09987844       3.41183954       5.79156579       0.01413944       0.03580022       0.00000000
Ni       2.23639201       6.02956395       1.93052193      -0.01230178      -0.03396066       0.00000000
Ni       0.28734786       2.56571722       1.93052193       0.01230178      -0.03396066       0.00000000
Ni       2.81108723       0.89812799       5.79156579       0.01230178       0.03396066       0.00000000
Ni       4.76013138       4.36197473       5.79156579      -0.01230178       0.03396066       0.00000000
16
Lattice="5.0474777247529845 0.0 0.0 0.0 6.927693462089924 0.0 0.0 0.0 7.7220856963227815" Properties=species:S:1:pos:R:3:forces:R:3 config_id=cfg112_Al3Ni_volume_rattle_expansion phase=Al3Ni config_type=volume_rattle_expansion target_role=TRAIN strain_type=isotropic strain_value=0.046 rattle_sigma_A=0.015 random_seed=20261112 source=QE_7.6_PBE source_structure=Al3Ni_relaxed design_round=round2_cfg111-115 provenance=/workspace/ni_al/data/al3ni_remediation_v1/round2_production_dft/cfg112_Al3Ni_volume_rattle_expansion/attempt_001/qe.out qe_output_sha256=4d8158c033348134e155cea81a24c6d3ab47a0f9475f52d2a576cf7728e8fd5f canonical_input=/workspace/ni_al/data/al3ni_remediation_v1/round2_qe_inputs/cfg112_Al3Ni_volume_rattle_expansion.in canonical_input_sha256=0f55edba5ee45a2444c3bda1da036e181663c7258240e2e31133d3753fde310a energy=-25136.789262864713 stress="0.0688647045586234 0.0005936816338106077 -0.00010572484088155858 0.0005936816338106077 0.07103495218032217 -0.00013982837636009157 -0.00010572484088155858 -0.00013982837636009157 0.0732541171355738" pbc="T T T"
Al       4.64091981       0.03355409       1.92282006      -0.05034503       0.01095601       0.00521081
Al       1.81470803       1.16189096       3.44872215       0.03843829       0.07002170      -0.08022797
Al       1.82929174       1.18753150       0.43549050       0.05570563      -0.05577693      -0.01580040
Al       4.38102905       2.28280257       4.29271732      -0.14971932       0.00765345       0.01877159
Al       0.67792897       4.65459537       3.43548105       0.05637981      -0.03109697      -0.02803450
Al       3.21614342       5.74548757       7.28890343      -0.01334710       0.04448013      -0.01674980
Al       0.66303773       4.64953587       0.41692331       0.15088670      -0.01445661       0.06185318
Al       3.20435952       5.76588699       4.27794571       0.11470301      -0.06475813       0.07888616
Al       4.38362081       2.26342424       7.31252104      -0.15810282       0.05423859      -0.11186349
Al       2.93126994       3.51583425       1.92973356      -0.00154839      -0.03990114       0.00774211
Al       0.43443526       6.88043244       5.78564680      -0.05279498       0.00432479       0.02891795
Al       2.09669100       3.41286064       5.79300028       0.08782045       0.01076615      -0.00481097
Ni       2.23378147       6.03294410       1.92614364      -0.04205276      -0.06191376      -0.00801234
Ni       0.27575279       2.58052328       1.93336150       0.06476965      -0.10757540       0.02436972
Ni       2.81780941       0.90253338       5.79039057       0.02211866       0.05220877       0.03288072
Ni       4.77905497       4.35169835       5.78689981      -0.12291183       0.12082935       0.00686722
16
Lattice="5.095732769923057 0.0 0.0 0.0 6.993923801116475 0.0 0.0 0.0 7.795910607377464" Properties=species:S:1:pos:R:3:forces:R:3 config_id=cfg113_Al3Ni_iso_expansion phase=Al3Ni config_type=iso_expansion target_role=TRAIN strain_type=isotropic strain_value=0.056 rattle_sigma_A=0.0 random_seed=NONE source=QE_7.6_PBE source_structure=Al3Ni_relaxed design_round=round2_cfg111-115 provenance=/workspace/ni_al/data/al3ni_remediation_v1/round2_production_dft/cfg113_Al3Ni_iso_expansion/attempt_001/qe.out qe_output_sha256=cee554e6cd6a6ea8739366f399b5876d6b7422bb30cd0e2ee5fdcf3ab6bccde7 canonical_input=/workspace/ni_al/data/al3ni_remediation_v1/round2_qe_inputs/cfg113_Al3Ni_iso_expansion.in canonical_input_sha256=347b1e387c2c3bda0a71a13b6640a7017c54aa6d719d6a66fcee0cf134e7f028 energy=-25136.208046426647 stress="0.07789581973251944 -0.0 -0.0 -0.0 0.08109761008917554 -0.0 -0.0 -0.0 0.08345613992333485" pbc="T T T"
Al       4.66781912       0.05250541       1.94897816       0.01488077      -0.04007542       0.00000000
Al       1.85535274       1.19820551       3.46721148      -0.03420588      -0.05514491      -0.01693266
Al       1.85535274       1.19820551       0.43074484      -0.03420588      -0.05514491       0.01693266
Al       4.40322065       2.29875690       4.32869963      -0.03420588       0.05514491       0.01693266
Al       0.69251365       4.69516537       3.46721301       0.03420588      -0.05514491      -0.01693266
Al       3.24038156       5.79571676       7.36516781       0.03420588       0.05514491      -0.01693266
Al       0.69251365       4.69516537       0.43074331       0.03420588      -0.05514491       0.01693266
Al       3.24038156       5.79571676       4.32870065       0.03420588       0.05514491       0.01693266
Al       4.40322065       2.29875690       7.36516883      -0.03420588       0.05514491      -0.01693266
Al       2.97578054       3.54946476       1.94897816      -0.01488077      -0.04007542       0.00000000
Al       0.42791518       6.94141687       5.84693448      -0.01488077       0.04007542       0.00000000
Al       2.11995376       3.44445751       5.84693448       0.01488077       0.04007542       0.00000000
Ni       2.25777244       6.08720797       1.94897816      -0.01338257      -0.03776509       0.00000000
Ni       0.29009497       2.59024606       1.94897816       0.01338257      -0.03776509       0.00000000
Ni       2.83796187       0.90671430       5.84693448       0.01338257       0.03776509       0.00000000
Ni       4.80563933       4.40367621       5.84693448      -0.01338257       0.03776509       0.00000000
16
Lattice="5.095732769923057 0.0 0.0 0.0 6.993923801116475 0.0 0.0 0.0 7.795910607377464" Properties=species:S:1:pos:R:3:forces:R:3 config_id=cfg114_Al3Ni_volume_rattle_expansion phase=Al3Ni config_type=volume_rattle_expansion target_role=TRAIN strain_type=isotropic strain_value=0.056 rattle_sigma_A=0.015 random_seed=20261114 source=QE_7.6_PBE source_structure=Al3Ni_relaxed design_round=round2_cfg111-115 provenance=/workspace/ni_al/data/al3ni_remediation_v1/round2_production_dft/cfg114_Al3Ni_volume_rattle_expansion/attempt_001/qe.out qe_output_sha256=29941f47c758f7f57e26228e916c81e4c82f45522a29cc1f0a37aed198a267a1 canonical_input=/workspace/ni_al/data/al3ni_remediation_v1/round2_qe_inputs/cfg114_Al3Ni_volume_rattle_expansion.in canonical_input_sha256=6fd65fe8936b4f7c209fa1457c5b6fa44fa2c4b3628ca9757248856e5cf1d921 energy=-25136.17840575565 stress="0.07712022841015373 0.00010103280446315235 -0.00039069374674141123 0.00010103280446315235 0.08130137378593494 -1.4655748373037102e-05 -0.00039069374674141123 -1.4655748373037102e-05 0.08276448665705584" pbc="T T T"
Al       4.65478436       0.06161245       1.94698509       0.04391152      -0.05961675      -0.00403814
Al       1.86811426       1.17000935       3.45613030      -0.10855735       0.05893339       0.00983618
Al       1.84710873       1.19983922       0.43034113       0.02404636      -0.07777296       0.00571156
Al       4.39641212       2.29561504       4.33008382       0.01743136       0.06736744       0.00165936
Al       0.71343310       4.66729512       3.46837256      -0.05637968       0.02099699       0.00569996
Al       3.24474896       5.75286016       7.38056468      -0.02356079       0.21764207      -0.12278597
Al       0.67742490       4.72311471       0.41764162       0.09455087      -0.14221855       0.08851660
Al       3.22939258       5.80455247       4.30162503       0.14462927      -0.01039054       0.15802964
Al       4.41353263       2.30522965       7.36510021      -0.04842461       0.06427166       0.03456898
Al       2.98034091       3.55842023       1.95651907      -0.00947999      -0.09828156      -0.03922304
Al       0.42889388       6.94947978       5.85063551      -0.03494844       0.02506951      -0.01205926
Al       2.11383019       3.43838621       5.86183501      -0.00064429       0.10279670      -0.02509074
Ni       2.26146860       6.07749570       1.91062693      -0.03883858       0.00539453       0.19434836
Ni       0.30389994       2.58961342       1.95424371      -0.03283581      -0.04691867      -0.01312981
Ni       2.83850803       0.95734050       5.87200253       0.00676945      -0.22967193      -0.14052633
Ni       4.79398123       4.40051418       5.86459294       0.02233072       0.10239869      -0.14151733
16
Lattice="5.081256256372335 0.0 0.0 0.0 6.974054699408209 0.0 0.0 0.0 7.77376313406166" Properties=species:S:1:pos:R:3:forces:R:3 config_id=cfg115_Al3Ni_iso_expansion phase=Al3Ni config_type=iso_expansion target_role=VALIDATION strain_type=isotropic strain_value=0.053 rattle_sigma_A=0.0 random_seed=NONE source=QE_7.6_PBE source_structure=Al3Ni_relaxed design_round=round2_cfg111-115 provenance=/workspace/ni_al/data/al3ni_remediation_v1/round2_production_dft/cfg115_Al3Ni_iso_expansion/attempt_001/qe.out qe_output_sha256=31cf652fc742e0dd32b754985c19137dbb6f42c80938870e3630fea383ecb923 canonical_input=/workspace/ni_al/data/al3ni_remediation_v1/round2_qe_inputs/cfg115_Al3Ni_iso_expansion.in canonical_input_sha256=947eb701b642e1e2890b4f21c9680621ece52c0bfd3276a9cbaf9e174e2d10e7 energy=-25136.39557985407 stress="0.07529627495045657 -0.0 -0.0 -0.0 0.0783777375374424 -0.0 -0.0 -0.0 0.08064946378457977" pbc="T T T"
Al       4.65455827       0.05235624       1.94344129       0.01472011      -0.03892443       0.00000000
Al       1.85008185       1.19480152       3.45736145      -0.03319127      -0.05301102      -0.01601723
Al       1.85008185       1.19480152       0.42952113      -0.03319127      -0.05301102       0.01601723
Al       4.39071150       2.29222634       4.31640219      -0.03319127       0.05301102       0.01601723
Al       0.69054628       4.68182683       3.45736298       0.03319127      -0.05301102      -0.01601723
Al       3.23117593       5.77925166       7.34424403       0.03319127       0.05301102      -0.01601723
Al       0.69054628       4.68182683       0.42951961       0.03319127      -0.05301102       0.01601723
Al       3.23117593       5.77925166       4.31640321       0.03319127       0.05301102       0.01601723
Al       4.39071150       2.29222634       7.34424506      -0.03319127       0.05301102      -0.01601723
Al       2.96732662       3.53938105       1.94344129      -0.01472011      -0.03892443       0.00000000
Al       0.42669951       6.92169693       5.83032387      -0.01472011       0.03892443       0.00000000
Al       2.11393116       3.43467212       5.83032387       0.01472011       0.03892443       0.00000000
Ni       2.25135831       6.06991477       1.94344129      -0.01311426      -0.03675682       0.00000000
Ni       0.28927084       2.58288741       1.94344129       0.01311426      -0.03675682       0.00000000
Ni       2.82989947       0.90413841       5.83032387       0.01311426       0.03675682       0.00000000
Ni       4.79198694       4.39116577       5.83032387      -0.01311426       0.03675682       0.00000000
