16
Lattice="4.6324843362939605 0.0 0.0 0.0 6.358112546468973 0.0 0.0 0.0 7.087191461252698" Properties=species:S:1:pos:R:3:forces:R:3 config_id=cfg101_Al3Ni_iso_compression phase=Al3Ni config_type=iso_compression target_role=TRAIN strain_type=isotropic strain_value=-0.040000000000000001 rattle_sigma_A=0 random_seed=NONE source=QE_7.6_PBE source_structure=Al3Ni_relaxed design_round=v1_cfg101-108 provenance=/workspace/ni_al/data/al3ni_remediation_v1/production_dft/cfg101_Al3Ni_iso_compression/attempt_001/qe.out qe_output_sha256=b9226b79a05435b33d5f60efb8aee92c23927309a65353e3947568b419fbbd4f canonical_input=/workspace/ni_al/data/al3ni_remediation_v1/qe_inputs/cfg101_Al3Ni_iso_compression.in canonical_input_sha256=498e071e276b9a62b9e4b3096a76a7339e2bce3cc02d4730f8fa6dd1d9d02560 energy=-25136.78698116325 stress="-0.1106148431349334 -0.0 -0.0 -0.0 -0.11353126277862602 -0.0 -0.0 -0.0 -0.11734075633386548" pbc="T T T"
Al       4.24347193       0.04773219       1.77179833      -0.03143644       0.05060013       0.00000000
Al       1.68668431       1.08927774       3.15201044       0.04113735       0.07822791       0.01476075
Al       1.68668431       1.08927774       0.39158622       0.04113735       0.07822791      -0.01476075
Al       4.00292787       2.08977900       3.93518148       0.04113735      -0.07822791      -0.01476075
Al       0.62955786       4.26833215       3.15201183      -0.04113735       0.07822791       0.01476075
Al       2.94580142       5.26883342       6.69560710      -0.04113735      -0.07822791       0.01476075
Al       0.62955786       4.26833215       0.39158483      -0.04113735       0.07822791      -0.01476075
Al       2.94580142       5.26883342       3.93518241      -0.04113735      -0.07822791      -0.01476075
Al       4.00292787       2.08977900       6.69560803       0.04113735      -0.07822791       0.01476075
Al       2.70525504       3.22678615       1.77179833       0.03143644       0.05060013       0.00000000
Al       0.38901380       6.31037897       5.31539499       0.03143644      -0.05060013       0.00000000
Al       1.92723069       3.13132501       5.31539499      -0.03143644      -0.05060013       0.00000000
Ni       2.05252040       5.53382543       1.77179833       0.02748626       0.05075561       0.00000000
Ni       0.26372270       2.35476915       1.77179833      -0.02748626       0.05075561       0.00000000
Ni       2.57996533       0.82428573       5.31539499      -0.02748626      -0.05075561       0.00000000
Ni       4.36876302       4.00334201       5.31539499       0.02748626      -0.05075561       0.00000000
16
Lattice="4.728994426633105 0.0 0.0 0.0 6.490573224520079 0.0 0.0 0.0 7.234841283362067" Properties=species:S:1:pos:R:3:forces:R:3 config_id=cfg102_Al3Ni_iso_compression phase=Al3Ni config_type=iso_compression target_role=TRAIN strain_type=isotropic strain_value=-0.02 rattle_sigma_A=0 random_seed=NONE source=QE_7.6_PBE source_structure=Al3Ni_relaxed design_round=v1_cfg101-108 provenance=/workspace/ni_al/data/al3ni_remediation_v1/production_dft/cfg102_Al3Ni_iso_compression/attempt_001/qe.out qe_output_sha256=d6ab560d917e9b66f6d25ce62e5b31c66426bfb241085e887ff688be3b22fa4c canonical_input=/workspace/ni_al/data/al3ni_remediation_v1/qe_inputs/cfg102_Al3Ni_iso_compression.in canonical_input_sha256=bf38b8aa2d2f0d80b7ca716ab8fb663cd181284a1a5efe59f0bb32c096b83782 energy=-25137.852923354832 stress="-0.04779436731565564 -0.0 -0.0 -0.0 -0.049146796911615075 -0.0 -0.0 -0.0 -0.05080927456005347" pbc="T T T"
Al       4.33187759       0.04872661       1.80871079      -0.01257624       0.02309814       0.00000000
Al       1.72182356       1.11197102       3.21767732       0.01677039       0.03553906       0.00558589
Al       1.72182356       1.11197102       0.39974426       0.01677039       0.03553906      -0.00558589
Al       4.08632220       2.13331607       4.01716443       0.01677039      -0.03553906      -0.00558589
Al       0.64267365       4.35725574       3.21767874      -0.01677039       0.03553906       0.00558589
Al       3.00717229       5.37860078       6.83509891      -0.01677039      -0.03553906       0.00558589
Al       0.64267365       4.35725574       0.39974284      -0.01677039       0.03553906      -0.00558589
Al       3.00717229       5.37860078       4.01716538      -0.01677039      -0.03553906      -0.00558589
Al       4.08632220       2.13331607       6.83509986       0.01677039      -0.03553906       0.00558589
Al       2.76161452       3.29401086       1.80871079       0.01257624       0.02309814       0.00000000
Al       0.39711826       6.44184520       5.42613238       0.01257624      -0.02309814       0.00000000
Al       1.96738133       3.19656095       5.42613238      -0.01257624      -0.02309814       0.00000000
Ni       2.09528124       5.64911346       1.80871079       0.01159294       0.02165518       0.00000000
Ni       0.26921693       2.40382684       1.80871079      -0.01159294       0.02165518       0.00000000
Ni       2.63371461       0.84145835       5.42613238      -0.01159294      -0.02165518       0.00000000
Ni       4.45977892       4.08674497       5.42613238       0.01159294      -0.02165518       0.00000000
16
Lattice="4.922014607312396 0.0 0.0 0.0 6.755494580623288 0.0 0.0 0.0 7.530140927580801" Properties=species:S:1:pos:R:3:forces:R:3 config_id=cfg103_Al3Ni_iso_expansion phase=Al3Ni config_type=iso_expansion target_role=TRAIN strain_type=isotropic strain_value=0.02 rattle_sigma_A=0 random_seed=NONE source=QE_7.6_PBE source_structure=Al3Ni_relaxed design_round=v1_cfg101-108 provenance=/workspace/ni_al/data/al3ni_remediation_v1/production_dft/cfg103_Al3Ni_iso_expansion/attempt_001/qe.out qe_output_sha256=1135adaf3cfd3decfa27b6018525d142726f4823985776ffb055abaf53c73046 canonical_input=/workspace/ni_al/data/al3ni_remediation_v1/qe_inputs/cfg103_Al3Ni_iso_expansion.in canonical_input_sha256=18c2a4828828c3c0c105d7555705d96b2cc70cdee5e84f162b049b9ad78880d9 energy=-25137.893678158136 stress="0.03601188980218816 -0.0 -0.0 -0.0 0.03739347387316102 -0.0 -0.0 -0.0 0.03842481654099541" pbc="T T T"
Al       4.50868892       0.05071545       1.88253572       0.00883355      -0.01883170       0.00000000
Al       1.79210208       1.15735760       3.34901109      -0.01717818      -0.02311574      -0.00683718
Al       1.79210208       1.15735760       0.41606036      -0.01717818      -0.02311574       0.00683718
Al       4.25311086       2.22039019       4.18113032      -0.01717818       0.02311574       0.00683718
Al       0.66890523       4.53510291       3.34901257       0.01717818      -0.02311574      -0.00683718
Al       3.12991401       5.59813551       7.11408254       0.01717818       0.02311574      -0.00683718
Al       0.66890523       4.53510291       0.41605888       0.01717818      -0.02311574       0.00683718
Al       3.12991401       5.59813551       4.18113131       0.01717818       0.02311574       0.00683718
Al       4.25311086       2.22039019       7.11408353      -0.01717818       0.02311574      -0.00683718
Al       2.87433348       3.42846028       1.88253572      -0.00883355      -0.01883170       0.00000000
Al       0.41332716       6.70477765       5.64760717      -0.00883355       0.01883170       0.00000000
Al       2.04768261       3.32703283       5.64760717       0.00883355       0.01883170       0.00000000
Ni       2.18080292       5.87968952       1.88253572      -0.00692372      -0.01877889       0.00000000
Ni       0.28020537       2.50194222       1.88253572       0.00692372      -0.01877889       0.00000000
Ni       2.74121317       0.87580359       5.64760717       0.00692372       0.01877889       0.00000000
Ni       4.64181071       4.25355089       5.64760717      -0.00692372       0.01877889       0.00000000
16
Lattice="4.728994426633105 0.0 0.0 0.0 6.490573224520079 0.0 0.0 0.0 7.234841283362067" Properties=species:S:1:pos:R:3:forces:R:3 config_id=cfg104_Al3Ni_volume_rattle_compression phase=Al3Ni config_type=volume_rattle_compression target_role=TRAIN strain_type=isotropic strain_value=-0.02 rattle_sigma_A=0.014999999999999999 random_seed=20261104 source=QE_7.6_PBE source_structure=Al3Ni_relaxed design_round=v1_cfg101-108 provenance=/workspace/ni_al/data/al3ni_remediation_v1/production_dft/cfg104_Al3Ni_volume_rattle_compression/attempt_001/qe.out qe_output_sha256=b68da2f8c4f711c570394be3694dfd883dabca6a9df5f38a3218f19616e3555e canonical_input=/workspace/ni_al/data/al3ni_remediation_v1/qe_inputs/cfg104_Al3Ni_volume_rattle_compression.in canonical_input_sha256=46356e6f9ab4e88d2d204f689a91db128eb8d919316b68f3546e3796cbf3a54b energy=-25137.804284486054 stress="-0.04891150299813262 0.000595223495831893 0.0004237810864444241 0.000595223495831893 -0.0489823422402747 -0.001128580269006958 0.0004237810864444241 -0.001128580269006958 -0.05111061332716612" pbc="T T T"
Al       4.34619042       0.07077376       1.80693924      -0.20251447      -0.14238475      -0.05501899
Al       1.69295762       1.09040843       3.20716026       0.21562529       0.19449610       0.13155416
Al       1.73379883       1.10407682       0.41856502      -0.02036890       0.18338718      -0.24251356
Al       4.08984371       2.12025550       4.02085695      -0.01778801       0.06700926      -0.01372140
Al       0.61735198       4.35635266       3.22085163       0.19402716       0.13992412      -0.11416236
Al       3.00590712       5.35517195       6.84998744       0.02338060       0.18579760      -0.27016269
Al       0.63970242       4.37448163       0.37893656       0.05987494      -0.11538118       0.30741176
Al       2.99492300       5.39278138       4.00180224       0.09884794      -0.14716514       0.17501513
Al       4.08559241       2.11603941       6.82865389       0.15590219       0.08648817       0.10345028
Al       2.77718718       3.28708601       1.81749436      -0.25551182       0.15963659      -0.01526758
Al       0.41010070       6.42644074       5.44123619      -0.02997749       0.07206676      -0.04410909
Al       1.96292397       3.19971504       5.43937720       0.05760857      -0.04237822      -0.10817289
Ni       2.10366421       5.65763072       1.78262582      -0.07096020      -0.18380911       0.33795360
Ni       0.25804055       2.42038045       1.81306814       0.18702869      -0.05690784      -0.11089551
Ni       2.64273984       0.86224041       5.40748070      -0.18065735      -0.33069693       0.21978689
Ni       4.47104282       4.09073954       5.44370881      -0.21451716      -0.07008260      -0.30114777
16
Lattice="4.922014607312396 0.0 0.0 0.0 6.755494580623288 0.0 0.0 0.0 7.530140927580801" Properties=species:S:1:pos:R:3:forces:R:3 config_id=cfg105_Al3Ni_volume_rattle_expansion phase=Al3Ni config_type=volume_rattle_expansion target_role=TRAIN strain_type=isotropic strain_value=0.02 rattle_sigma_A=0.014999999999999999 random_seed=20261105 source=QE_7.6_PBE source_structure=Al3Ni_relaxed design_round=v1_cfg101-108 provenance=/workspace/ni_al/data/al3ni_remediation_v1/production_dft/cfg105_Al3Ni_volume_rattle_expansion/attempt_001/qe.out qe_output_sha256=a24f0fe2d37ab54d267781ec2b25df6aa8256118dc274bc1ce7bba76690f9c69 canonical_input=/workspace/ni_al/data/al3ni_remediation_v1/qe_inputs/cfg105_Al3Ni_volume_rattle_expansion.in canonical_input_sha256=a58dee5262de4b7ac99c72850df85dabebfb50c88bdf0cf0b7bbe1c416703e7c energy=-25137.842503196614 stress="0.03394421790376644 0.0010491889673936946 0.00014823057264710013 0.0010491889673936946 0.038640188031540804 -0.0005481079639695494 0.00014823057264710013 -0.0005481079639695494 0.03753226623734709" pbc="T T T"
Al       4.50593930       0.04291961       1.87025276       0.03392078       0.01531144       0.06681236
Al       1.80101508       1.17375710       3.35631205      -0.01254352      -0.10525589      -0.12426298
Al       1.77879532       1.13127922       0.38446261      -0.11849785       0.10224087       0.29535104
Al       4.28052177       2.22362381       4.16544675      -0.24150007      -0.02414058       0.25424164
Al       0.67059964       4.55136452       3.37441602       0.13171841      -0.07289700      -0.20396455
Al       3.14455926       5.59884940       7.11305891      -0.08484497      -0.00535996       0.07425450
Al       0.66912251       4.55258551       0.38878824       0.06730862      -0.13050890       0.20086492
Al       3.15411299       5.60141248       4.19925641      -0.21903860       0.07251013      -0.20013349
Al       4.23472212       2.21736960       7.11833411       0.06023725       0.04924531      -0.03785533
Al       2.89620811       3.43720466       1.87067502      -0.20908449       0.00107507       0.02648753
Al       0.41356894       6.69243332       5.64966023       0.00674755       0.13796120      -0.02913208
Al       2.04010217       3.31039636       5.67014305       0.03410243       0.06427280      -0.08316909
Ni       2.17552258       5.86609827       1.88831054       0.00743735       0.07808952      -0.00152923
Ni       0.25023713       2.51121406       1.89961558       0.30411216      -0.09254834      -0.23901162
Ni       2.72573880       0.84700647       5.65613647       0.16745993       0.27710077      -0.13204888
Ni       4.63536297       4.28643045       5.63627345       0.07246501      -0.36709643       0.13309525
16
Lattice="4.825504516972251 0.0 0.0 0.0 6.623033902572181 0.0 0.0 0.0 7.382491105471437" Properties=species:S:1:pos:R:3:forces:R:3 config_id=cfg106_Al3Ni_rattle_020 phase=Al3Ni config_type=rattle_020 target_role=TRAIN strain_type=none strain_value=0 rattle_sigma_A=0.02 random_seed=20261106 source=QE_7.6_PBE source_structure=Al3Ni_relaxed design_round=v1_cfg101-108 provenance=/workspace/ni_al/data/al3ni_remediation_v1/production_dft/cfg106_Al3Ni_rattle_020/attempt_001/qe.out qe_output_sha256=3703cbce744bc423533c3537b03214ea2fcfad02995070d4c97adcdcbd258e78 canonical_input=/workspace/ni_al/data/al3ni_remediation_v1/qe_inputs/cfg106_Al3Ni_rattle_020.in canonical_input_sha256=852c7538f5dd8c4192b944a5ecb9c5705e8d8b7d99135b37a0ce29ee9333fac4 energy=-25138.11457069661 stress="-0.00041934054503884563 -0.0005038984810788609 -0.000425268753372954 -0.0005038984810788609 -0.0002555176320082946 -0.0011017921753104782 -0.000425268753372954 -0.0011017921753104782 -0.0007870269636921391" pbc="T T T"
Al       4.45370001       0.07421633       1.84211920      -0.25672141      -0.23188549       0.02479167
Al       1.78857196       1.13029398       3.28218825      -0.15823452       0.12622155      -0.05577010
Al       1.77051173       1.14881978       0.36813271      -0.25936065       0.01262097       0.37228969
Al       4.17196245       2.16037660       4.10753645       0.07597964       0.07204659      -0.06408170
Al       0.66525291       4.44865454       3.27905980      -0.17886256      -0.04823373       0.06707910
Al       3.08482499       5.47330234       7.00705897      -0.04422330       0.04463711      -0.21705623
Al       0.65129313       4.44393303       0.38193283       0.04687462      -0.08591045       0.14519617
Al       3.05064685       5.50832022       4.11393054       0.13822882      -0.18444673      -0.05472915
Al       4.14685655       2.16298573       6.98694341       0.23433073       0.12376616       0.07959113
Al       2.83014066       3.37940947       1.83775002      -0.04368882      -0.05499626       0.04913922
Al       0.38774535       6.58674382       5.52855066       0.05168820      -0.15755001       0.02862933
Al       1.99705140       3.24923383       5.53928403       0.05819802       0.09421991      -0.04428706
Ni       2.09264053       5.77294565       1.83357471       0.38289119       0.04909845       0.10217090
Ni       0.28031981       2.44425057       1.87708144       0.05010320       0.12040761      -0.32462357
Ni       2.68232511       0.87056582       5.55154691       0.02393314      -0.25167035      -0.19512591
Ni       4.55020429       4.13020793       5.52325339      -0.12113633       0.37167466       0.08678651
