2
Lattice="2.8361278940568466 0.0 -0.0 -0.0 2.8361278940568466 -0.0 0.0 -0.0 2.8361278940568466" Properties=species:S:1:pos:R:3:forces:R:3 config_id=AlNi_iso_m02 phase=AlNi config_type=iso_m02 source=QE_7.6_PBE dataset_origin=Pilot-25 source_record=Pilot-25:AlNi_iso_m02 original_dataset=/workspace/ni_al/data/processed/ni_al_pilot_dft_25.extxyz original_dataset_sha256=35b2b65fe77d181b5da30dd23bbb7ff9fc4f41c0c0f603738172e2f833ab5b0b provenance=/workspace/ni_al/configs/PILOT25_PROVENANCE.txt qe_output_sha256=historical_not_recorded canonical_input=historical_not_recorded canonical_input_sha256=historical_not_recorded energy=-5209.264458355565 stress="-0.0689940358365476 -0.0 -0.0 -0.0 -0.0689940358365476 -0.0 -0.0 -0.0 -0.0689940358365476" pbc="T T T"
Al       1.41806395       1.41806395       1.41806395       0.00000000       0.00000000       0.00000000
Ni       0.00000000       0.00000000       0.00000000       0.00000000       0.00000000       0.00000000
2
Lattice="2.9518885834474338 0.0 -0.0 -0.0 2.9518885834474338 -0.0 0.0 -0.0 2.9518885834474338" Properties=species:S:1:pos:R:3:forces:R:3 config_id=AlNi_iso_p02 phase=AlNi config_type=iso_p02 source=QE_7.6_PBE dataset_origin=Pilot-25 source_record=Pilot-25:AlNi_iso_p02 original_dataset=/workspace/ni_al/data/processed/ni_al_pilot_dft_25.extxyz original_dataset_sha256=35b2b65fe77d181b5da30dd23bbb7ff9fc4f41c0c0f603738172e2f833ab5b0b provenance=/workspace/ni_al/configs/PILOT25_PROVENANCE.txt qe_output_sha256=historical_not_recorded canonical_input=historical_not_recorded canonical_input_sha256=historical_not_recorded energy=-5209.271144464695 stress="0.05184836053031304 -0.0 -0.0 -0.0 0.05184836053031304 -0.0 -0.0 -0.0 0.05184836053031304" pbc="T T T"
Al       1.47594429       1.47594429       1.47594429       0.00000000       0.00000000       0.00000000
Ni       0.00000000       0.00000000       0.00000000       0.00000000       0.00000000       0.00000000
2
Lattice="2.89400823875214 0.0 -0.0 -0.0 2.89400823875214 -0.0 0.0 -0.0 2.89400823875214" Properties=species:S:1:pos:R:3:forces:R:3 config_id=AlNi_rattle_003 phase=AlNi config_type=rattle_003 source=QE_7.6_PBE dataset_origin=Pilot-25 source_record=Pilot-25:AlNi_rattle_003 original_dataset=/workspace/ni_al/data/processed/ni_al_pilot_dft_25.extxyz original_dataset_sha256=35b2b65fe77d181b5da30dd23bbb7ff9fc4f41c0c0f603738172e2f833ab5b0b provenance=/workspace/ni_al/configs/PILOT25_PROVENANCE.txt qe_output_sha256=historical_not_recorded canonical_input=historical_not_recorded canonical_input_sha256=historical_not_recorded energy=-5209.280878520931 stress="-0.005211462623872088 0.001115561502467334 0.0008189965927579109 0.001115561502467334 -0.003290676892874835 -0.004294223166287836 0.0008189965927579109 -0.004294223166287836 -0.004211588980919885" pbc="T T T"
Al       1.45467932       1.40579952       1.41709570      -0.09073140       0.47654471       0.34958416
Ni       2.88633304       0.04120460       0.02990842       0.09073140      -0.47654471      -0.34958416
2
Lattice="2.89400823875214 0.0 0.0 0.0434101235812821 2.89400823875214 0.0 0.0 0.0 2.89400823875214" Properties=species:S:1:pos:R:3:forces:R:3 config_id=AlNi_shear015_rattle002 phase=AlNi config_type=shear015_rattle002 source=QE_7.6_PBE dataset_origin=Pilot-25 source_record=Pilot-25:AlNi_shear015_rattle002 original_dataset=/workspace/ni_al/data/processed/ni_al_pilot_dft_25.extxyz original_dataset_sha256=35b2b65fe77d181b5da30dd23bbb7ff9fc4f41c0c0f603738172e2f833ab5b0b provenance=/workspace/ni_al/configs/PILOT25_PROVENANCE.txt qe_output_sha256=historical_not_recorded canonical_input=historical_not_recorded canonical_input_sha256=historical_not_recorded energy=-5209.299853971299 stress="-0.0016462566040526168 0.009837140689246925 0.0006188382326444304 0.009837140689246925 -0.0015112874346182976 0.0010880167740113503 0.0006188382326444304 0.0010880167740113503 -0.0017068550066557807" pbc="T T T"
Al       1.48204882       1.46907932       1.43244523      -0.13579153      -0.24293274       0.16786913
Ni       2.92407872       2.87193303       0.01455889       0.13579153       0.24293274      -0.16786913
5
Lattice="3.9640241335997097 0.0 0.0 -1.9820120667998549 3.432944000300689 -0.0 -0.0 -0.0 4.809705078237738" Properties=species:S:1:pos:R:3:forces:R:3 config_id=Al3Ni2_iso_m02 phase=Al3Ni2 config_type=iso_m02 source=QE_7.6_PBE dataset_origin=Pilot-25 source_record=Pilot-25:Al3Ni2_iso_m02 original_dataset=/workspace/ni_al/data/processed/ni_al_pilot_dft_25.extxyz original_dataset_sha256=35b2b65fe77d181b5da30dd23bbb7ff9fc4f41c0c0f603738172e2f833ab5b0b provenance=/workspace/ni_al/configs/PILOT25_PROVENANCE.txt qe_output_sha256=historical_not_recorded canonical_input=historical_not_recorded canonical_input_sha256=historical_not_recorded energy=-10956.400671770292 stress="-0.056211445517740835 -0.0 -0.0 -0.0 -0.056211445517740835 -0.0 -0.0 -0.0 -0.06021002193193444" pbc="T T T"
Al       0.00000000       0.00000000       0.00000000       0.00000000       0.00000000       0.00000000
Al      -0.00000277       2.28863092       3.11433516      -0.00000000       0.00000000      -0.09536247
Al       1.98201365       1.14431348       1.69536952       0.00000000       0.00000000       0.09536247
Ni      -0.00000277       2.28863092       0.70529226      -0.00000000       0.00000000       0.06572768
Ni       1.98201365       1.14431348       4.10441282       0.00000000      -0.00000000      -0.06572768
5
Lattice="4.125821123408222 0.0 0.0 -2.062910561704111 3.5730642383996054 -0.0 -0.0 -0.0 5.006019676055008" Properties=species:S:1:pos:R:3:forces:R:3 config_id=Al3Ni2_iso_p02 phase=Al3Ni2 config_type=iso_p02 source=QE_7.6_PBE dataset_origin=Pilot-25 source_record=Pilot-25:Al3Ni2_iso_p02 original_dataset=/workspace/ni_al/data/processed/ni_al_pilot_dft_25.extxyz original_dataset_sha256=35b2b65fe77d181b5da30dd23bbb7ff9fc4f41c0c0f603738172e2f833ab5b0b provenance=/workspace/ni_al/configs/PILOT25_PROVENANCE.txt qe_output_sha256=historical_not_recorded canonical_input=historical_not_recorded canonical_input_sha256=historical_not_recorded energy=-10956.41587776371 stress="0.04239592788183468 0.0 0.0 0.0 0.04239592788183468 0.0 0.0 0.0 0.045471755892752846" pbc="T T T"
Al       0.00000000       0.00000000       0.00000000      -0.00000000       0.00000000       0.00000000
Al      -0.00000289       2.38204448       3.24145095       0.00000000       0.00000000       0.07051379
Al       2.06291221       1.19102018       1.76456831      -0.00000000       0.00000000      -0.07051379
Ni      -0.00000289       2.38204448       0.73407971      -0.00000000      -0.00000000      -0.05275724
Ni       2.06291221       1.19102018       4.27193997       0.00000000      -0.00000000       0.05275724
5
Lattice="4.044922628503966 0.0 0.0 -2.022461314251983 3.5030041193501473 -0.0 -0.0 -0.0 4.907862377146373" Properties=species:S:1:pos:R:3:forces:R:3 config_id=Al3Ni2_rattle_003 phase=Al3Ni2 config_type=rattle_003 source=QE_7.6_PBE dataset_origin=Pilot-25 source_record=Pilot-25:Al3Ni2_rattle_003 original_dataset=/workspace/ni_al/data/processed/ni_al_pilot_dft_25.extxyz original_dataset_sha256=35b2b65fe77d181b5da30dd23bbb7ff9fc4f41c0c0f603738172e2f833ab5b0b provenance=/workspace/ni_al/configs/PILOT25_PROVENANCE.txt qe_output_sha256=historical_not_recorded canonical_input=historical_not_recorded canonical_input_sha256=historical_not_recorded energy=-10956.48157842554 stress="-0.0011183159753129321 -0.0013643822161863851 0.00043979749768053737 -0.0013643822161863851 0.002915150428258259 0.0006647461134044031 0.00043979749768053737 0.0006647461134044031 -0.0033981013338531705" pbc="T T T"
Al       2.02344463       3.49420520       4.88634582       0.03816520       0.08090876       0.09372031
Al      -0.02426630       2.32622691       3.18934585       0.18239843       0.08224316       0.06540604
Al       2.02504076       1.19389410       1.71369053      -0.02968364      -0.19465076       0.11333706
Ni       0.01174929       2.33096595       0.77654667      -0.07797333       0.05844426      -0.61606589
Ni       2.03141232       1.16372181       4.15765786      -0.11290665      -0.02694542       0.34360248
5
Lattice="4.044922628503966 0.0 0.0 -1.9699177693077163 3.5030041193501473 0.0 0.0 0.0 4.907862377146373" Properties=species:S:1:pos:R:3:forces:R:3 config_id=Al3Ni2_shear015_rattle002 phase=Al3Ni2 config_type=shear015_rattle002 source=QE_7.6_PBE dataset_origin=Pilot-25 source_record=Pilot-25:Al3Ni2_shear015_rattle002 original_dataset=/workspace/ni_al/data/processed/ni_al_pilot_dft_25.extxyz original_dataset_sha256=35b2b65fe77d181b5da30dd23bbb7ff9fc4f41c0c0f603738172e2f833ab5b0b provenance=/workspace/ni_al/configs/PILOT25_PROVENANCE.txt qe_output_sha256=historical_not_recorded canonical_input=historical_not_recorded canonical_input_sha256=historical_not_recorded energy=-10956.47934015316 stress="0.0013405101181911995 0.009030998303101808 -0.0016251389789030295 0.009030998303101808 -0.001904258893923663 -0.0010595538879401673 -0.0016251389789030295 -0.0010595538879401673 -0.0026470484046200193" pbc="T T T"
Al      -0.00557593       0.01172219       0.01210767       0.04439267      -0.25082191      -0.04685758
Al       0.05198818       2.35638303       3.20205095      -0.12850039      -0.11720528      -0.29618800
Al       2.04004742       1.17018803       1.73326189       0.01499236      -0.03282656      -0.18687703
Ni       0.00697426       2.30073541       0.72231801       0.21357254       0.32426136       0.03685522
Ni       2.05657700       1.16698081       4.14598623      -0.14445717       0.07659265       0.49306740
4
Lattice="3.495915562621792 0.0 -0.0 0.0 3.4960379196664837 0.0 0.0 0.0 3.4960379196664837" Properties=species:S:1:pos:R:3:forces:R:3 config_id=AlNi3_iso_m02 phase=AlNi3 config_type=iso_m02 source=QE_7.6_PBE dataset_origin=Pilot-25 source_record=Pilot-25:AlNi3_iso_m02 original_dataset=/workspace/ni_al/data/processed/ni_al_pilot_dft_25.extxyz original_dataset_sha256=35b2b65fe77d181b5da30dd23bbb7ff9fc4f41c0c0f603738172e2f833ab5b0b provenance=/workspace/ni_al/configs/PILOT25_PROVENANCE.txt qe_output_sha256=historical_not_recorded canonical_input=historical_not_recorded canonical_input_sha256=historical_not_recorded energy=-14550.746648508584 stress="-0.07939584345914219 -0.0 -0.0 -0.0 -0.079371971361147 -0.0 -0.0 -0.0 -0.079371971361147" pbc="T T T"
Al       0.00000000       0.00000000       0.00000000       0.00000000       0.00000000       0.00000000
Ni       0.00000000       1.74801861       1.74801826       0.00000000       0.00000000       0.00000000
Ni       1.74795778       0.00000000       1.74801826       0.00000000       0.00000000       0.00000000
Ni       1.74795778       1.74801861       0.00000000       0.00000000       0.00000000       0.00000000
4
Lattice="3.6386060801454914 0.0 -0.0 0.0 3.6387334313582964 0.0 0.0 0.0 3.6387334313582964" Properties=species:S:1:pos:R:3:forces:R:3 config_id=AlNi3_iso_p02 phase=AlNi3 config_type=iso_p02 source=QE_7.6_PBE dataset_origin=Pilot-25 source_record=Pilot-25:AlNi3_iso_p02 original_dataset=/workspace/ni_al/data/processed/ni_al_pilot_dft_25.extxyz original_dataset_sha256=35b2b65fe77d181b5da30dd23bbb7ff9fc4f41c0c0f603738172e2f833ab5b0b provenance=/workspace/ni_al/configs/PILOT25_PROVENANCE.txt qe_output_sha256=historical_not_recorded canonical_input=historical_not_recorded canonical_input_sha256=historical_not_recorded energy=-14550.762379273538 stress="0.05886675734089765 -0.0 -0.0 -0.0 0.05888512049320164 -0.0 -0.0 -0.0 0.05888512049320164" pbc="T T T"
Al       0.00000000       0.00000000       0.00000000       0.00000000       0.00000000       0.00000000
Ni       0.00000000       1.81936635       1.81936599       0.00000000       0.00000000       0.00000000
Ni       1.81930304       0.00000000       1.81936599       0.00000000       0.00000000       0.00000000
Ni       1.81930304       1.81936635       0.00000000       0.00000000       0.00000000       0.00000000
4
Lattice="3.5672608213836416 0.0 -0.0 0.0 3.5673856755123903 0.0 0.0 0.0 3.5673856755123903" Properties=species:S:1:pos:R:3:forces:R:3 config_id=AlNi3_rattle_003 phase=AlNi3 config_type=rattle_003 source=QE_7.6_PBE dataset_origin=Pilot-25 source_record=Pilot-25:AlNi3_rattle_003 original_dataset=/workspace/ni_al/data/processed/ni_al_pilot_dft_25.extxyz original_dataset_sha256=35b2b65fe77d181b5da30dd23bbb7ff9fc4f41c0c0f603738172e2f833ab5b0b provenance=/workspace/ni_al/configs/PILOT25_PROVENANCE.txt qe_output_sha256=historical_not_recorded canonical_input=historical_not_recorded canonical_input_sha256=historical_not_recorded energy=-14550.816738366631 stress="-0.0025074884471097026 -0.00048570537844050995 0.0001083425985935353 -0.00048570537844050995 -0.002376191908136181 0.0010898530892417492 0.0001083425985935353 0.0010898530892417492 -0.002513915550416099" pbc="T T T"
Al       0.01582473       0.03575965       3.54666310      -0.17973142      -0.47462333       0.28484326
Ni       3.56598160       1.75521040       1.80738551      -0.05966245       0.44281004      -0.32977535
Ni       1.77732100       0.01276223       1.78990915       0.11050293      -0.33482037      -0.17284704
Ni       1.77539432       1.76365304       3.55819534       0.12889094       0.36663365       0.21777912
4
Lattice="3.5672608213836416 0.0 0.0 0.05351247958157601 3.5673856755123903 0.0 0.0 0.0 3.5673856755123903" Properties=species:S:1:pos:R:3:forces:R:3 config_id=AlNi3_shear015_rattle002 phase=AlNi3 config_type=shear015_rattle002 source=QE_7.6_PBE dataset_origin=Pilot-25 source_record=Pilot-25:AlNi3_shear015_rattle002 original_dataset=/workspace/ni_al/data/processed/ni_al_pilot_dft_25.extxyz original_dataset_sha256=35b2b65fe77d181b5da30dd23bbb7ff9fc4f41c0c0f603738172e2f833ab5b0b provenance=/workspace/ni_al/configs/PILOT25_PROVENANCE.txt qe_output_sha256=historical_not_recorded canonical_input=historical_not_recorded canonical_input_sha256=historical_not_recorded energy=-14550.80912053972 stress="-0.002769163367441546 0.013781545804143768 0.0002148488819566717 0.013781545804143768 -0.0026883654973039947 -0.0004205161877613489 0.0002148488819566717 -0.0004205161877613489 -0.002853633868039896" pbc="T T T"
Al       3.56663370       0.03287052       0.02936070       0.00910968      -0.39743521      -0.17101847
Ni       0.02856769       1.74820287       1.79947262      -0.03527708       0.45651814      -0.19392494
Ni       1.75262628       0.00042736       1.77819533       0.29719253      -0.17872921      -0.00701500
Ni       1.84020467       1.78588456       3.52773985      -0.27102538       0.11964603       0.37195841
8
Lattice="3.687060191228383 0.0 0.0 0.0 4.88169718966791 -0.5406668193815388 0.0 -0.013553633262955537 4.911529193675138" Properties=species:S:1:pos:R:3:forces:R:3 config_id=Al3Ni5_iso_m02 phase=Al3Ni5 config_type=iso_m02 source=QE_7.6_PBE dataset_origin=Pilot-25 source_record=Pilot-25:Al3Ni5_iso_m02 original_dataset=/workspace/ni_al/data/processed/ni_al_pilot_dft_25.extxyz original_dataset_sha256=35b2b65fe77d181b5da30dd23bbb7ff9fc4f41c0c0f603738172e2f833ab5b0b provenance=/workspace/ni_al/configs/PILOT25_PROVENANCE.txt qe_output_sha256=historical_not_recorded canonical_input=historical_not_recorded canonical_input_sha256=historical_not_recorded energy=-24969.43088902333 stress="-0.07474537513815696 -0.0 -0.0 -0.0 -0.073028420397734 -0.00011936048997592872 -0.0 -0.00011936048997592872 -0.0730017938268932" pbc="T T T"
Al       0.00000000       2.43407215       2.18543008       0.00000000       0.00000000       0.00000000
Al       1.84353010       1.06587380       3.70930128       0.00000000       0.04835294      -0.05385304
Al       1.84353010       3.80227013       0.66155926       0.00000000      -0.04835294       0.05385304
Ni       0.00000000       0.00000000       0.00000000       0.00000000       0.00000000       0.00000000
Ni       0.00000000       2.44084896      -0.27033415       0.00000000       0.00000000       0.00000000
Ni       0.00000000      -0.00677682       2.45576460       0.00000000       0.00000000       0.00000000
Ni       1.84353010       1.34563944       1.20819837       0.00000000      -0.00072788      -0.00082995
Ni       1.84353010       3.52250448       3.16266216       0.00000000       0.00072788       0.00082995
8
Lattice="3.8375528975120465 0.0 0.0 0.0 5.08095073672913 -0.5627349193382689 0.0 -0.014106844451254283 5.112000377222899" Properties=species:S:1:pos:R:3:forces:R:3 config_id=Al3Ni5_iso_p02 phase=Al3Ni5 config_type=iso_p02 source=QE_7.6_PBE dataset_origin=Pilot-25 source_record=Pilot-25:Al3Ni5_iso_p02 original_dataset=/workspace/ni_al/data/processed/ni_al_pilot_dft_25.extxyz original_dataset_sha256=35b2b65fe77d181b5da30dd23bbb7ff9fc4f41c0c0f603738172e2f833ab5b0b provenance=/workspace/ni_al/configs/PILOT25_PROVENANCE.txt qe_output_sha256=historical_not_recorded canonical_input=historical_not_recorded canonical_input_sha256=historical_not_recorded energy=-24969.461407950905 stress="0.055514563887804444 -0.0 -0.0 -0.0 0.05431085925427797 0.00014782337604711171 -0.0 0.00014782337604711171 0.054279641895361185" pbc="T T T"
Al       0.00000000       2.53342233       2.27463158       0.00000000       0.00000000       0.00000000
Al       1.91877645       1.10937898       3.86070178       0.00000000      -0.04148141       0.04619244
Al       1.91877645       3.95746530       0.68856176       0.00000000       0.04148141      -0.04619244
Ni       0.00000000       0.00000000       0.00000000       0.00000000       0.00000000       0.00000000
Ni       0.00000000       2.54047575      -0.28136823       0.00000000       0.00000000       0.00000000
Ni       0.00000000      -0.00705342       2.55600019       0.00000000       0.00000000       0.00000000
Ni       1.91877645       1.40056367       1.25751274       0.00000000       0.00803110       0.00704302
Ni       1.91877645       3.66628061       3.29175080       0.00000000      -0.00803110      -0.00704302
8
Lattice="3.762306544370215 0.0 0.0 0.0 4.98132396319852 -0.5517008693599039 0.0 -0.01383023885710491 5.011764785449018" Properties=species:S:1:pos:R:3:forces:R:3 config_id=Al3Ni5_rattle_003 phase=Al3Ni5 config_type=rattle_003 source=QE_7.6_PBE dataset_origin=Pilot-25 source_record=Pilot-25:Al3Ni5_rattle_003 original_dataset=/workspace/ni_al/data/processed/ni_al_pilot_dft_25.extxyz original_dataset_sha256=35b2b65fe77d181b5da30dd23bbb7ff9fc4f41c0c0f603738172e2f833ab5b0b provenance=/workspace/ni_al/configs/PILOT25_PROVENANCE.txt qe_output_sha256=historical_not_recorded canonical_input=historical_not_recorded canonical_input_sha256=historical_not_recorded energy=-24969.569102172714 stress="-0.003136426413521327 0.00015149600650790954 -0.0003452272633149938 0.00015149600650790954 -0.0008529684245202907 -0.000827260011294706 -0.0003452272633149938 -0.000827260011294706 -0.0031382627287517262" pbc="T T T"
Al       0.00620254       2.50336503       2.20835167      -0.03303713      -0.27545025       0.07757198
Al       1.90481103       1.05572730       3.78130845      -0.30887974       0.25683032       0.01226236
Al       1.90593860       3.84240831       0.63142114      -0.33117891       0.35269159       0.42572198
Ni       3.73795991       0.04373606       0.03741238       0.32958534      -0.16598322      -0.11674557
Ni       3.74479715       2.51255108       4.71647414       0.24215601      -0.27689007       0.00915184
Ni       3.75194854       4.95581816       1.98587482       0.17089069       0.13928411      -0.19168808
Ni       1.89113542       1.37316702       1.23637068      -0.12588018      -0.05257623       0.04472511
Ni       1.86873917       3.58320420       3.24303488       0.05634418       0.02209400      -0.26099962
8
Lattice="3.762306544370215 0.0 0.0 0.07471940797119246 4.98132396319852 -0.5517008693599039 -0.00020692685994036183 -0.01383023885710491 5.011764785449018" Properties=species:S:1:pos:R:3:forces:R:3 config_id=Al3Ni5_shear015_rattle002 phase=Al3Ni5 config_type=shear015_rattle002 source=QE_7.6_PBE dataset_origin=Pilot-25 source_record=Pilot-25:Al3Ni5_shear015_rattle002 original_dataset=/workspace/ni_al/data/processed/ni_al_pilot_dft_25.extxyz original_dataset_sha256=35b2b65fe77d181b5da30dd23bbb7ff9fc4f41c0c0f603738172e2f833ab5b0b provenance=/workspace/ni_al/configs/PILOT25_PROVENANCE.txt qe_output_sha256=historical_not_recorded canonical_input=historical_not_recorded canonical_input_sha256=historical_not_recorded energy=-24969.568178074118 stress="-0.0016728831748934008 0.009453350806093556 0.0006417921730244167 0.009453350806093556 -0.0018684507469308841 0.0006610734829436052 0.0006417921730244167 0.0006610734829436052 -0.00120554094875688" pbc="T T T"
Al       3.77404569       2.46072945       2.22441446       0.33483991       0.18513923       0.03060590
Al       1.88115779       1.12386906       3.78135585       0.16063815      -0.20917338       0.13890745
Al       1.95821773       3.86401448       0.69320047      -0.17440307       0.17781544      -0.08742496
Ni       0.07999228       4.91227059       4.45221499      -0.03885580       0.67011202       0.07114577
Ni       3.79919333       2.49952033       4.71336647       0.00699597      -0.41299193       0.17407217
Ni       0.08501985       4.95786260       1.96238523      -0.06986510       0.10438010      -0.06831652
Ni       1.90787468       1.39012599       1.24491187      -0.09544861      -0.29675416      -0.20358226
Ni       1.93628762       3.62907838       3.22846045      -0.12390120      -0.21852783      -0.05540702
16
Lattice="4.728994768337464 0.0 0.0 0.0 6.490573693511779 0.0 0.0 0.0 7.2348418061318025" Properties=species:S:1:pos:R:3:forces:R:3 config_id=Al3Ni_iso_m02 phase=Al3Ni config_type=iso_m02 source=QE_7.6_PBE dataset_origin=Pilot-25 source_record=Pilot-25:Al3Ni_iso_m02 original_dataset=/workspace/ni_al/data/processed/ni_al_pilot_dft_25.extxyz original_dataset_sha256=35b2b65fe77d181b5da30dd23bbb7ff9fc4f41c0c0f603738172e2f833ab5b0b provenance=/workspace/ni_al/configs/PILOT25_PROVENANCE.txt qe_output_sha256=historical_not_recorded canonical_input=historical_not_recorded canonical_input_sha256=historical_not_recorded energy=-25137.850931275556 stress="-0.04783784806712183 0.0 -0.0 0.0 -0.04919121239192583 -0.0 -0.0 -0.0 -0.050852159517821634" pbc="T T T"
Al       4.33187791       0.04872662       1.80871092      -0.01258375       0.02310136      -0.00000000
Al       1.72182368       1.11197110       3.21767756       0.01676873       0.03554190       0.00559189
Al       1.72182368       1.11197110       0.39974429       0.01676873       0.03554190      -0.00559189
Al       4.08632249       2.13331622       4.01716472       0.01676873      -0.03554190      -0.00559189
Al       0.64267370       4.35725606       3.21767898      -0.01676873       0.03554190       0.00559189
Al       3.00717250       5.37860117       6.83509941      -0.01676873      -0.03554190       0.00559189
Al       0.64267370       4.35725606       0.39974287      -0.01676873       0.03554190      -0.00559189
Al       3.00717250       5.37860117       4.01716567      -0.01676873      -0.03554190      -0.00559189
Al       4.08632249       2.13331622       6.83510035       0.01676873      -0.03554190       0.00559189
Al       2.76161472       3.29401110       1.80871092       0.01258375       0.02310136       0.00000000
Al       0.39711828       6.44184566       5.42613277       0.01258375      -0.02310136      -0.00000000
Al       1.96738147       3.19656118       5.42613277      -0.01258375      -0.02310136       0.00000000
Ni       2.09528139       5.64911386       1.80871092       0.01159953       0.02166232       0.00000000
Ni       0.26921694       2.40382701       1.80871092      -0.01159953       0.02166232       0.00000000
Ni       2.63371480       0.84145841       5.42613277      -0.01159953      -0.02166232       0.00000000
Ni       4.45977924       4.08674526       5.42613277       0.01159953      -0.02166232       0.00000000
16
Lattice="4.92201480097046 0.0 0.0 0.0 6.755494846420762 0.0 0.0 0.0 7.530141223856696" Properties=species:S:1:pos:R:3:forces:R:3 config_id=Al3Ni_iso_p02 phase=Al3Ni config_type=iso_p02 source=QE_7.6_PBE dataset_origin=Pilot-25 source_record=Pilot-25:Al3Ni_iso_p02 original_dataset=/workspace/ni_al/data/processed/ni_al_pilot_dft_25.extxyz original_dataset_sha256=35b2b65fe77d181b5da30dd23bbb7ff9fc4f41c0c0f603738172e2f833ab5b0b provenance=/workspace/ni_al/configs/PILOT25_PROVENANCE.txt qe_output_sha256=historical_not_recorded canonical_input=historical_not_recorded canonical_input_sha256=historical_not_recorded energy=-25137.891685084887 stress="0.036009223510507296 -0.0 -0.0 -0.0 0.03739105072138247 -0.0 -0.0 -0.0 0.03842214172325145" pbc="T T T"
Al       4.50868910       0.05071546       1.88253580       0.00883045      -0.01882922       0.00000000
Al       1.79210214       1.15735764       3.34901122      -0.01718011      -0.02311370      -0.00683451
Al       1.79210214       1.15735764       0.41606037      -0.01718011      -0.02311370       0.00683451
Al       4.25311102       2.22039028       4.18113049      -0.01718011       0.02311370       0.00683451
Al       0.66890526       4.53510309       3.34901270       0.01718011      -0.02311370      -0.00683451
Al       3.12991413       5.59813573       7.11408282       0.01718011       0.02311370      -0.00683451
Al       0.66890526       4.53510309       0.41605890       0.01718011      -0.02311370       0.00683451
Al       3.12991413       5.59813573       4.18113148       0.01718011       0.02311370       0.00683451
Al       4.25311102       2.22039028       7.11408380      -0.01718011       0.02311370      -0.00683451
Al       2.87433359       3.42846042       1.88253580      -0.00883045      -0.01882896       0.00000000
Al       0.41332718       6.70477791       5.64760739      -0.00883045       0.01882922       0.00000000
Al       2.04768268       3.32703295       5.64760739       0.00883045       0.01882896       0.00000000
Ni       2.18080300       5.87968974       1.88253580      -0.00690367      -0.01875851      -0.00000000
Ni       0.28020538       2.50194232       1.88253580       0.00690367      -0.01875851       0.00000000
Ni       2.74121327       0.87580363       5.64760739       0.00690367       0.01875851      -0.00000000
Ni       4.64181090       4.25355105       5.64760739      -0.00690367       0.01875851       0.00000000
16
Lattice="4.8255045200653575 0.0 0.0 0.0 6.623033906816824 0.0 0.0 0.0 7.38249111020279" Properties=species:S:1:pos:R:3:forces:R:3 config_id=Al3Ni_rattle_003 phase=Al3Ni config_type=rattle_003 source=QE_7.6_PBE dataset_origin=Pilot-25 source_record=Pilot-25:Al3Ni_rattle_003 original_dataset=/workspace/ni_al/data/processed/ni_al_pilot_dft_25.extxyz original_dataset_sha256=35b2b65fe77d181b5da30dd23bbb7ff9fc4f41c0c0f603738172e2f833ab5b0b provenance=/workspace/ni_al/configs/PILOT25_PROVENANCE.txt qe_output_sha256=historical_not_recorded canonical_input=historical_not_recorded canonical_input_sha256=historical_not_recorded energy=-25138.049826355193 stress="0.00013221469658872105 0.0012606304056688473 0.00025524781702544757 0.0012606304056688473 -0.002835270715735907 -0.0005123319492812941 0.00025524781702544757 -0.0005123319492812941 -0.0013102109168896176" pbc="T T T"
Al       4.43548070       0.04476814       1.83546027      -0.19585070       0.01405288      -0.01739737
Al       1.71472276       1.14160242       3.33296970       0.24411133       0.05262303      -0.18080717
Al       1.72342797       1.10595352       0.44161908       0.45516316       0.12289745      -0.36208769
Al       4.16164587       2.18697800       4.09145119      -0.10704377      -0.03571082      -0.11735518
Al       0.63666452       4.49077568       3.29703079       0.17111000      -0.19092086      -0.24222929
Al       3.02448147       5.45746562       6.95687775       0.36503803      -0.02370583       0.00280842
Al       0.66304169       4.40866152       0.40075670      -0.13026417       0.22795349       0.02091464
Al       3.04649494       5.53466742       4.09395176       0.25093118      -0.36063399       0.04437133
Al       4.18093293       2.18285364       6.94166728      -0.05974267      -0.11506972       0.24000040
Al       2.83398840       3.39980776       1.80437147       0.05506814      -0.24845213       0.18485538
Al       0.41372139       6.60309830       5.56028988      -0.19581779      -0.27118556      -0.01863098
Al       2.01062463       3.23564844       5.58240758       0.04629837      -0.02895036      -0.21878725
Ni       2.13553233       5.79012336       1.83531116      -0.01229836      -0.22476661       0.14816856
Ni       0.32757986       2.43987497       1.83224600      -0.49104959       0.30693752       0.17098890
Ni       2.70744727       0.81332962       5.55372092      -0.07806692       0.44475508       0.02610647
Ni       4.58826100       4.14865079       5.49981087      -0.31758652       0.33017618       0.31908033
16
Lattice="4.8255045200653575 0.0 0.0 0.09934748705910558 6.623033906816824 0.0 0.0 0.0 7.38249111020279" Properties=species:S:1:pos:R:3:forces:R:3 config_id=Al3Ni_shear015_rattle002 phase=Al3Ni config_type=shear015_rattle002 source=QE_7.6_PBE dataset_origin=Pilot-25 source_record=Pilot-25:Al3Ni_shear015_rattle002 original_dataset=/workspace/ni_al/data/processed/ni_al_pilot_dft_25.extxyz original_dataset_sha256=35b2b65fe77d181b5da30dd23bbb7ff9fc4f41c0c0f603738172e2f833ab5b0b provenance=/workspace/ni_al/configs/PILOT25_PROVENANCE.txt qe_output_sha256=historical_not_recorded canonical_input=historical_not_recorded canonical_input_sha256=historical_not_recorded energy=-25138.110185558427 stress="0.0014681340267039234 0.00626275309327546 -0.0005582398300412666 0.00626275309327546 -0.0029959482983958107 -0.0008851039410522714 -0.0005582398300412666 -0.0008851039410522714 -0.0006987179451667827" pbc="T T T"
Al       4.43312296       0.03018208       1.86979566      -0.12437789       0.07280953      -0.07994588
Al       1.80910191       1.14591931       3.27190728      -0.09034445       0.06013219       0.13443167
Al       1.76880991       1.13461702       0.42085975       0.07441544      -0.03756947      -0.08485463
Al       4.22220595       2.20933746       4.10223619      -0.14677142      -0.23409817      -0.03627158
Al       0.70436731       4.43273258       3.26205698       0.10516275       0.09205835       0.04644878
Al       3.15816676       5.45493609       6.95094769      -0.13025543       0.21246954       0.26250526
Al       0.72087295       4.42142111       0.38663100       0.10907751       0.16450946       0.14467777
Al       3.11955838       5.47711266       4.11912690       0.06293829       0.03695112      -0.08049070
Al       4.20410934       2.19781271       6.95170674       0.01374435      -0.11028953       0.23498006
Al       2.84729956       3.34834134       1.83055128       0.04113714       0.10994886       0.03266715
Al       0.51093166       6.61321883       5.55218497      -0.06486688      -0.22335842      -0.10590657
Al       2.06877630       3.25132747       5.57000652      -0.10389545       0.07612342      -0.17753879
Ni       2.20414039       5.77579981       1.85201705       0.12486177      -0.19740724      -0.10009382
Ni       0.28992596       2.45218821       1.84321389       0.08459032      -0.07700377      -0.05045661
Ni       2.70893256       0.88388670       5.56512166       0.02365955      -0.24177343      -0.27006045
Ni       4.62849027       4.15542531       5.51157835       0.02092492       0.29649756       0.12990782
2
Lattice="2.89400823875214 0.0 -0.0 -0.0 2.89400823875214 -0.0 0.0 -0.0 2.89400823875214" Properties=species:S:1:pos:R:3:forces:R:3 config_id=AlNi_relaxed phase=AlNi config_type=relaxed source=QE_7.6_PBE dataset_origin=Pilot-25 source_record=Pilot-25:AlNi_relaxed original_dataset=/workspace/ni_al/data/processed/ni_al_pilot_dft_25.extxyz original_dataset_sha256=35b2b65fe77d181b5da30dd23bbb7ff9fc4f41c0c0f603738172e2f833ab5b0b provenance=/workspace/ni_al/configs/PILOT25_PROVENANCE.txt qe_output_sha256=historical_not_recorded canonical_input=historical_not_recorded canonical_input_sha256=historical_not_recorded energy=-5209.311410373913 stress="-8.630681582874845e-05 -0.0 -0.0 -0.0 -8.630681582874845e-05 -0.0 -0.0 -0.0 -8.630681582874845e-05" pbc="T T T"
Al       1.44700412       1.44700412       1.44700412       0.00000000       0.00000000       0.00000000
Ni       0.00000000       0.00000000       0.00000000       0.00000000       0.00000000       0.00000000
5
Lattice="4.044922628503966 0.0 0.0 -2.022461314251983 3.5030041193501473 -0.0 -0.0 -0.0 4.907862377146373" Properties=species:S:1:pos:R:3:forces:R:3 config_id=Al3Ni2_relaxed phase=Al3Ni2 config_type=relaxed source=QE_7.6_PBE dataset_origin=Pilot-25 source_record=Pilot-25:Al3Ni2_relaxed original_dataset=/workspace/ni_al/data/processed/ni_al_pilot_dft_25.extxyz original_dataset_sha256=35b2b65fe77d181b5da30dd23bbb7ff9fc4f41c0c0f603738172e2f833ab5b0b provenance=/workspace/ni_al/configs/PILOT25_PROVENANCE.txt qe_output_sha256=historical_not_recorded canonical_input=historical_not_recorded canonical_input_sha256=historical_not_recorded energy=-10956.512625390018 stress="-7.345260921595614e-06 -0.0 0.0 -0.0 -7.345260921595614e-06 0.0 0.0 0.0 -4.6826038375172033e-05" pbc="T T T"
Al       0.00000000       0.00000000       0.00000000       0.00000000      -0.00000000       0.00000000
Al      -0.00000283       2.33533770       3.17789306      -0.00000000      -0.00000000      -0.00204994
Al       2.02246293       1.16766683       1.72996891      -0.00000000      -0.00000000       0.00204994
Ni      -0.00000283       2.33533770       0.71968598       0.00000000       0.00000000      -0.00243509
Ni       2.02246293       1.16766683       4.18817639       0.00000000       0.00000000       0.00243509
4
Lattice="3.5672608213836416 0.0 -0.0 0.0 3.5673856755123903 0.0 0.0 0.0 3.5673856755123903" Properties=species:S:1:pos:R:3:forces:R:3 config_id=AlNi3_relaxed phase=AlNi3 config_type=relaxed source=QE_7.6_PBE dataset_origin=Pilot-25 source_record=Pilot-25:AlNi3_relaxed original_dataset=/workspace/ni_al/data/processed/ni_al_pilot_dft_25.extxyz original_dataset_sha256=35b2b65fe77d181b5da30dd23bbb7ff9fc4f41c0c0f603738172e2f833ab5b0b provenance=/workspace/ni_al/configs/PILOT25_PROVENANCE.txt qe_output_sha256=historical_not_recorded canonical_input=historical_not_recorded canonical_input_sha256=historical_not_recorded energy=-14550.847840706278 stress="-0.00011476970189993147 -0.0 -0.0 -0.0 -9.365207675034407e-05 -0.0 -0.0 -0.0 -9.365207675034407e-05" pbc="T T T"
Al       0.00000000       0.00000000       0.00000000       0.00000000       0.00000000       0.00000000
Ni       0.00000000       1.78369248       1.78369212       0.00000000       0.00000000       0.00000000
Ni       1.78363041       0.00000000       1.78369212       0.00000000       0.00000000       0.00000000
Ni       1.78363041       1.78369248       0.00000000       0.00000000       0.00000000       0.00000000
8
Lattice="3.762306544370215 0.0 0.0 0.0 4.98132396319852 -0.5517008693599039 0.0 -0.01383023885710491 5.011764785449018" Properties=species:S:1:pos:R:3:forces:R:3 config_id=Al3Ni5_relaxed phase=Al3Ni5 config_type=relaxed source=QE_7.6_PBE dataset_origin=Pilot-25 source_record=Pilot-25:Al3Ni5_relaxed original_dataset=/workspace/ni_al/data/processed/ni_al_pilot_dft_25.extxyz original_dataset_sha256=35b2b65fe77d181b5da30dd23bbb7ff9fc4f41c0c0f603738172e2f833ab5b0b provenance=/workspace/ni_al/configs/PILOT25_PROVENANCE.txt qe_output_sha256=historical_not_recorded canonical_input=historical_not_recorded canonical_input_sha256=historical_not_recorded energy=-24969.625439533414 stress="-0.0003277822686262043 -0.0 -0.0 -0.0 -0.00020933993626547502 -1.9281309919188485e-05 -0.0 -1.9281309919188485e-05 -0.00020474914818947773" pbc="T T T"
Al       0.00000000       2.48374724       2.23003083       0.00000000       0.00000000       0.00000000
Al       1.88115327       1.08762639       3.78500153      -0.00000000      -0.00043632       0.00048800
Al       1.88115327       3.87986771       0.67506051      -0.00000000       0.00043632      -0.00048800
Ni       0.00000000       0.00000000       0.00000000       0.00000000       0.00000000       0.00000000
Ni       0.00000000       2.49066236      -0.27585119       0.00000000       0.00000000       0.00000000
Ni       0.00000000      -0.00691512       2.50588239       0.00000000       0.00000000       0.00000000
Ni       1.88115327       1.37310155       1.23285556       0.00000000       0.00173498       0.00147144
Ni       1.88115327       3.59439255       3.22720648       0.00000000      -0.00173498      -0.00147144
16
Lattice="4.8255045200653575 0.0 0.0 0.0 6.623033906816824 0.0 0.0 0.0 7.38249111020279" Properties=species:S:1:pos:R:3:forces:R:3 config_id=Al3Ni_relaxed phase=Al3Ni config_type=relaxed source=QE_7.6_PBE dataset_origin=Pilot-25 source_record=Pilot-25:Al3Ni_relaxed original_dataset=/workspace/ni_al/data/processed/ni_al_pilot_dft_25.extxyz original_dataset_sha256=35b2b65fe77d181b5da30dd23bbb7ff9fc4f41c0c0f603738172e2f833ab5b0b provenance=/workspace/ni_al/configs/PILOT25_PROVENANCE.txt qe_output_sha256=historical_not_recorded canonical_input=historical_not_recorded canonical_input_sha256=historical_not_recorded energy=-25138.175258317573 stress="8.17160277527512e-05 -0.0 -0.0 -0.0 0.00016985915881189857 -0.0 -0.0 -0.0 7.253445160075668e-05" pbc="T T T"
Al       4.42028326       0.04972103       1.84562326       0.00048594      -0.00016069       0.00000000
Al       1.75696282       1.13466431       3.28334421      -0.00245412       0.00241992      -0.00121793
Al       1.75696282       1.13466431       0.40790231      -0.00245412       0.00241992       0.00121793
Al       4.16971653       2.17685313       4.09914738      -0.00245412      -0.00241992       0.00121793
Al       0.65578944       4.44617933       3.28334566       0.00245412       0.00241992      -0.00121793
Al       3.06854315       5.48836815       6.97459073       0.00245412      -0.00241992      -0.00121793
Al       0.65578944       4.44617933       0.40790086       0.00245412       0.00241992       0.00121793
Al       3.06854315       5.48836815       4.09914835       0.00245412      -0.00241992       0.00121793
Al       4.16971653       2.17685313       6.97459170      -0.00245412      -0.00241992      -0.00121793
Al       2.81797400       3.36123557       1.84562326      -0.00048594      -0.00016069       0.00000000
Al       0.40522271       6.57331143       5.53686978      -0.00048594       0.00016069       0.00000000
Al       2.00753197       3.26179689       5.53686978       0.00048594       0.00016069       0.00000000
Ni       2.13804208       5.76440149       1.84562326       0.00047283      -0.00132900       0.00000000
Ni       0.27471115       2.45288453       1.84562326      -0.00047283      -0.00132900       0.00000000
Ni       2.68746389       0.85863097       5.53686978      -0.00047283       0.00132900      -0.00000000
Ni       4.55079482       4.17014793       5.53686978       0.00047283       0.00132900       0.00000000
16
Lattice="4.777249471803178 0.0 0.0 0.0 6.55680356354663 0.0 0.0 0.0 7.308666194416749" Properties=species:S:1:pos:R:3:forces:R:3 config_id=cfg026_Al3Ni_iso_compression phase=Al3Ni config_type=iso_compression source=QE_7.6_PBE provenance=/workspace/ni_al/data/expansion_026_100/production_gpu/chunk_01/cfg026_Al3Ni_iso_compression/attempt_001/qe.out qe_output_sha256=4e103a125b15148c4c2633d61085cadf128748bec421b818510a91f00f153ed5 canonical_input=/workspace/ni_al/data/expansion_026_100/qe_inputs/cfg026_Al3Ni_iso_compression.in canonical_input_sha256=ead454c58ff9d66466f61eea864a1912984198de9d8076b2da41b3ad9c128b69 dataset_origin=Expansion-75 source_record=Expansion-75:4e103a125b15148c4c2633d61085cadf128748bec421b818510a91f00f153ed5 original_dataset=/workspace/ni_al/data/processed/ni_al_expansion_dft_75.extxyz original_dataset_sha256=ff69c2bfed14bfcf48931949647d8f1b3c9353a89c20378c9113155940792137 energy=-25138.09895571401 stress="-0.02218172943263519 -0.0 -0.0 -0.0 -0.02279696120987891 -0.0 -0.0 -0.0 -0.023614594886247328" pbc="T T T"
Al       4.37608042       0.04922382       1.82716703      -0.00538893       0.01091477       0.00000000
Al       1.73939319       1.12331767       3.25051077       0.00655798       0.01791264       0.00196170
Al       1.73939319       1.12331767       0.40382329       0.00655798       0.01791264      -0.00196170
Al       4.12801936       2.15508460       4.05815590       0.00655798      -0.01791264      -0.00196170
Al       0.64923155       4.40171753       3.25051220      -0.00655798       0.01791264       0.00196170
Al       3.03785772       5.43348447       6.90484482      -0.00655798      -0.01791264       0.00196170
Al       0.64923155       4.40171753       0.40382185      -0.00655798       0.01791264      -0.00196170
Al       3.03785772       5.43348447       4.05815686      -0.00655798      -0.01791264      -0.00196170
Al       4.12801936       2.15508460       6.90484578       0.00655798      -0.01791264       0.00196170
Al       2.78979426       3.32762321       1.82716703       0.00538893       0.01091477       0.00000000
Al       0.40117048       6.50757831       5.48150108       0.00538893      -0.01091477       0.00000000
Al       1.98745665       3.22917892       5.48150108      -0.00538893      -0.01091477       0.00000000
Ni       2.11666166       5.70675747       1.82716703       0.00550345       0.00942830       0.00000000
Ni       0.27196404       2.42835568       1.82716703      -0.00550345       0.00942830       0.00000000
Ni       2.66058925       0.85004466       5.48150108      -0.00550345      -0.00942830       0.00000000
Ni       4.50528687       4.12844645       5.48150108       0.00550345      -0.00942830       0.00000000
16
Lattice="4.873759562142323 0.0 0.0 0.0 6.689264241597737 0.0 0.0 0.0 7.456316016526118" Properties=species:S:1:pos:R:3:forces:R:3 config_id=cfg027_Al3Ni_iso_expansion phase=Al3Ni config_type=iso_expansion source=QE_7.6_PBE provenance=/workspace/ni_al/data/expansion_026_100/production_gpu/chunk_01/cfg027_Al3Ni_iso_expansion/attempt_001/qe.out qe_output_sha256=1665361433b293a53ed1b4e35c4286dcf639ea1b0c3b2374be7ece365c902c83 canonical_input=/workspace/ni_al/data/expansion_026_100/qe_inputs/cfg027_Al3Ni_iso_expansion.in canonical_input_sha256=8995a08a2c062b688841d8fbf654de13c2f53e015d3106f1cf9d32ad9610a08f dataset_origin=Expansion-75 source_record=Expansion-75:1665361433b293a53ed1b4e35c4286dcf639ea1b0c3b2374be7ece365c902c83 original_dataset=/workspace/ni_al/data/processed/ni_al_expansion_dft_75.extxyz original_dataset_sha256=ff69c2bfed14bfcf48931949647d8f1b3c9353a89c20378c9113155940792137 energy=-25138.103862900454 stress="0.019356280221115418 -0.0 -0.0 -0.0 0.02011198377022207 -0.0 -0.0 -0.0 0.02062407842879537" pbc="T T T"
Al       4.46448609       0.05021824       1.86407949       0.00519116      -0.01009034       0.00000000
Al       1.77453245       1.14601095       3.31617765      -0.01034048      -0.01118422      -0.00411140
Al       1.77453245       1.14601095       0.41198133      -0.01034048      -0.01118422       0.00411140
Al       4.21141369       2.19862166       4.14013885      -0.01034048       0.01118422       0.00411140
Al       0.66234733       4.49064112       3.31617911       0.01034048      -0.01118422      -0.00411140
Al       3.09922858       5.54325183       7.04433663       0.01034048       0.01118422      -0.00411140
Al       0.66234733       4.49064112       0.41197987       0.01034048      -0.01118422       0.00411140
Al       3.09922858       5.54325183       4.14013983       0.01034048       0.01118422       0.00411140
Al       4.21141369       2.19862166       7.04433761      -0.01034048       0.01118422      -0.00411140
Al       2.84615374       3.39484792       1.86407949      -0.00519116      -0.01009034       0.00000000
Al       0.40927494       6.63904454       5.59223847      -0.00519116       0.01009034       0.00000000
Al       2.02760729       3.29441486       5.59223847       0.00519116       0.01009034       0.00000000
Ni       2.15942250       5.82204550       1.86407949      -0.00362875      -0.01070722       0.00000000
Ni       0.27745826       2.47741337       1.86407949       0.00362875      -0.01070722       0.00000000
Ni       2.71433853       0.86721728       5.59223847       0.00362875       0.01070722       0.00000000
Ni       4.59630277       4.21184941       5.59223847      -0.00362875       0.01070722       0.00000000
8
Lattice="3.724683476539786 0.0 0.0 0.0 4.93151072040631 -0.5461838603159415 0.0 -0.0136919364602246 4.961647134414995" Properties=species:S:1:pos:R:3:forces:R:3 config_id=cfg045_Al3Ni5_iso_compression phase=Al3Ni5 config_type=iso_compression source=QE_7.6_PBE provenance=/workspace/ni_al/data/expansion_026_100/production_gpu/chunk_01/cfg045_Al3Ni5_iso_compression/attempt_001/qe.out qe_output_sha256=20da0f9f824270b3418ad7bd86fca189e11d4b7a302c346cc3d72d9b95fb7ad0 canonical_input=/workspace/ni_al/data/expansion_026_100/qe_inputs/cfg045_Al3Ni5_iso_compression.in canonical_input_sha256=e53e5e476eea2c471a0d65439cb764daec7c8c4aa9e6574ffdaffa1ae3f049f8 dataset_origin=Expansion-75 source_record=Expansion-75:20da0f9f824270b3418ad7bd86fca189e11d4b7a302c346cc3d72d9b95fb7ad0 original_dataset=/workspace/ni_al/data/processed/ni_al_expansion_dft_75.extxyz original_dataset_sha256=ff69c2bfed14bfcf48931949647d8f1b3c9353a89c20378c9113155940792137 energy=-24969.57977036432 stress="-0.0349605041064579 -0.0 -0.0 -0.0 -0.03407764445889982 -7.990911342622238e-05 -0.0 -7.990911342622238e-05 -0.0340598018768975" pbc="T T T"
Al       0.00000000       2.45890977       2.20773052       0.00000000       0.00000000       0.00000000
Al       1.86234174       1.07675013       3.74715151       0.00000000       0.02291800      -0.02551657
Al       1.86234174       3.84106903       0.66830990       0.00000000      -0.02291800       0.02551657
Ni       0.00000000       0.00000000       0.00000000       0.00000000       0.00000000       0.00000000
Ni       0.00000000       2.45206380       4.68855446       0.00000000       0.00000000       0.00000000
Ni       0.00000000       4.92466475       1.93463970       0.00000000       0.00000000       0.00000000
Ni       1.86234174       1.35937053       1.22052700       0.00000000      -0.00012367      -0.00017432
Ni       1.86234174       3.55844862       3.19493441       0.00000000       0.00012367       0.00017432
8
Lattice="3.799929607378559 0.0 0.0 0.0 5.031137199606458 -0.5572178776968697 0.0 -0.013968541237047322 5.061882430059751" Properties=species:S:1:pos:R:3:forces:R:3 config_id=cfg046_Al3Ni5_iso_expansion phase=Al3Ni5 config_type=iso_expansion source=QE_7.6_PBE provenance=/workspace/ni_al/data/expansion_026_100/production_gpu/chunk_01/cfg046_Al3Ni5_iso_expansion/attempt_001/qe.out qe_output_sha256=86d228e633203e98f4a5c82cd572e4df477e493c251e36cb67aa9b8db89d374c canonical_input=/workspace/ni_al/data/expansion_026_100/qe_inputs/cfg046_Al3Ni5_iso_expansion.in canonical_input_sha256=0394ba76213c932ee462afc6673e787ec2bfff578a4affb305f73b619250805f dataset_origin=Expansion-75 source_record=Expansion-75:86d228e633203e98f4a5c82cd572e4df477e493c251e36cb67aa9b8db89d374c original_dataset=/workspace/ni_al/data/processed/ni_al_expansion_dft_75.extxyz original_dataset_sha256=ff69c2bfed14bfcf48931949647d8f1b3c9353a89c20378c9113155940792137 energy=-24969.585638034783 stress="0.02970619476472977 -0.0 -0.0 -0.0 0.029130455800476872 6.035468258596665e-05 -0.0 6.035468258596665e-05 0.029117968698039724" pbc="T T T"
Al       0.00000000       2.50858471       2.25233114       0.00000000       0.00000000       0.00000000
Al       1.89996480       1.09850265       3.82285154       0.00000000      -0.02184902       0.02433359
Al       1.89996480       3.91866638       0.68181111       0.00000000       0.02184902      -0.02433359
Ni       0.00000000       0.00000000       0.00000000       0.00000000       0.00000000       0.00000000
Ni       0.00000000       2.50160044       4.78327273       0.00000000       0.00000000       0.00000000
Ni       0.00000000       5.02415293       1.97372333       0.00000000       0.00000000       0.00000000
Ni       1.89996480       1.38683256       1.24518411       0.00000000       0.00454970       0.00395562
Ni       1.89996480       3.63033647       3.25947854       0.00000000      -0.00454970      -0.00395562
4
Lattice="3.5315882109065444 0.0 0.0 0.0 3.531711816493465 0.0 0.0 0.0 3.531711816493465" Properties=species:S:1:pos:R:3:forces:R:3 config_id=cfg089_AlNi3_iso_compression phase=AlNi3 config_type=iso_compression source=QE_7.6_PBE provenance=/workspace/ni_al/data/expansion_026_100/production_gpu/chunk_01/cfg089_AlNi3_iso_compression/attempt_001/qe.out qe_output_sha256=233583d40d0cedb25723de5842bc4298413375e17ac53cfce09a80a64b505cef canonical_input=/workspace/ni_al/data/expansion_026_100/qe_inputs/cfg089_AlNi3_iso_compression.in canonical_input_sha256=24175d49e82de1d560a6d264eecb73704433547d4e41a54d510e9ca33986c703 dataset_origin=Expansion-75 source_record=Expansion-75:233583d40d0cedb25723de5842bc4298413375e17ac53cfce09a80a64b505cef original_dataset=/workspace/ni_al/data/processed/ni_al_expansion_dft_75.extxyz original_dataset_sha256=ff69c2bfed14bfcf48931949647d8f1b3c9353a89c20378c9113155940792137 energy=-14550.824310636743 stress="-0.036878783566525686 -0.0 -0.0 -0.0 -0.03685636806837828 -0.0 -0.0 -0.0 -0.03685636806837828" pbc="T T T"
Al       0.00000000       0.00000000       0.00000000       0.00000000       0.00000000       0.00000000
Ni       0.00000000       1.76585555       1.76585520       0.00000000       0.00000000       0.00000000
Ni       1.76579410       0.00000000       1.76585520       0.00000000       0.00000000       0.00000000
Ni       1.76579410       1.76585555       0.00000000       0.00000000       0.00000000       0.00000000
5
Lattice="4.004473399652464 0.0 0.0 -2.002236699825732 3.4679740759343156 0.0 0.0 0.0 4.858783750260922" Properties=species:S:1:pos:R:3:forces:R:3 config_id=cfg062_Al3Ni2_iso_compression phase=Al3Ni2 config_type=iso_compression source=QE_7.6_PBE provenance=/workspace/ni_al/data/expansion_026_100/production_gpu/chunk_01/cfg062_Al3Ni2_iso_compression/attempt_001/qe.out qe_output_sha256=46dd9d883f1d886191eb3cc9ac3b663d892e404e69569d8d5f3791512113d774 canonical_input=/workspace/ni_al/data/expansion_026_100/qe_inputs/cfg062_Al3Ni2_iso_compression.in canonical_input_sha256=b7854d7d6830d2c0bb0c6af0fcc52109201abd8859ee7451dc37ea30c442d8d8 dataset_origin=Expansion-75 source_record=Expansion-75:46dd9d883f1d886191eb3cc9ac3b663d892e404e69569d8d5f3791512113d774 original_dataset=/workspace/ni_al/data/processed/ni_al_expansion_dft_75.extxyz original_dataset_sha256=ff69c2bfed14bfcf48931949647d8f1b3c9353a89c20378c9113155940792137 energy=-10956.486275286512 stress="-0.026156432424622664 3.772825795345575e-15 -4.1729597927554783e-23 3.772825795345575e-15 -0.026156456815514265 -2.4092605829820663e-23 -4.1729597927554783e-23 -2.4092605829820663e-23 -0.02806000680468011" pbc="T T T"
Al       0.00000000       0.00000000       0.00000000       0.00000000       0.00000000       0.00000000
Al      -0.00000280       2.31198432       3.14611413      -0.00000000       0.00000000      -0.04584499
Al       2.00223830       1.15599016       1.71266922       0.00000000       0.00000000       0.04584499
Ni      -0.00000280       2.31198432       0.71248912       0.00000000       0.00000000       0.02915520
Ni       2.00223830       1.15599016       4.14629462       0.00000000       0.00000000      -0.02915520
16
Lattice="4.680739381463034 0.0 0.0 0.0 6.424342885494529 0.0 0.0 0.0 7.1610163723073805" Properties=species:S:1:pos:R:3:forces:R:3 config_id=cfg028_Al3Ni_iso_compression phase=Al3Ni config_type=iso_compression source=QE_7.6_PBE provenance=/workspace/ni_al/data/expansion_026_100/production_gpu/chunk_02/cfg028_Al3Ni_iso_compression/attempt_001/qe.out qe_output_sha256=116f2d34b762dc4bf29e5659097dd6857ffa981502b8a472536cbf99687adbd9 canonical_input=/workspace/ni_al/data/expansion_026_100/qe_inputs/cfg028_Al3Ni_iso_compression.in canonical_input_sha256=5a0c2ec15b0a4b5f8949c7502be92845d74a517e8c6d05fde8ce41f710adb6a8 dataset_origin=Expansion-75 source_record=Expansion-75:116f2d34b762dc4bf29e5659097dd6857ffa981502b8a472536cbf99687adbd9 original_dataset=/workspace/ni_al/data/processed/ni_al_expansion_dft_75.extxyz original_dataset_sha256=ff69c2bfed14bfcf48931949647d8f1b3c9353a89c20378c9113155940792137 energy=-25137.421830604162 stress="-0.07712269995279131 -0.0 -0.0 -0.0 -0.07924256777823557 -0.0 -0.0 -0.0 -0.08189603836344514" pbc="T T T"
Al       4.28767476       0.04822940       1.79025456      -0.02120786       0.03634074       0.00000000
Al       1.70425393       1.10062438       3.18484388       0.02826772       0.05555313       0.00980105
Al       1.70425393       1.10062438       0.39566524       0.02826772       0.05555313      -0.00980105
Al       4.04462503       2.11154753       3.97617296       0.02826772      -0.05555313      -0.00980105
Al       0.63611576       4.31279395       3.18484529      -0.02826772       0.05555313       0.00980105
Al       2.97648685       5.32371710       6.76535300      -0.02826772      -0.05555313       0.00980105
Al       0.63611576       4.31279395       0.39566383      -0.02826772       0.05555313      -0.00980105
Al       2.97648685       5.32371710       3.97617390      -0.02826772      -0.05555313      -0.00980105
Al       4.04462503       2.11154753       6.76535394       0.02826772      -0.05555313       0.00980105
Al       2.73343478       3.26039850       1.79025456       0.02120786       0.03634074       0.00000000
Al       0.39306603       6.37611208       5.37076368       0.02120786      -0.03634074       0.00000000
Al       1.94730601       3.16394298       5.37076368      -0.02120786      -0.03634074       0.00000000
Ni       2.07390082       5.59146944       1.79025456       0.01885478       0.03543246       0.00000000
Ni       0.26646982       2.37929799       1.79025456      -0.01885478       0.03543246       0.00000000
Ni       2.60683997       0.83287204       5.37076368      -0.01885478      -0.03543246       0.00000000
Ni       4.41427097       4.04504349       5.37076368       0.01885478      -0.03543246       0.00000000
16
Lattice="4.970269652481468 0.0 0.0 0.0 6.8217249196488385 0.0 0.0 0.0 7.603965838635488" Properties=species:S:1:pos:R:3:forces:R:3 config_id=cfg029_Al3Ni_iso_expansion phase=Al3Ni config_type=iso_expansion source=QE_7.6_PBE provenance=/workspace/ni_al/data/expansion_026_100/production_gpu/chunk_02/cfg029_Al3Ni_iso_expansion/attempt_001/qe.out qe_output_sha256=58cb3175e110906e2a238b92f2aed42c0bcc69cb9af4f5303de86518a771ca9f canonical_input=/workspace/ni_al/data/expansion_026_100/qe_inputs/cfg029_Al3Ni_iso_expansion.in canonical_input_sha256=cf4cfef7399ba84b0205fdc517cd12115e6b007dddb456e79bb1e875be0b9591 dataset_origin=Expansion-75 source_record=Expansion-75:58cb3175e110906e2a238b92f2aed42c0bcc69cb9af4f5303de86518a771ca9f original_dataset=/workspace/ni_al/data/processed/ni_al_expansion_dft_75.extxyz original_dataset_sha256=ff69c2bfed14bfcf48931949647d8f1b3c9353a89c20378c9113155940792137 energy=-25137.560503998706 stress="0.05027270845189689 -0.0 -0.0 -0.0 0.05223442457305961 -0.0 -0.0 -0.0 0.05370818510060265" pbc="T T T"
Al       4.55289175       0.05121266       1.90099196       0.01152921      -0.02635254       0.00000000
Al       1.80967170       1.16870424       3.38184453      -0.02304092      -0.03357565      -0.00951963
Al       1.80967170       1.16870424       0.42013938      -0.02304092      -0.03357565       0.00951963
Al       4.29480802       2.24215872       4.22212180      -0.02304092       0.03357565       0.00951963
Al       0.67546312       4.57956471       3.38184603       0.02304092      -0.03357565      -0.00951963
Al       3.16059944       5.65301919       7.18382845       0.02304092       0.03357565      -0.00951963
Al       0.67546312       4.57956471       0.42013789       0.02304092      -0.03357565       0.00951963
Al       3.16059944       5.65301919       4.22212280       0.02304092       0.03357565       0.00951963
Al       4.29480802       2.24215872       7.18382945      -0.02304092       0.03357565      -0.00951963
Al       2.90251322       3.46207263       1.90099196      -0.01152921      -0.02635254       0.00000000
Al       0.41737939       6.77051077       5.70297587      -0.01152921       0.02635254       0.00000000
Al       2.06775793       3.35965079       5.70297587       0.01152921       0.02635254       0.00000000
Ni       2.20218334       5.93733353       1.90099196      -0.00949594      -0.02556367       0.00000000
Ni       0.28295248       2.52647106       1.90099196       0.00949594      -0.02556367       0.00000000
Ni       2.76808780       0.88438990       5.70297587       0.00949594       0.02556367       0.00000000
Ni       4.68731866       4.29525237       5.70297587      -0.00949594       0.02556367       0.00000000
8
Lattice="3.649437345700013 0.0 0.0 0.0 4.831884241206161 -0.5351498429360132 0.0 -0.013415331682401882 4.861411838770238" Properties=species:S:1:pos:R:3:forces:R:3 config_id=cfg047_Al3Ni5_iso_compression phase=Al3Ni5 config_type=iso_compression source=QE_7.6_PBE provenance=/workspace/ni_al/data/expansion_026_100/production_gpu/chunk_02/cfg047_Al3Ni5_iso_compression/attempt_001/qe.out qe_output_sha256=16171de4b48e59f822242883b943d33ad4c01d42d718e29b371feca1419dc222 canonical_input=/workspace/ni_al/data/expansion_026_100/qe_inputs/cfg047_Al3Ni5_iso_compression.in canonical_input_sha256=914d7918f7fefc00f1ddb8adb097809b2d33e51324dfff938caf2395513f3403 dataset_origin=Expansion-75 source_record=Expansion-75:16171de4b48e59f822242883b943d33ad4c01d42d718e29b371feca1419dc222 original_dataset=/workspace/ni_al/data/processed/ni_al_expansion_dft_75.extxyz original_dataset_sha256=ff69c2bfed14bfcf48931949647d8f1b3c9353a89c20378c9113155940792137 energy=-24969.176018310893 stress="-0.12059347188779124 -0.0 -0.0 -0.0 -0.11796177031401388 -0.00013092481397976722 -0.0 -0.00013092481397976722 -0.11793254136042138" pbc="T T T"
Al       0.00000000       2.40923482       2.16312990       0.00000000       0.00000000       0.00000000
Al       1.82471867       1.05499760       3.67145148       0.00000000       0.07605668      -0.08469623
Al       1.82471867       3.76347168       0.65480869       0.00000000      -0.07605668       0.08469623
Ni       0.00000000       0.00000000       0.00000000       0.00000000       0.00000000       0.00000000
Ni       0.00000000       2.40252716       4.59383618       0.00000000       0.00000000       0.00000000
Ni       0.00000000       4.82517657       1.89555607       0.00000000       0.00000000       0.00000000
Ni       1.82471867       1.33190850       1.19586989       0.00000000      -0.00011336      -0.00019717
Ni       1.82471867       3.48656077       3.13039028       0.00000000       0.00011336       0.00019717
8
Lattice="3.8751757382173326 0.0 0.0 0.0 5.130763678805605 -0.5682518950767974 0.0 -0.014245146013870039 5.16211772570351" Properties=species:S:1:pos:R:3:forces:R:3 config_id=cfg048_Al3Ni5_iso_expansion phase=Al3Ni5 config_type=iso_expansion source=QE_7.6_PBE provenance=/workspace/ni_al/data/expansion_026_100/production_gpu/chunk_02/cfg048_Al3Ni5_iso_expansion/attempt_001/qe.out qe_output_sha256=2b24f1c522bd3dd1eb83341a632ed2fbaf1b416eb8144b3a8c0585c89f8097b5 canonical_input=/workspace/ni_al/data/expansion_026_100/qe_inputs/cfg048_Al3Ni5_iso_expansion.in canonical_input_sha256=7c7dbef03b25c1787e7a98a8884b8aca67f3c555883147f4185b332de988c30d dataset_origin=Expansion-75 source_record=Expansion-75:2b24f1c522bd3dd1eb83341a632ed2fbaf1b416eb8144b3a8c0585c89f8097b5 original_dataset=/workspace/ni_al/data/processed/ni_al_expansion_dft_75.extxyz original_dataset_sha256=ff69c2bfed14bfcf48931949647d8f1b3c9353a89c20378c9113155940792137 energy=-24969.26889018108 stress="0.07775583483021267 -0.0 -0.0 -0.0 0.07597054549955883 0.0002442599136837532 -0.0 0.0002442599136837532 0.07591812368393784" pbc="T T T"
Al       0.00000000       2.55825966       2.29693175       0.00000000       0.00000000       0.00000000
Al       1.93758787       1.12025518       3.89855157       0.00000000      -0.05945959       0.06621914
Al       1.93758787       3.99626374       0.69531232       0.00000000       0.05945959      -0.06621914
Ni       0.00000000       0.00000000       0.00000000       0.00000000       0.00000000       0.00000000
Ni       0.00000000       2.55113708       4.87799100       0.00000000       0.00000000       0.00000000
Ni       0.00000000       5.12364111       2.01280696       0.00000000       0.00000000       0.00000000
Ni       1.93758787       1.41429460       1.26984123       0.00000000       0.01209810       0.01076461
Ni       1.93758787       3.70222432       3.32402267       0.00000000      -0.01209810      -0.01076461
4
Lattice="3.6029334272878177 0.0 0.0 0.0 3.603059529958737 0.0 0.0 0.0 3.603059529958737" Properties=species:S:1:pos:R:3:forces:R:3 config_id=cfg090_AlNi3_iso_expansion phase=AlNi3 config_type=iso_expansion source=QE_7.6_PBE provenance=/workspace/ni_al/data/expansion_026_100/production_gpu/chunk_02/cfg090_AlNi3_iso_expansion/attempt_001/qe.out qe_output_sha256=9a3feed3f0cb568a9c736d3e885638369f75a3e64a5cdb14b741341cd403499a canonical_input=/workspace/ni_al/data/expansion_026_100/qe_inputs/cfg090_AlNi3_iso_expansion.in canonical_input_sha256=9ea47e929747a1c4f912404b4c5f2ea0c70b4f9e5ddb5b33e417f411b72ecc03 dataset_origin=Expansion-75 source_record=Expansion-75:9a3feed3f0cb568a9c736d3e885638369f75a3e64a5cdb14b741341cd403499a original_dataset=/workspace/ni_al/data/processed/ni_al_expansion_dft_75.extxyz original_dataset_sha256=ff69c2bfed14bfcf48931949647d8f1b3c9353a89c20378c9113155940792137 energy=-14550.82712810803 stress="0.03158629494191556 -0.0 -0.0 -0.0 0.03160634793313787 -0.0 -0.0 -0.0 0.031606347933137886" pbc="T T T"
Al       0.00000000       0.00000000       0.00000000       0.00000000       0.00000000       0.00000000
Ni       0.00000000       1.80152940       1.80152904       0.00000000       0.00000000       0.00000000
Ni       1.80146671       0.00000000       1.80152904       0.00000000       0.00000000       0.00000000
Ni       1.80146671       1.80152940       0.00000000       0.00000000       0.00000000       0.00000000
5
Lattice="4.085371852170614 0.0 0.0 -2.042685926085807 3.5380341582764125 0.0 0.0 0.0 4.956940997741011" Properties=species:S:1:pos:R:3:forces:R:3 config_id=cfg063_Al3Ni2_iso_expansion phase=Al3Ni2 config_type=iso_expansion source=QE_7.6_PBE provenance=/workspace/ni_al/data/expansion_026_100/production_gpu/chunk_02/cfg063_Al3Ni2_iso_expansion/attempt_001/qe.out qe_output_sha256=e9d4b0f222c758239f9b9d19551b75bf8dfb1c42077038bed73f68ec330c22ee canonical_input=/workspace/ni_al/data/expansion_026_100/qe_inputs/cfg063_Al3Ni2_iso_expansion.in canonical_input_sha256=5b873a5ed5cd01f132ae7ab6f8be71320bd6098abaf134705ecf7593655819e9 dataset_origin=Expansion-75 source_record=Expansion-75:e9d4b0f222c758239f9b9d19551b75bf8dfb1c42077038bed73f68ec330c22ee original_dataset=/workspace/ni_al/data/processed/ni_al_expansion_dft_75.extxyz original_dataset_sha256=ff69c2bfed14bfcf48931949647d8f1b3c9353a89c20378c9113155940792137 energy=-10956.488648411627 stress="0.022686762005248398 3.2103860659602847e-15 4.172959792755335e-23 3.2103860659602847e-15 0.022686783160669136 2.4092605829831334e-23 4.172959792755335e-23 2.4092605829831334e-23 0.02430007006562958" pbc="T T T"
Al       0.00000000       0.00000000       0.00000000       0.00000000       0.00000000       0.00000000
Al      -0.00000286       2.35869108       3.20967199       0.00000000       0.00000000       0.03656982
Al       2.04268756       1.17934350       1.74726860       0.00000000      -0.00000000      -0.03656982
Ni      -0.00000286       2.35869108       0.72688284       0.00000000       0.00000000      -0.02960367
Ni       2.04268756       1.17934350       4.23005815       0.00000000       0.00000000       0.02960367
16
Lattice="4.753121949217642 0.0 0.0 0.0 6.623033902572181 0.0 0.0 0.0 7.382491105471437" Properties=species:S:1:pos:R:3:forces:R:3 config_id=cfg030_Al3Ni_uniaxial_x_compression phase=Al3Ni config_type=uniaxial_x_compression source=QE_7.6_PBE provenance=/workspace/ni_al/data/expansion_026_100/production_gpu/chunk_03/cfg030_Al3Ni_uniaxial_x_compression/attempt_001/qe.out qe_output_sha256=7c3a09dec9093523eda8a1d8b357c9b40b81b40110c46dfb970b30d243525263 canonical_input=/workspace/ni_al/data/expansion_026_100/qe_inputs/cfg030_Al3Ni_uniaxial_x_compression.in canonical_input_sha256=17e8d7c7d2c765f83a6211c966e422327c743cb0fa2ed9f986d74e27bd30c367 dataset_origin=Expansion-75 source_record=Expansion-75:7c3a09dec9093523eda8a1d8b357c9b40b81b40110c46dfb970b30d243525263 original_dataset=/workspace/ni_al/data/processed/ni_al_expansion_dft_75.extxyz original_dataset_sha256=ff69c2bfed14bfcf48931949647d8f1b3c9353a89c20378c9113155940792137 energy=-25138.142332986004 stress="-0.020024741619993482 -0.0 -0.0 -0.0 -0.0060586861920659514 -0.0 -0.0 -0.0 -0.006597887495609804" pbc="T T T"
Al       4.35397901       0.04972103       1.84562326       0.03207593       0.00613467       0.00000000
Al       1.73060838       1.13466431       3.28334421       0.03595141      -0.03152383      -0.02322294
Al       1.73060838       1.13466431       0.40790231       0.03595141      -0.03152383       0.02322294
Al       4.10717078       2.17685313       4.09914738       0.03595141       0.03152383       0.02322294
Al       0.64595260       4.44617933       3.28334566      -0.03595141      -0.03152383      -0.02322294
Al       3.02251500       5.48836815       6.97459073      -0.03595141       0.03152383      -0.02322294
Al       0.64595260       4.44617933       0.40790086      -0.03595141      -0.03152383       0.02322294
Al       3.02251500       5.48836815       4.09914835      -0.03595141       0.03152383       0.02322294
Al       4.10717078       2.17685313       6.97459170       0.03595141       0.03152383      -0.02322294
Al       2.77570439       3.36123557       1.84562326      -0.03207593       0.00613467       0.00000000
Al       0.39914437       6.57331143       5.53686978      -0.03207593      -0.00613467       0.00000000
Al       1.97741899       3.26179689       5.53686978       0.03207593      -0.00613467       0.00000000
Ni       2.10597145       5.76440149       1.84562326      -0.04505996       0.02464263       0.00000000
Ni       0.27059048       2.45288453       1.84562326       0.04505996       0.02464263       0.00000000
Ni       2.64715193       0.85863097       5.53686978       0.04505996      -0.02464263       0.00000000
Ni       4.48253289       4.17014793       5.53686978      -0.04505996      -0.02464263       0.00000000
16
Lattice="4.825504516972251 0.0 0.0 0.0 6.722379411110513 0.0 0.0 0.0 7.382491105471437" Properties=species:S:1:pos:R:3:forces:R:3 config_id=cfg031_Al3Ni_uniaxial_y_expansion phase=Al3Ni config_type=uniaxial_y_expansion source=QE_7.6_PBE provenance=/workspace/ni_al/data/expansion_026_100/production_gpu/chunk_03/cfg031_Al3Ni_uniaxial_y_expansion/attempt_001/qe.out qe_output_sha256=d6a43a91cab49b9a86d3e0e8d03d230254fb32b8845d4c4f19172fb596fd4c2d canonical_input=/workspace/ni_al/data/expansion_026_100/qe_inputs/cfg031_Al3Ni_uniaxial_y_expansion.in canonical_input_sha256=baf52fa0047ebab1f00e8eec427d723dd5b1bd53e232ba98e49a45a0b7128181 dataset_origin=Expansion-75 source_record=Expansion-75:d6a43a91cab49b9a86d3e0e8d03d230254fb32b8845d4c4f19172fb596fd4c2d original_dataset=/workspace/ni_al/data/processed/ni_al_expansion_dft_75.extxyz original_dataset_sha256=ff69c2bfed14bfcf48931949647d8f1b3c9353a89c20378c9113155940792137 energy=-25138.14349151186 stress="0.0056362493345160835 -0.0 -0.0 -0.0 0.01883797291761483 -0.0 -0.0 -0.0 0.006409870975248956" pbc="T T T"
Al       4.42028326       0.05046685       1.84562326       0.04481640       0.02070820       0.00000000
Al       1.75696282       1.15168427       3.28334421       0.01634619      -0.03705788      -0.04823909
Al       1.75696282       1.15168427       0.40790231       0.01634619      -0.03705788       0.04823909
Al       4.16971653       2.20950593       4.09914738       0.01634619       0.03705788       0.04823909
Al       0.65578944       4.51287202       3.28334566      -0.01634619      -0.03705788      -0.04823909
Al       3.06854315       5.57069367       6.97459073      -0.01634619       0.03705788      -0.04823909
Al       0.65578944       4.51287202       0.40790086      -0.01634619      -0.03705788       0.04823909
Al       3.06854315       5.57069367       4.09914835      -0.01634619       0.03705788       0.04823909
Al       4.16971653       2.20950593       6.97459170       0.01634619       0.03705788      -0.04823909
Al       2.81797400       3.41165410       1.84562326      -0.04481640       0.02070820       0.00000000
Al       0.40522271       6.67191110       5.53686978      -0.04481640      -0.02070820       0.00000000
Al       2.00753197       3.31072384       5.53686978       0.04481640      -0.02070820       0.00000000
Ni       2.13804208       5.85086751       1.84562326      -0.02709215       0.02270678       0.00000000
Ni       0.27471115       2.48967780       1.84562326       0.02709215       0.02270678       0.00000000
Ni       2.68746389       0.87151043       5.53686978       0.02709215      -0.02270678       0.00000000
Ni       4.55079482       4.23270015       5.53686978      -0.02709215      -0.02270678       0.00000000
8
Lattice="3.7623065419586723 0.0 0.0 0.0 4.906604100606273 -0.5517008690064054 0.0 -0.013622785265268922 5.011764782236874" Properties=species:S:1:pos:R:3:forces:R:3 config_id=cfg049_Al3Ni5_uniaxial_y_compression phase=Al3Ni5 config_type=uniaxial_y_compression source=QE_7.6_PBE provenance=/workspace/ni_al/data/expansion_026_100/production_gpu/chunk_03/cfg049_Al3Ni5_uniaxial_y_compression/attempt_001/qe.out qe_output_sha256=1fcee43b8a8c4c53d4b0dfdda23eddd108dd1c4f4021af9b93b56a099e0e8385 canonical_input=/workspace/ni_al/data/expansion_026_100/qe_inputs/cfg049_Al3Ni5_uniaxial_y_compression.in canonical_input_sha256=239716c986d35eed3bc39a0febe8f2df2b0a478d859251432e101c6b550b5b9a dataset_origin=Expansion-75 source_record=Expansion-75:1fcee43b8a8c4c53d4b0dfdda23eddd108dd1c4f4021af9b93b56a099e0e8385 original_dataset=/workspace/ni_al/data/processed/ni_al_expansion_dft_75.extxyz original_dataset_sha256=ff69c2bfed14bfcf48931949647d8f1b3c9353a89c20378c9113155940792137 energy=-24969.60482974261 stress="-0.012320102703127729 -0.0 -0.0 -0.0 -0.03219215395042869 0.0018375384938230566 -0.0 0.0018375384938230566 -0.006406882556157821" pbc="T T T"
Al       0.00000000       2.44649103       2.23003083       0.00000000       0.00000000       0.00000000
Al       1.88115327       1.07131199       3.78500153       0.00000000       0.04325613       0.01358964
Al       1.88115327       3.82166969       0.67506051       0.00000000      -0.04325613      -0.01358964
Ni       0.00000000       0.00000000       0.00000000       0.00000000       0.00000000       0.00000000
Ni       0.00000000       2.43967964       4.73591359       0.00000000       0.00000000       0.00000000
Ni       0.00000000       4.89979271       1.95418152       0.00000000       0.00000000       0.00000000
Ni       1.88115327       1.35250503       1.23285556       0.00000000       0.04064376       0.00820189
Ni       1.88115327       3.54047666       3.22720648       0.00000000      -0.04064376      -0.00820189
8
Lattice="3.7623065419586723 0.0 0.0 0.0 5.056043819405494 -0.5434253559717094 0.0 -0.014037692431002998 4.936588310503056" Properties=species:S:1:pos:R:3:forces:R:3 config_id=cfg050_Al3Ni5_orthorhombic_yz phase=Al3Ni5 config_type=orthorhombic_yz source=QE_7.6_PBE provenance=/workspace/ni_al/data/expansion_026_100/production_gpu/chunk_03/cfg050_Al3Ni5_orthorhombic_yz/attempt_001/qe.out qe_output_sha256=896fb37820646eb3596ba69089528f46b511cab78d24ef5f91106a61aadc4e3a canonical_input=/workspace/ni_al/data/expansion_026_100/qe_inputs/cfg050_Al3Ni5_orthorhombic_yz.in canonical_input_sha256=0e7bf2c60e4e4ef9623a0cdd91f55dbe2bfd2785f86ecaf85d0fe5fa37b3f4fc dataset_origin=Expansion-75 source_record=Expansion-75:896fb37820646eb3596ba69089528f46b511cab78d24ef5f91106a61aadc4e3a original_dataset=/workspace/ni_al/data/processed/ni_al_expansion_dft_75.extxyz original_dataset_sha256=ff69c2bfed14bfcf48931949647d8f1b3c9353a89c20378c9113155940792137 energy=-24969.59364507867 stress="7.589645307295908e-05 -0.0 -0.0 -0.0 0.021849923282334642 -0.0015701518633369081 -0.0 -0.0015701518633369081 -0.026138705830946664" pbc="T T T"
Al       0.00000000       2.52100345       2.19658037       0.00000000       0.00000000       0.00000000
Al       1.88115327       1.10394079       3.72822650       0.00000000      -0.05982251      -0.04748009
Al       1.88115327       3.93806572       0.66493460       0.00000000       0.05982251       0.04748009
Ni       0.00000000       0.00000000       0.00000000       0.00000000       0.00000000       0.00000000
Ni       0.00000000       2.51398460       4.66487489       0.00000000       0.00000000       0.00000000
Ni       0.00000000       5.04902497       1.92486880       0.00000000       0.00000000       0.00000000
Ni       1.88115327       1.39369807       1.21436273       0.00000000      -0.02075884       0.03382002
Ni       1.88115327       3.64830844       3.17879838       0.00000000       0.02075884      -0.03382002
4
Lattice="3.4602429945242705 0.0 0.0 0.0 3.4603641030291934 0.0 0.0 0.0 3.4603641030291934" Properties=species:S:1:pos:R:3:forces:R:3 config_id=cfg091_AlNi3_iso_compression phase=AlNi3 config_type=iso_compression source=QE_7.6_PBE provenance=/workspace/ni_al/data/expansion_026_100/production_gpu/chunk_03/cfg091_AlNi3_iso_compression/attempt_001/qe.out qe_output_sha256=41fbc8ca79ab21888b9f21d490ebffd453cfc1faf928686e07e6c43896de5b66 canonical_input=/workspace/ni_al/data/expansion_026_100/qe_inputs/cfg091_AlNi3_iso_compression.in canonical_input_sha256=16528aea8480c0b8537e27660b4c4a87bab0857a8df7729c5cde036a6bef2fd6 dataset_origin=Expansion-75 source_record=Expansion-75:41fbc8ca79ab21888b9f21d490ebffd453cfc1faf928686e07e6c43896de5b66 original_dataset=/workspace/ni_al/data/processed/ni_al_expansion_dft_75.extxyz original_dataset_sha256=ff69c2bfed14bfcf48931949647d8f1b3c9353a89c20378c9113155940792137 energy=-14550.613709087569 stress="-0.12824351962127228 -0.0 -0.0 -0.0 -0.12821912246224335 -0.0 -0.0 -0.0 -0.12821912246224332" pbc="T T T"
Al       0.00000000       0.00000000       0.00000000       0.00000000       0.00000000       0.00000000
Ni       0.00000000       1.73018170       1.73018136       0.00000000       0.00000000       0.00000000
Ni       1.73012150       0.00000000       1.73018136       0.00000000       0.00000000       0.00000000
Ni       1.73012150       1.73018170       0.00000000       0.00000000       0.00000000       0.00000000
5
Lattice="3.923574947134313 0.0 0.0 -1.9617874735666563 3.3979139935922182 0.0 0.0 0.0 4.760626502780831" Properties=species:S:1:pos:R:3:forces:R:3 config_id=cfg064_Al3Ni2_iso_compression phase=Al3Ni2 config_type=iso_compression source=QE_7.6_PBE provenance=/workspace/ni_al/data/expansion_026_100/production_gpu/chunk_03/cfg064_Al3Ni2_iso_compression/attempt_001/qe.out qe_output_sha256=939f92b586ea643f5ee3fd8dcd7d843581e6e4700cd19d0947daa2487ec58ed3 canonical_input=/workspace/ni_al/data/expansion_026_100/qe_inputs/cfg064_Al3Ni2_iso_compression.in canonical_input_sha256=da7abda54a09e1176f6a8fb5a1bcc543ce590ddadf6786bbdc9885f58dcfab49 dataset_origin=Expansion-75 source_record=Expansion-75:939f92b586ea643f5ee3fd8dcd7d843581e6e4700cd19d0947daa2487ec58ed3 original_dataset=/workspace/ni_al/data/processed/ni_al_expansion_dft_75.extxyz original_dataset_sha256=ff69c2bfed14bfcf48931949647d8f1b3c9353a89c20378c9113155940792137 energy=-10956.253382571484 stress="-0.09040431279124987 1.3299459795730049e-14 4.1729597927556276e-23 1.3299459795730049e-14 -0.09040439709333817 2.40926058298218e-23 4.1729597927556276e-23 2.40926058298218e-23 -0.0967595851278987" pbc="T T T"
Al       0.00000000       0.00000000       0.00000000       0.00000000       0.00000000       0.00000000
Al      -0.00000275       2.26527757       3.08255627       0.00000000       0.00000000      -0.15119335
Al       1.96178904       1.13263682       1.67806984       0.00000000       0.00000000       0.15119335
Ni      -0.00000275       2.26527757       0.69809540       0.00000000       0.00000000       0.10791353
Ni       1.96178904       1.13263682       4.06253110       0.00000000       0.00000000      -0.10791353
16
Lattice="4.897887084726859 0.0 0.0 0.0 6.523688394033855 0.0 0.0 0.0 7.382491105471437" Properties=species:S:1:pos:R:3:forces:R:3 config_id=cfg032_Al3Ni_orthorhombic_xy phase=Al3Ni config_type=orthorhombic_xy source=QE_7.6_PBE provenance=/workspace/ni_al/data/expansion_026_100/production_gpu/chunk_04/cfg032_Al3Ni_orthorhombic_xy/attempt_001/qe.out qe_output_sha256=83617d47ad83bb04e8b85b1aa5559d59cb301ac16fafe3595934362bb2d12e06 canonical_input=/workspace/ni_al/data/expansion_026_100/qe_inputs/cfg032_Al3Ni_orthorhombic_xy.in canonical_input_sha256=0db926b05f10bec22be5385ce9c4ff5e83055ce19b1afc3320d99567a750ec69 dataset_origin=Expansion-75 source_record=Expansion-75:83617d47ad83bb04e8b85b1aa5559d59cb301ac16fafe3595934362bb2d12e06 original_dataset=/workspace/ni_al/data/processed/ni_al_expansion_dft_75.extxyz original_dataset_sha256=ff69c2bfed14bfcf48931949647d8f1b3c9353a89c20378c9113155940792137 energy=-25138.130258567253 stress="0.012563028542453418 -0.0 -0.0 -0.0 -0.01409445236115378 -0.0 -0.0 -0.0 -0.0009049538205313412" pbc="T T T"
Al       4.48658751       0.04897521       1.84562326      -0.08273474      -0.03945317       0.00000000
Al       1.78331726       1.11764434       3.28334421      -0.06072370       0.07650486       0.07456794
Al       1.78331726       1.11764434       0.40790231      -0.06072370       0.07650486      -0.07456794
Al       4.23226228       2.14420033       4.09914738      -0.06072370      -0.07650486      -0.07456794
Al       0.66562628       4.37948664       3.28334566       0.06072370       0.07650486       0.07456794
Al       3.11457130       5.40604262       6.97459073       0.06072370      -0.07650486       0.07456794
Al       0.66562628       4.37948664       0.40790086       0.06072370       0.07650486      -0.07456794
Al       3.11457130       5.40604262       4.09914835       0.06072370      -0.07650486      -0.07456794
Al       4.23226228       2.14420033       6.97459170      -0.06072370      -0.07650486       0.07456794
Al       2.86024361       3.31081703       1.84562326       0.08273474      -0.03945317       0.00000000
Al       0.41130105       6.47471175       5.53686978       0.08273474       0.03945317       0.00000000
Al       2.03764495       3.21286993       5.53686978      -0.08273474       0.03945317       0.00000000
Ni       2.17011271       5.67793546       1.84562326       0.06029113      -0.05459948       0.00000000
Ni       0.27883182       2.41609126       1.84562326      -0.06029113      -0.05459948       0.00000000
Ni       2.72777585       0.84575150       5.53686978      -0.06029113       0.05459948       0.00000000
Ni       4.61905674       4.10759571       5.53686978       0.06029113       0.05459948       0.00000000
16
Lattice="4.825504516972251 0.0 0.0 -0.06623033902555184 6.623033902572181 0.0 0.0 0.0 7.382491105471437" Properties=species:S:1:pos:R:3:forces:R:3 config_id=cfg033_Al3Ni_shear_xy_negative phase=Al3Ni config_type=shear_xy_negative source=QE_7.6_PBE provenance=/workspace/ni_al/data/expansion_026_100/production_gpu/chunk_04/cfg033_Al3Ni_shear_xy_negative/attempt_001/qe.out qe_output_sha256=f33f083db82ba004db26e01df62107e02d7a1294a657876a08e66d4e3d39e7ad canonical_input=/workspace/ni_al/data/expansion_026_100/qe_inputs/cfg033_Al3Ni_shear_xy_negative.in canonical_input_sha256=52c3d6a0b44b395c08e056d0e8115d9bffa7309733182d71fc61b73a8c6ee242 dataset_origin=Expansion-75 source_record=Expansion-75:f33f083db82ba004db26e01df62107e02d7a1294a657876a08e66d4e3d39e7ad original_dataset=/workspace/ni_al/data/processed/ni_al_expansion_dft_75.extxyz original_dataset_sha256=ff69c2bfed14bfcf48931949647d8f1b3c9353a89c20378c9113155940792137 energy=-25138.17168591711 stress="7.69525278073758e-05 -0.004720719713113237 -0.0 -0.004720719713113237 0.00016496043076432348 -0.0 -0.0 -0.0 -4.248489968305342e-05" pbc="T T T"
Al       4.41978605       0.04972103       1.84562326       0.01423647      -0.01471691       0.00000000
Al       1.74561618       1.13466431       3.28334421      -0.02522861      -0.01038693      -0.01498164
Al       1.74561618       1.13466431       0.40790231      -0.02522861      -0.01038693       0.01498164
Al       4.14794800       2.17685313       4.09914738       0.02087538      -0.01495694      -0.01385403
Al       0.61132765       4.44617933       3.28334566      -0.02087538       0.01495694       0.01385403
Al       3.01365947       5.48836815       6.97459073       0.02522861       0.01038693      -0.01498164
Al       0.61132765       4.44617933       0.40790086      -0.02087538       0.01495694      -0.01385403
Al       3.01365947       5.48836815       4.09914835       0.02522861       0.01038693       0.01498164
Al       4.14794800       2.17685313       6.97459170       0.02087538      -0.01495694       0.01385403
Al       2.78436164       3.36123557       1.84562326       0.01299497       0.01389729       0.00000000
Al       0.33948960       6.57331143       5.53686978      -0.01423647       0.01471691       0.00000000
Al       1.97491400       3.26179689       5.53686978      -0.01299497      -0.01389729       0.00000000
Ni       2.08039806       5.76440149       1.84562326       0.00919888       0.00323430       0.00000000
Ni       0.25018230       2.45288453       1.84562326       0.01014653      -0.00543035       0.00000000
Ni       2.67887758       0.85863097       5.53686978      -0.00919888      -0.00323430       0.00000000
Ni       4.50909334       4.17014793       5.53686978      -0.01014653       0.00543035       0.00000000
8
Lattice="3.7623065419586723 0.0 0.0 -0.04981323960007383 4.9813239600063834 -0.5517008690064054 0.00013830238891135958 -0.013830238848135959 5.011764782236874" Properties=species:S:1:pos:R:3:forces:R:3 config_id=cfg051_Al3Ni5_shear_xy_negative phase=Al3Ni5 config_type=shear_xy_negative source=QE_7.6_PBE provenance=/workspace/ni_al/data/expansion_026_100/production_gpu/chunk_04/cfg051_Al3Ni5_shear_xy_negative/attempt_001/qe.out qe_output_sha256=d4475aebe4d5c31979068f8a5da5dd2eb067237917d5f57f1b3f004daa7ba498 canonical_input=/workspace/ni_al/data/expansion_026_100/qe_inputs/cfg051_Al3Ni5_shear_xy_negative.in canonical_input_sha256=4bded8e043362a6ae2410c49b2f3943b8861daac227a2b0998e910125329aafd dataset_origin=Expansion-75 source_record=Expansion-75:d4475aebe4d5c31979068f8a5da5dd2eb067237917d5f57f1b3f004daa7ba498 original_dataset=/workspace/ni_al/data/processed/ni_al_expansion_dft_75.extxyz original_dataset_sha256=ff69c2bfed14bfcf48931949647d8f1b3c9353a89c20378c9113155940792137 energy=-24969.624363744995 stress="-0.0004348010989033573 -0.006511721385630696 -0.0006677469023726786 -0.006511721385630696 -0.0002069187804044696 8.723648128590869e-06 -0.0006677469023726786 8.723648128590869e-06 -0.00022170037098525092" pbc="T T T"
Al      -0.02483747       2.48374724       2.23003083       0.00000000       0.00000000       0.00000000
Al       1.87027700       1.08762639       3.78500153       0.00147454      -0.00078840       0.00016028
Al       1.84235459       3.87986771       0.67506051      -0.00147454       0.00078840      -0.00016028
Ni       0.00000000       0.00000000       0.00000000       0.00000000       0.00000000       0.00000000
Ni      -0.02476832       2.47683212       4.73591359       0.00000000       0.00000000       0.00000000
Ni      -0.04974409       4.97440884       1.95418152       0.00000000       0.00000000       0.00000000
Ni       1.86742225       1.37310155       1.23285556      -0.04002403       0.00176103       0.00141813
Ni       1.84520934       3.59439255       3.22720648       0.04002403      -0.00176103      -0.00141813
8
Lattice="3.7623065419586723 0.0 0.0 0.0 4.975806951315919 -0.5517008690064054 0.0 0.03628740897374277 5.011764782236874" Properties=species:S:1:pos:R:3:forces:R:3 config_id=cfg052_Al3Ni5_shear_yz_positive phase=Al3Ni5 config_type=shear_yz_positive source=QE_7.6_PBE provenance=/workspace/ni_al/data/expansion_026_100/production_gpu/chunk_04/cfg052_Al3Ni5_shear_yz_positive/attempt_001/qe.out qe_output_sha256=84a2db407400b9841f23ffa4f1bb53a6c75ae0c581132f605e5adde21c88b90f canonical_input=/workspace/ni_al/data/expansion_026_100/qe_inputs/cfg052_Al3Ni5_shear_yz_positive.in canonical_input_sha256=e17a218ab927bec38330a30d3ec6176c6c12cd752df39bca24afd1edf842974b dataset_origin=Expansion-75 source_record=Expansion-75:84a2db407400b9841f23ffa4f1bb53a6c75ae0c581132f605e5adde21c88b90f original_dataset=/workspace/ni_al/data/processed/ni_al_expansion_dft_75.extxyz original_dataset_sha256=ff69c2bfed14bfcf48931949647d8f1b3c9353a89c20378c9113155940792137 energy=-24969.626147069765 stress="0.0006085605656340868 -0.0 -0.0 -0.0 -0.001344605878884892 0.002724658891534282 -0.0 0.002724658891534282 -0.00016423359336388034" pbc="T T T"
Al       0.00000000       2.50604755       2.23003083       0.00000000       0.00000000       0.00000000
Al       1.88115327       1.12547640       3.78500153       0.00000000      -0.00867265       0.01400947
Al       1.88115327       3.88661831       0.67506051       0.00000000       0.00867265      -0.01400947
Ni       0.00000000       0.00000000       0.00000000       0.00000000       0.00000000       0.00000000
Ni       0.00000000       2.52419126       4.73591359       0.00000000       0.00000000       0.00000000
Ni       0.00000000       4.99395066       1.95418152       0.00000000       0.00000000       0.00000000
Ni       1.88115327       1.38543010       1.23285556       0.00000000      -0.00002537      -0.00193828
Ni       1.88115327       3.62666461       3.22720648       0.00000000       0.00002537       0.00193828
5
Lattice="4.166270304688766 0.0 0.0 -2.0831351523448824 3.6080942406185104 0.0 0.0 0.0 5.0550982452211" Properties=species:S:1:pos:R:3:forces:R:3 config_id=cfg065_Al3Ni2_iso_expansion phase=Al3Ni2 config_type=iso_expansion source=QE_7.6_PBE provenance=/workspace/ni_al/data/expansion_026_100/production_gpu/chunk_04/cfg065_Al3Ni2_iso_expansion/attempt_001/qe.out qe_output_sha256=63581776c619da7bc83de3850d5bfbbcef2109fc28c879b04a89e82fac409bfc canonical_input=/workspace/ni_al/data/expansion_026_100/qe_inputs/cfg065_Al3Ni2_iso_expansion.in canonical_input_sha256=8185631ebdbb8b3b19f2a6886d9e9ad0f206c9095241c430f81cb6f6ff1ed692 dataset_origin=Expansion-75 source_record=Expansion-75:63581776c619da7bc83de3850d5bfbbcef2109fc28c879b04a89e82fac409bfc original_dataset=/workspace/ni_al/data/processed/ni_al_expansion_dft_75.extxyz original_dataset_sha256=ff69c2bfed14bfcf48931949647d8f1b3c9353a89c20378c9113155940792137 energy=-10956.302440159698 stress="0.05921949254154475 8.19270614662113e-15 2.0864798963775987e-23 8.19270614662113e-15 0.0592195477637592 1.204630291491502e-23 2.0864798963775987e-23 1.204630291491502e-23 0.06358304885487606" pbc="T T T"
Al       0.00000000       0.00000000       0.00000000      -0.00000000      -0.00000000       0.00000000
Al      -0.00000291       2.40539783       3.27322985       0.00000000       0.00000000       0.10024144
Al       2.08313682       1.20269683       1.78186798       0.00000000      -0.00000000      -0.10024144
Ni      -0.00000291       2.40539783       0.74127656       0.00000000       0.00000000      -0.07278772
Ni       2.08313682       1.20269683       4.31382168       0.00000000       0.00000000       0.07278772
5
Lattice="4.044922625911538 0.0 0.0 -2.022461312955769 3.503004117104864 0.0 0.0 0.0 4.981480309611284" Properties=species:S:1:pos:R:3:forces:R:3 config_id=cfg066_Al3Ni2_uniaxial_z_expansion phase=Al3Ni2 config_type=uniaxial_z_expansion source=QE_7.6_PBE provenance=/workspace/ni_al/data/expansion_026_100/production_gpu/chunk_04/cfg066_Al3Ni2_uniaxial_z_expansion/attempt_001/qe.out qe_output_sha256=5127090916826fb848382931514a242db5c2f35eb7ad3b621f7d96354bc0ded2 canonical_input=/workspace/ni_al/data/expansion_026_100/qe_inputs/cfg066_Al3Ni2_uniaxial_z_expansion.in canonical_input_sha256=ebb3242c186f378891287bf1891c2dfc96faeb6d1416c32078f9f063ab7aa474 dataset_origin=Expansion-75 source_record=Expansion-75:5127090916826fb848382931514a242db5c2f35eb7ad3b621f7d96354bc0ded2 original_dataset=/workspace/ni_al/data/processed/ni_al_expansion_dft_75.extxyz original_dataset_sha256=ff69c2bfed14bfcf48931949647d8f1b3c9353a89c20378c9113155940792137 energy=-10956.500899199755 stress="0.006521554114600017 -0.0 -4.111290436211972e-23 -0.0 0.006521560195955556 -2.373655746781086e-23 -4.111290436211972e-23 -2.373655746781086e-23 0.023856698003833603" pbc="T T T"
Al       0.00000000       0.00000000       0.00000000      -0.00000000       0.00000000       0.00000000
Al      -0.00000283       2.33533770       3.22556145      -0.00000000      -0.00000000       0.03238792
Al       2.02246293       1.16766683       1.75591844      -0.00000000       0.00000000      -0.03238792
Ni      -0.00000283       2.33533770       0.73048127      -0.00000000      -0.00000000       0.01166828
Ni       2.02246293       1.16766683       4.25099903       0.00000000       0.00000000      -0.01166828
2
Lattice="2.8650681545287275 0.0 0.0 0.0 2.8650681545287275 0.0 0.0 0.0 2.8650681545287275" Properties=species:S:1:pos:R:3:forces:R:3 config_id=cfg076_AlNi_iso_compression phase=AlNi config_type=iso_compression source=QE_7.6_PBE provenance=/workspace/ni_al/data/expansion_026_100/production_gpu/chunk_04/cfg076_AlNi_iso_compression/attempt_001/qe.out qe_output_sha256=306852114e035f1914aae65fef365f5530fef0ba2ceca3a56d21c34420854820 canonical_input=/workspace/ni_al/data/expansion_026_100/qe_inputs/cfg076_AlNi_iso_compression.in canonical_input_sha256=7c66b50e95ff7c4d6bdf9250c5dda24bca68d0f34c05913996e9740e9ce5e5b4 dataset_origin=Expansion-75 source_record=Expansion-75:306852114e035f1914aae65fef365f5530fef0ba2ceca3a56d21c34420854820 original_dataset=/workspace/ni_al/data/processed/ni_al_expansion_dft_75.extxyz original_dataset_sha256=ff69c2bfed14bfcf48931949647d8f1b3c9353a89c20378c9113155940792137 energy=-5209.300376184111 stress="-0.03230328224407429 -0.0 -0.0 -0.0 -0.03230328224407429 -0.0 -0.0 -0.0 -0.03230328224407429" pbc="T T T"
Al       1.43253408       1.43253408       1.43253408       0.00000000      -0.00000000       0.00000000
Ni       0.00000000       0.00000000       0.00000000       0.00000000       0.00000000       0.00000000
2
Lattice="2.9229483192666317 0.0 0.0 0.0 2.9229483192666317 0.0 0.0 0.0 2.9229483192666317" Properties=species:S:1:pos:R:3:forces:R:3 config_id=cfg077_AlNi_iso_expansion phase=AlNi config_type=iso_expansion source=QE_7.6_PBE provenance=/workspace/ni_al/data/expansion_026_100/production_gpu/chunk_04/cfg077_AlNi_iso_expansion/attempt_001/qe.out qe_output_sha256=d4686ca28124fac921db70edbe9ece201ab680b1e7862632d629a4775c88280f canonical_input=/workspace/ni_al/data/expansion_026_100/qe_inputs/cfg077_AlNi_iso_expansion.in canonical_input_sha256=f0138599606ba76a54911d00148daba5b1fcc7aff8ecbce1784c12f236481398 dataset_origin=Expansion-75 source_record=Expansion-75:d4686ca28124fac921db70edbe9ece201ab680b1e7862632d629a4775c88280f original_dataset=/workspace/ni_al/data/processed/ni_al_expansion_dft_75.extxyz original_dataset_sha256=ff69c2bfed14bfcf48931949647d8f1b3c9353a89c20378c9113155940792137 energy=-5209.301511710205 stress="0.027845032756263696 -0.0 -0.0 -0.0 0.027845032756263696 -0.0 -0.0 -0.0 0.027845032756263696" pbc="T T T"
Al       1.46147416       1.46147416       1.46147416       0.00000000       0.00000000       0.00000000
Ni       0.00000000       0.00000000       0.00000000       0.00000000       0.00000000       0.00000000
16
Lattice="4.825504516972251 0.0 0.0 0.0 6.623033902572181 0.0 0.07382491105468436 0.0 7.382491105471437" Properties=species:S:1:pos:R:3:forces:R:3 config_id=cfg034_Al3Ni_shear_xz_positive phase=Al3Ni config_type=shear_xz_positive source=QE_7.6_PBE provenance=/workspace/ni_al/data/expansion_026_100/production_gpu/chunk_05/cfg034_Al3Ni_shear_xz_positive/attempt_001/qe.out qe_output_sha256=8acca00d985229653cecb91d351b5a2a0735e87a926677db6c86165d4a0c246a canonical_input=/workspace/ni_al/data/expansion_026_100/qe_inputs/cfg034_Al3Ni_shear_xz_positive.in canonical_input_sha256=7160e6720b35d8c5602659408bc342a65521fa4ec3930a6cce006b9622ff118d dataset_origin=Expansion-75 source_record=Expansion-75:8acca00d985229653cecb91d351b5a2a0735e87a926677db6c86165d4a0c246a original_dataset=/workspace/ni_al/data/processed/ni_al_expansion_dft_75.extxyz original_dataset_sha256=ff69c2bfed14bfcf48931949647d8f1b3c9353a89c20378c9113155940792137 energy=-25138.171077501385 stress="7.84282958091255e-05 -0.0 0.0052364619689927745 -0.0 0.00014771574812527324 -0.0 0.0052364619689927745 -0.0 -5.455162013132951e-05" pbc="T T T"
Al       4.43873949       0.04972103       1.84562326      -0.00006621       0.00002093       0.00637802
Al       1.78979626       1.13466431       3.28334421       0.01087508       0.00039406      -0.00435590
Al       1.76104184       1.13466431       0.40790231      -0.01443909       0.00411867      -0.00119026
Al       4.21070800       2.17685313       4.09914738      -0.01443909      -0.00411867      -0.00119026
Al       0.68862290       4.44617933       3.28334566       0.01443909       0.00411867       0.00119026
Al       3.13828906       5.48836815       6.97459073       0.01443909      -0.00411867       0.00119026
Al       0.65986845       4.44617933       0.40790086      -0.01087508       0.00039406       0.00435590
Al       3.10953463       5.48836815       4.09914835      -0.01087508      -0.00039406       0.00435590
Al       4.23946244       2.17685313       6.97459170       0.01087508      -0.00039406      -0.00435590
Al       2.83643023       3.36123557       1.84562326       0.00006621       0.00002093      -0.00637802
Al       0.46059141       6.57331143       5.53686978       0.00006621      -0.00002093      -0.00637802
Al       2.06290067       3.26179689       5.53686978      -0.00006621      -0.00002093       0.00637802
Ni       2.15649831       5.76440149       1.84562326       0.00084430      -0.00076395      -0.00456620
Ni       0.29316738       2.45288453       1.84562326      -0.00084430      -0.00076395       0.00456620
Ni       2.74283259       0.85863097       5.53686978      -0.00084430       0.00076395       0.00456620
Ni       4.60616351       4.17014793       5.53686978       0.00084430       0.00076395      -0.00456620
16
Lattice="4.825504516972251 0.0 0.0 0.0 6.623033902572181 0.0 0.0 0.0 7.382491105471437" Properties=species:S:1:pos:R:3:forces:R:3 config_id=cfg035_Al3Ni_rattle_small phase=Al3Ni config_type=rattle_small source=QE_7.6_PBE provenance=/workspace/ni_al/data/expansion_026_100/production_gpu/chunk_05/cfg035_Al3Ni_rattle_small/attempt_001/qe.out qe_output_sha256=f1eac5751f71e427f842f4b4af74d51aec208b5fcfb460740301e1d265425cbb canonical_input=/workspace/ni_al/data/expansion_026_100/qe_inputs/cfg035_Al3Ni_rattle_small.in canonical_input_sha256=09dc342b0b2eff431b7bdbe861fffcc5838d8c9b7beff0dfac6d62c7656be9c8 dataset_origin=Expansion-75 source_record=Expansion-75:f1eac5751f71e427f842f4b4af74d51aec208b5fcfb460740301e1d265425cbb original_dataset=/workspace/ni_al/data/processed/ni_al_expansion_dft_75.extxyz original_dataset_sha256=ff69c2bfed14bfcf48931949647d8f1b3c9353a89c20378c9113155940792137 energy=-25138.16147250776 stress="-0.0013294860850821355 7.221529529837423e-05 0.00013497697956077186 7.221529529837423e-05 0.001057556401211487 0.00040780286468693465 0.00013497697956077186 0.00040780286468693465 4.749781361740631e-06" pbc="T T T"
Al       4.40855097       0.03463573       1.83849640       0.09485736       0.12104246       0.02630609
Al       1.75145523       1.12959195       3.28790077       0.03078870      -0.02617667      -0.00310676
Al       1.75433720       1.14154636       0.41703226       0.00353027      -0.02584909      -0.05548414
Al       4.16360100       2.17948439       4.11321511       0.03176565      -0.00503526      -0.07790395
Al       0.64507135       4.46656053       3.28468430       0.12849028      -0.12247667      -0.05797783
Al       3.07883266       5.49218687       6.96948149      -0.04862715       0.01392816       0.02697670
Al       0.66020973       4.44642566       0.40782472       0.02871239      -0.02119194       0.04842470
Al       3.08464678       5.46482028       4.09712442      -0.13511677       0.16646960      -0.00208373
Al       4.16482523       2.18968489       6.97070968      -0.00177478      -0.08863770       0.06222440
Al       2.81274842       3.35726307       1.83055262      -0.00144726       0.03078002       0.09211438
Al       0.42505717       6.57708010       5.53049417      -0.15405680      -0.05232306       0.05322236
Al       2.00361451       3.26466757       5.51982508       0.02278854      -0.03592295       0.06246102
Ni       2.14134953       5.77510774       1.84407190      -0.05836572      -0.14981040       0.00181985
Ni       0.27075057       2.44002853       1.86462255      -0.03091253       0.12663217      -0.13125737
Ni       2.67594271       0.85554376       5.53839834       0.13839617       0.03563303       0.00037887
Ni       4.56305467       4.16963221       5.54550950      -0.04902836       0.03293832      -0.04611459
8
Lattice="3.7623065419586723 0.0 0.0 0.0 4.9813239600063834 -0.5517008690064054 0.0 -0.013830238848135959 5.011764782236874" Properties=species:S:1:pos:R:3:forces:R:3 config_id=cfg053_Al3Ni5_rattle_small phase=Al3Ni5 config_type=rattle_small source=QE_7.6_PBE provenance=/workspace/ni_al/data/expansion_026_100/production_gpu/chunk_05/cfg053_Al3Ni5_rattle_small/attempt_001/qe.out qe_output_sha256=a71b81b90ae1e6f9178b9244e8a20125c0fec0d0e8dbd0181800ee047b5726b6 canonical_input=/workspace/ni_al/data/expansion_026_100/qe_inputs/cfg053_Al3Ni5_rattle_small.in canonical_input_sha256=f18e69a893a62b88c0cbe7d9767ce8b4620ecf05673b38b7997af6cecf957f24 dataset_origin=Expansion-75 source_record=Expansion-75:a71b81b90ae1e6f9178b9244e8a20125c0fec0d0e8dbd0181800ee047b5726b6 original_dataset=/workspace/ni_al/data/processed/ni_al_expansion_dft_75.extxyz original_dataset_sha256=ff69c2bfed14bfcf48931949647d8f1b3c9353a89c20378c9113155940792137 energy=-24969.620927373522 stress="-0.0006539904208734413 0.0004476542123336278 0.00044490752556507337 0.0004476542123336278 -0.0008566312711253417 -0.00018863016092458043 0.00044490752556507337 -0.00018863016092458043 -0.00034052201032154945" pbc="T T T"
Al       3.76211220       2.48024855       2.24181458       0.00728792       0.02304388      -0.05314472
Al       1.87993846       1.07582144       3.78888161       0.01588907       0.18249599      -0.01206548
Al       1.87958537       3.87398559       0.66746969       0.01405978       0.05389681       0.02736367
Ni       0.00268474      -0.01347632       4.99691800      -0.02626700      -0.00685629       0.19361012
Ni       3.75458562       2.49550536      -0.26889312       0.04793863      -0.04091280      -0.03251494
Ni       0.00627493      -0.00376478       2.51464506      -0.04403995      -0.03868912      -0.19119524
Ni       1.87659817       1.37156759       1.23605364       0.03633330      -0.00690858      -0.00065172
Ni       1.88744667       3.60876500       3.21506142      -0.05120175      -0.16606989       0.06859831
8
Lattice="3.7623065419586723 0.0 0.0 0.0 4.9813239600063834 -0.5517008690064054 0.0 -0.013830238848135959 5.011764782236874" Properties=species:S:1:pos:R:3:forces:R:3 config_id=cfg054_Al3Ni5_rattle_large phase=Al3Ni5 config_type=rattle_large source=QE_7.6_PBE provenance=/workspace/ni_al/data/expansion_026_100/production_gpu/chunk_05/cfg054_Al3Ni5_rattle_large/attempt_001/qe.out qe_output_sha256=e93e0f498702a25850b55d3a44f16c3a5ab62249b813407607f39969f80fcab0 canonical_input=/workspace/ni_al/data/expansion_026_100/qe_inputs/cfg054_Al3Ni5_rattle_large.in canonical_input_sha256=06d69261125dba6d190f3c1a519be30e3e0c7d9ee3dfca3d21953470b896d065 dataset_origin=Expansion-75 source_record=Expansion-75:e93e0f498702a25850b55d3a44f16c3a5ab62249b813407607f39969f80fcab0 original_dataset=/workspace/ni_al/data/processed/ni_al_expansion_dft_75.extxyz original_dataset_sha256=ff69c2bfed14bfcf48931949647d8f1b3c9353a89c20378c9113155940792137 energy=-24969.468029927444 stress="-0.0035731526552942954 -0.0032330402361969083 -0.0036086831017431136 -0.0032330402361969083 -0.012219111648149414 -0.00031345139931512157 -0.0036086831017431136 -0.00031345139931512157 -0.0031491333273663464" pbc="T T T"
Al       3.75691782       2.49750920       2.17401634      -0.00043218      -0.14551569       0.28803537
Al       1.91759735       1.07150011       3.79853720      -0.42467496       0.14627619      -0.38230141
Al       1.92670795       3.94079955       0.68642262      -0.44164592      -0.62503420      -0.00759935
Ni       3.74280286       0.05943371       0.01034545       0.36132188      -0.94988117       0.18564319
Ni       0.00057914       2.39633596       4.69351234       0.08356780       1.04838574       0.08974743
Ni       3.74942262       4.95114988       1.97876611       0.21487310       0.29068880      -0.04178691
Ni       1.89649925       1.34775780       1.21876802      -0.19740607       0.45060201       0.19509843
Ni       1.82100571       3.60549018       3.27988193       0.40439634      -0.21552169      -0.32683675
5
Lattice="4.044922625911538 0.0 0.0 -2.0574913541263182 3.503004117104864 0.0 0.0 0.0 4.907862374000466" Properties=species:S:1:pos:R:3:forces:R:3 config_id=cfg067_Al3Ni2_shear_xy_negative phase=Al3Ni2 config_type=shear_xy_negative source=QE_7.6_PBE provenance=/workspace/ni_al/data/expansion_026_100/production_gpu/chunk_05/cfg067_Al3Ni2_shear_xy_negative/attempt_001/qe.out qe_output_sha256=43cb01e46147ed3d074fb7dba9ecb795e19903d7a51b67f85ae4d4b0bd76332d canonical_input=/workspace/ni_al/data/expansion_026_100/qe_inputs/cfg067_Al3Ni2_shear_xy_negative.in canonical_input_sha256=f980bd7888fcfd7c675ae2f89fe1c6afffa621909b2a709d1c8b70e2984ddce8 dataset_origin=Expansion-75 source_record=Expansion-75:43cb01e46147ed3d074fb7dba9ecb795e19903d7a51b67f85ae4d4b0bd76332d original_dataset=/workspace/ni_al/data/processed/ni_al_expansion_dft_75.extxyz original_dataset_sha256=ff69c2bfed14bfcf48931949647d8f1b3c9353a89c20378c9113155940792137 energy=-10956.51162873996 stress="-0.00014544359194458456 -0.0053356508611040925 0.0002591305627366287 -0.0053356508611040925 -2.8894926503471923e-05 1.7445009686681873e-05 0.0002591305627366287 1.7445009686681873e-05 -0.00012687616706580167" pbc="T T T"
Al       0.00000000       0.00000000       0.00000000       0.00000000       0.00000000       0.00000000
Al      -0.02335621       2.33533770       3.17789306       0.03669534       0.00067008      -0.00255539
Al       2.01078626       1.16766683       1.72996891      -0.03669534      -0.00067008       0.00255539
Ni      -0.02335621       2.33533770       0.71968598      -0.00731514      -0.00019997      -0.00183248
Ni       2.01078626       1.16766683       4.18817639       0.00731514       0.00019997       0.00183248
5
Lattice="4.044922625911538 0.0 0.0 -2.022461312955769 3.503004117104864 0.0 0.0 0.0 4.907862374000466" Properties=species:S:1:pos:R:3:forces:R:3 config_id=cfg068_Al3Ni2_rattle_small phase=Al3Ni2 config_type=rattle_small source=QE_7.6_PBE provenance=/workspace/ni_al/data/expansion_026_100/production_gpu/chunk_05/cfg068_Al3Ni2_rattle_small/attempt_001/qe.out qe_output_sha256=86a86557e99f16d4a296703412a444edd32fdf16335100eff7023e7c62f33ef4 canonical_input=/workspace/ni_al/data/expansion_026_100/qe_inputs/cfg068_Al3Ni2_rattle_small.in canonical_input_sha256=220bec71a9d3acf264a15f7eedae7cf5e30d69bd142087abd15bfdccdb72f49b dataset_origin=Expansion-75 source_record=Expansion-75:86a86557e99f16d4a296703412a444edd32fdf16335100eff7023e7c62f33ef4 original_dataset=/workspace/ni_al/data/processed/ni_al_expansion_dft_75.extxyz original_dataset_sha256=ff69c2bfed14bfcf48931949647d8f1b3c9353a89c20378c9113155940792137 energy=-10956.505730358405 stress="-0.0017660712112203285 0.00048677303612871793 -0.0006025347103021194 0.00048677303612871793 0.0006633855367433502 0.0007018292149954492 -0.0006025347103021194 0.0007018292149954492 -0.00014922827478905458" pbc="T T T"
Al       0.00617963       0.01245171       0.00365095      -0.03340852      -0.20755644      -0.02094616
Al      -0.00763005       2.33122889       3.16916611       0.05916693       0.01868614       0.10823031
Al       2.01187645       1.18193143       1.72367147       0.05074767      -0.08060906       0.10627349
Ni      -0.00439783       2.33587862       0.72199542       0.04984805       0.04960754      -0.05939275
Ni       2.03889200       1.14451841       4.19724038      -0.12635413       0.21987183      -0.13416489
2
Lattice="2.8071879897908256 0.0 0.0 0.0 2.8071879897908256 0.0 0.0 0.0 2.8071879897908256" Properties=species:S:1:pos:R:3:forces:R:3 config_id=cfg078_AlNi_iso_compression phase=AlNi config_type=iso_compression source=QE_7.6_PBE provenance=/workspace/ni_al/data/expansion_026_100/production_gpu/chunk_05/cfg078_AlNi_iso_compression/attempt_001/qe.out qe_output_sha256=f8ded2d8f1f09ef7346c9f6190e1ad5ee1e56d7ed907d236a8278b6b87c6092d canonical_input=/workspace/ni_al/data/expansion_026_100/qe_inputs/cfg078_AlNi_iso_compression.in canonical_input_sha256=3abb7d30beb78feee89aa9c348d3a79a9e7124b69a7d4f9c4f544dfda3841bfa dataset_origin=Expansion-75 source_record=Expansion-75:f8ded2d8f1f09ef7346c9f6190e1ad5ee1e56d7ed907d236a8278b6b87c6092d original_dataset=/workspace/ni_al/data/processed/ni_al_expansion_dft_75.extxyz original_dataset_sha256=ff69c2bfed14bfcf48931949647d8f1b3c9353a89c20378c9113155940792137 energy=-5209.202794555083 stress="-0.11140945079943865 -0.0 -0.0 -0.0 -0.11140945079943865 -0.0 -0.0 -0.0 -0.11140945079943865" pbc="T T T"
Al       1.40359400       1.40359400       1.40359400       0.00000000       0.00000000       0.00000000
Ni       0.00000000       0.00000000       0.00000000       0.00000000       0.00000000       0.00000000
2
Lattice="2.9808284840045354 0.0 0.0 0.0 2.9808284840045354 0.0 0.0 0.0 2.9808284840045354" Properties=species:S:1:pos:R:3:forces:R:3 config_id=cfg079_AlNi_iso_expansion phase=AlNi config_type=iso_expansion source=QE_7.6_PBE provenance=/workspace/ni_al/data/expansion_026_100/production_gpu/chunk_05/cfg079_AlNi_iso_expansion/attempt_001/qe.out qe_output_sha256=43274457c1f4819220d416c8bbc97c4e3d3896ffcb04343ac16b4345dc9a2e4e canonical_input=/workspace/ni_al/data/expansion_026_100/qe_inputs/cfg079_AlNi_iso_expansion.in canonical_input_sha256=4ae1785706b452b57a470cb7fd9697c0232bcf4fd33d229d8f09031716a89581 dataset_origin=Expansion-75 source_record=Expansion-75:43274457c1f4819220d416c8bbc97c4e3d3896ffcb04343ac16b4345dc9a2e4e original_dataset=/workspace/ni_al/data/processed/ni_al_expansion_dft_75.extxyz original_dataset_sha256=ff69c2bfed14bfcf48931949647d8f1b3c9353a89c20378c9113155940792137 energy=-5209.223906903084 stress="0.07260417466524952 -0.0 -0.0 -0.0 0.07260417466524952 -0.0 -0.0 -0.0 0.07260417466524952" pbc="T T T"
Al       1.49041424       1.49041424       1.49041424       0.00000000      -0.00000000       0.00000000
Ni       0.00000000       0.00000000       0.00000000       0.00000000      -0.00000000       0.00000000
16
Lattice="4.825504516972251 0.0 0.0 0.0 6.623033902572181 0.0 0.0 0.0 7.382491105471437" Properties=species:S:1:pos:R:3:forces:R:3 config_id=cfg036_Al3Ni_rattle_large phase=Al3Ni config_type=rattle_large source=QE_7.6_PBE provenance=/workspace/ni_al/data/expansion_026_100/production_gpu/chunk_06/cfg036_Al3Ni_rattle_large/attempt_001/qe.out qe_output_sha256=d71dc38b11125530c92fd201be19e61a98db8909a4e6177d05f9b96c6e1a82b5 canonical_input=/workspace/ni_al/data/expansion_026_100/qe_inputs/cfg036_Al3Ni_rattle_large.in canonical_input_sha256=4cbd3dc21906604aebc0f0cea5ab6cfcf9d64c682b73a7de191df40ac4adc1dd dataset_origin=Expansion-75 source_record=Expansion-75:d71dc38b11125530c92fd201be19e61a98db8909a4e6177d05f9b96c6e1a82b5 original_dataset=/workspace/ni_al/data/processed/ni_al_expansion_dft_75.extxyz original_dataset_sha256=ff69c2bfed14bfcf48931949647d8f1b3c9353a89c20378c9113155940792137 energy=-25137.940048523098 stress="-0.0019647960657740472 0.002866775687389219 0.0003933484959605409 0.002866775687389219 -0.0033290794633330546 0.000800194848901844 0.0003933484959605409 0.000800194848901844 -0.0025941013295871823" pbc="T T T"
Al       4.39719298       0.01151977       1.95897627       0.14084981       0.36151087      -0.48427711
Al       1.75731821       1.08289435       3.26321129       0.01743301       0.49587800       0.10755028
Al       1.72393469       1.20786947       0.42987767       0.52102589      -0.64886041      -0.31847154
Al       4.16014494       2.21429174       4.05985553       0.02555162      -0.25540742       0.06477737
Al       0.63841601       4.48168166       3.26155761       0.20358047      -0.29981719       0.23930234
Al       3.01260591       5.51469848       6.97421327       0.31527607      -0.10996984       0.09327936
Al       0.62150277       4.43302047       0.38457846       0.15979083       0.22097785       0.11770574
Al       3.10953108       5.51406480       4.15546877      -0.29918262      -0.33414240      -0.20601868
Al       4.19201463       2.12304584       6.97418657      -0.31546196       0.08567036      -0.17273829
Al       2.85603968       3.37191264       1.84931074      -0.19126475       0.06578368      -0.06596232
Al       0.44731729       6.61762567       5.47474540      -0.44622331      -0.41044224       0.29484436
Al       2.01607066       3.22364153       5.51964133      -0.05264998       0.14918593       0.03818343
Ni       2.13431648       5.77207806       1.90292518      -0.02055020      -0.21375173      -0.62272818
Ni       0.32321790       2.46524293       1.79937864      -0.45208320       0.02619680       0.63341434
Ni       2.66355785       0.82745214       5.52409928       0.38918922       0.48338870       0.18958101
Ni       4.55086665       4.12322010       5.52791731       0.00471910       0.38379903       0.09155788
16
Lattice="4.704866904048569 0.0 0.0 0.0 6.457458055007304 0.0 0.0 0.0 7.197928827834721" Properties=species:S:1:pos:R:3:forces:R:3 config_id=cfg037_Al3Ni_volume_rattle_compression phase=Al3Ni config_type=volume_rattle_compression source=QE_7.6_PBE provenance=/workspace/ni_al/data/expansion_026_100/production_gpu/chunk_06/cfg037_Al3Ni_volume_rattle_compression/attempt_001/qe.out qe_output_sha256=8cc2b5a84919bf167a96cb4934eaf8af8ce5bf8c0b18cb411f6639452d6603b8 canonical_input=/workspace/ni_al/data/expansion_026_100/qe_inputs/cfg037_Al3Ni_volume_rattle_compression.in canonical_input_sha256=ee886545d2e4fd7745350117150032ab9cf771c55d4a798a6997a0d726213d8e dataset_origin=Expansion-75 source_record=Expansion-75:8cc2b5a84919bf167a96cb4934eaf8af8ce5bf8c0b18cb411f6639452d6603b8 original_dataset=/workspace/ni_al/data/processed/ni_al_expansion_dft_75.extxyz original_dataset_sha256=ff69c2bfed14bfcf48931949647d8f1b3c9353a89c20378c9113155940792137 energy=-25137.558487554972 stress="-0.06301434302104762 0.0009762055724373125 -0.0004666103699817858 0.0009762055724373125 -0.06482555525597665 -0.00027691604925181795 -0.0004666103699817858 -0.00027691604925181795 -0.06797683122723272" pbc="T T T"
Al       4.33575647       0.02188835       1.78791589      -0.22546150       0.00704808       0.09229074
Al       1.72847081       1.10050675       3.21878985      -0.17430067       0.12335044      -0.15623260
Al       1.70256577       1.14156887       0.41271567       0.32711860      -0.27770829      -0.19466212
Al       4.08569119       2.11275109       3.97277790      -0.13152728      -0.03801517       0.26708223
Al       0.64500270       4.31245510       3.21416161      -0.09092729       0.18886524      -0.10483882
Al       3.00669214       5.33878718       6.81425650      -0.34374753       0.19954317       0.21333955
Al       0.64143418       4.32925650       0.37465526       0.10082471       0.01935213       0.19580498
Al       3.00355002       5.37163777       4.02299606      -0.20829869      -0.09106653      -0.44003145
Al       4.09041848       2.10725161       6.79581565      -0.30293793       0.10313153      -0.22131290
Al       2.71655083       3.26922503       1.81303707       0.13038003       0.14470543      -0.03495936
Al       0.36614126       6.40335657       5.39862379       0.44832743       0.21493164       0.05151712
Al       1.98099423       3.21418662       5.35561228      -0.09647058      -0.25492121       0.19777808
Ni       2.06096970       5.61873185       1.79888035       0.21791646       0.04936179       0.10086269
Ni       0.21946812       2.38484201       1.76125409       0.33576152       0.07684740       0.55005240
Ni       2.63591891       0.83260014       5.42362540      -0.25413255       0.19120660      -0.14695877
Ni       4.41932174       4.10060769       5.41832739       0.26747527      -0.65663226      -0.36973175
8
Lattice="3.6682488784099556 0.0 0.0 0.0 4.856790861006198 -0.5379083472812455 0.0 -0.013484482877357562 4.886470662681177" Properties=species:S:1:pos:R:3:forces:R:3 config_id=cfg055_Al3Ni5_volume_rattle_compression phase=Al3Ni5 config_type=volume_rattle_compression source=QE_7.6_PBE provenance=/workspace/ni_al/data/expansion_026_100/production_gpu/chunk_06/cfg055_Al3Ni5_volume_rattle_compression/attempt_001/qe.out qe_output_sha256=e82afbbf5014d4991165ace425633078a7dda816cb386774e4f27ec4998d94c4 canonical_input=/workspace/ni_al/data/expansion_026_100/qe_inputs/cfg055_Al3Ni5_volume_rattle_compression.in canonical_input_sha256=aef33ade05757a2a1ec121e554c903bb90678f39329705b03b494143ae5ecd4b dataset_origin=Expansion-75 source_record=Expansion-75:e82afbbf5014d4991165ace425633078a7dda816cb386774e4f27ec4998d94c4 original_dataset=/workspace/ni_al/data/processed/ni_al_expansion_dft_75.extxyz original_dataset_sha256=ff69c2bfed14bfcf48931949647d8f1b3c9353a89c20378c9113155940792137 energy=-24969.264215197218 stress="-0.0988975154665146 0.0034121794558092926 0.0031773108252064527 0.0034121794558092926 -0.09559935091690774 -0.0010750390870967325 0.0031773108252064527 -0.0010750390870967325 -0.09789248089116391" pbc="T T T"
Al       0.01629845       2.40163996       2.16181980      -0.43353841       0.20467373       0.27687047
Al       1.85368721       1.06908573       3.68194635      -0.22731024       0.06193259       0.05616452
Al       1.85346800       3.78431634       0.61839279      -0.21626258      -0.06076256       0.56527152
Ni       0.01698038       0.00322420       0.01484832      -0.12356751       0.16296276      -0.14918541
Ni       0.00123854       2.44406693      -0.24362278       0.04807799      -0.18050569      -0.35888924
Ni       3.63074899       4.83478705       1.92427558       0.40500783       0.01321662      -0.17067621
Ni       1.78985525       1.33628819       1.19994974       0.59377974      -0.05828347       0.01051053
Ni       1.84246980       3.51330307       3.15016329      -0.04618681      -0.14323400      -0.23006618
4
Lattice="3.674278643670091 0.0 0.0 0.0 3.6744072434230084 0.0 0.0 0.0 3.6744072434230084" Properties=species:S:1:pos:R:3:forces:R:3 config_id=cfg092_AlNi3_iso_expansion phase=AlNi3 config_type=iso_expansion source=QE_7.6_PBE provenance=/workspace/ni_al/data/expansion_026_100/production_gpu/chunk_06/cfg092_AlNi3_iso_expansion/attempt_001/qe.out qe_output_sha256=891c375850c424f78e4d45d5940a2446290cf1eb9a2aebf35c9542c8d20fe173 canonical_input=/workspace/ni_al/data/expansion_026_100/qe_inputs/cfg092_AlNi3_iso_expansion.in canonical_input_sha256=6f4f567c540e32b272a285f0a89894ad0a2cb3b15563405ce52de5d7ab9c3bff dataset_origin=Expansion-75 source_record=Expansion-75:891c375850c424f78e4d45d5940a2446290cf1eb9a2aebf35c9542c8d20fe173 original_dataset=/workspace/ni_al/data/processed/ni_al_expansion_dft_75.extxyz original_dataset_sha256=ff69c2bfed14bfcf48931949647d8f1b3c9353a89c20378c9113155940792137 energy=-14550.662591798167 stress="0.08212882230102622 -0.0 -0.0 -0.0 0.08214632541231354 -0.0 -0.0 -0.0 0.08214632541231355" pbc="T T T"
Al       0.00000000       0.00000000       0.00000000       0.00000000       0.00000000       0.00000000
Ni       0.00000000       1.83720325       1.83720288       0.00000000       0.00000000       0.00000000
Ni       1.83713932       0.00000000       1.83720288       0.00000000       0.00000000       0.00000000
Ni       1.83713932       1.83720325       0.00000000       0.00000000       0.00000000       0.00000000
4
Lattice="3.5672608190976813 0.0 0.0 0.0 3.5138748881278965 0.0 0.0 0.0 3.567385673225601" Properties=species:S:1:pos:R:3:forces:R:3 config_id=cfg093_AlNi3_uniaxial_y_compression phase=AlNi3 config_type=uniaxial_y_compression source=QE_7.6_PBE provenance=/workspace/ni_al/data/expansion_026_100/production_gpu/chunk_06/cfg093_AlNi3_uniaxial_y_compression/attempt_001/qe.out qe_output_sha256=35a9690036c733b7d3f14afe0f610991a4d7ae582f6348931ae593822a30d2dc canonical_input=/workspace/ni_al/data/expansion_026_100/qe_inputs/cfg093_AlNi3_uniaxial_y_compression.in canonical_input_sha256=13b738ff4f8320507008eb90cb6ceca75b4160de183207c98abc2ada28a7eadd dataset_origin=Expansion-75 source_record=Expansion-75:35a9690036c733b7d3f14afe0f610991a4d7ae582f6348931ae593822a30d2dc original_dataset=/workspace/ni_al/data/processed/ni_al_expansion_dft_75.extxyz original_dataset_sha256=ff69c2bfed14bfcf48931949647d8f1b3c9353a89c20378c9113155940792137 energy=-14550.840666412181 stress="-0.01498172544761712 -0.0 -0.0 -0.0 -0.024024160676505025 -0.0 -0.0 -0.0 -0.014957809467225523" pbc="T T T"
Al       0.00000000       0.00000000       0.00000000       0.00000000       0.00000000       0.00000000
Ni       0.00000000       1.75693709       1.78369212       0.00000000       0.00000000       0.00000000
Ni       1.78363041       0.00000000       1.78369212       0.00000000       0.00000000       0.00000000
Ni       1.78363041       1.75693709       0.00000000       0.00000000       0.00000000       0.00000000
5
Lattice="4.044922625911538 0.0 0.0 -2.022461312955769 3.503004117104864 0.0 0.0 0.0 4.907862374000466" Properties=species:S:1:pos:R:3:forces:R:3 config_id=cfg069_Al3Ni2_rattle_large phase=Al3Ni2 config_type=rattle_large source=QE_7.6_PBE provenance=/workspace/ni_al/data/expansion_026_100/production_gpu/chunk_06/cfg069_Al3Ni2_rattle_large/attempt_001/qe.out qe_output_sha256=b866cc17bbdb99e7df16fc84b5260e1fe1f317ac81371c060e2fc7d3e5e77e17 canonical_input=/workspace/ni_al/data/expansion_026_100/qe_inputs/cfg069_Al3Ni2_rattle_large.in canonical_input_sha256=c303c18571c0476e4c2579001da5a3b3015a701219d8e5bdcb70d712d2acd832 dataset_origin=Expansion-75 source_record=Expansion-75:b866cc17bbdb99e7df16fc84b5260e1fe1f317ac81371c060e2fc7d3e5e77e17 original_dataset=/workspace/ni_al/data/processed/ni_al_expansion_dft_75.extxyz original_dataset_sha256=ff69c2bfed14bfcf48931949647d8f1b3c9353a89c20378c9113155940792137 energy=-10956.440261840184 stress="-0.006815121124718309 0.0008256284630125974 0.0012427648734216167 0.0008256284630125974 0.002069359119725857 0.0017973751647341904 0.0012427648734216167 0.0017973751647341904 -0.005856711772885893" pbc="T T T"
Al       1.99557329       3.48605568       0.00141076       0.30600172       0.29965787      -0.05263465
Al       0.02685620       2.28765598       3.17083076      -0.28619025       0.33578456       0.21931567
Al       2.02934447       1.20931682       1.68120783       0.08091946      -0.32693203       0.63500600
Ni       0.03725108       2.34422155       0.76553568      -0.44741907      -0.03146270      -0.54571184
Ni       1.97835646       1.18176314       4.19673930       0.34668814      -0.27704770      -0.25597517
5
Lattice="3.9437995602633498 0.0 0.0 -1.971899780132175 3.415429014176993 0.0 0.0 0.0 4.785165814651104" Properties=species:S:1:pos:R:3:forces:R:3 config_id=cfg070_Al3Ni2_volume_rattle_compression phase=Al3Ni2 config_type=volume_rattle_compression source=QE_7.6_PBE provenance=/workspace/ni_al/data/expansion_026_100/production_gpu/chunk_06/cfg070_Al3Ni2_volume_rattle_compression/attempt_001/qe.out qe_output_sha256=a0385663d84d301a5c0f8db70c4ccc939602075150009e8d7c59a2c560b0f3a3 canonical_input=/workspace/ni_al/data/expansion_026_100/qe_inputs/cfg070_Al3Ni2_volume_rattle_compression.in canonical_input_sha256=a8a9b1337b97fdcb811563ec501951c28d56b59b7c6a1cf295a09164e97806fc dataset_origin=Expansion-75 source_record=Expansion-75:a0385663d84d301a5c0f8db70c4ccc939602075150009e8d7c59a2c560b0f3a3 original_dataset=/workspace/ni_al/data/processed/ni_al_expansion_dft_75.extxyz original_dataset_sha256=ff69c2bfed14bfcf48931949647d8f1b3c9353a89c20378c9113155940792137 energy=-10956.318601925355 stress="-0.07414598386909216 0.0007057085970272277 -0.00033829023036039134 0.0007057085970272277 -0.07258840579276145 -0.0010001057480424403 -0.00033829023036039134 -0.0010001057480424403 -0.0783789216826426" pbc="T T T"
Al      -0.00623558       0.03286207       0.00656849       0.15119070      -0.49947800      -0.04008018
Al      -0.00086190       2.24867855       3.09673639       0.01035651       0.28327015      -0.11474043
Al       1.96272887       1.12692489       1.68662872       0.07971795       0.02943981       0.09894171
Ni       0.00613909       2.26422403       0.70136784      -0.10072541       0.31580770       0.08109247
Ni       1.98202671       1.15816928       4.07902978      -0.14053975      -0.12903966      -0.02521357
16
Lattice="4.825504516972251 0.0 0.0 0.0 6.623033902572181 0.0 0.0 0.14764982210936867 7.382491105471437" Properties=species:S:1:pos:R:3:forces:R:3 config_id=cfg038_Al3Ni_shear_rattle_yz phase=Al3Ni config_type=shear_rattle_yz source=QE_7.6_PBE provenance=/workspace/ni_al/data/expansion_026_100/production_gpu/chunk_07/cfg038_Al3Ni_shear_rattle_yz/attempt_001/qe.out qe_output_sha256=7732d6f9245150ab17a8c08d0b7297c508fc5c517b3f952b68ae60b0f461b233 canonical_input=/workspace/ni_al/data/expansion_026_100/qe_inputs/cfg038_Al3Ni_shear_rattle_yz.in canonical_input_sha256=3404bb20195a23f9c96c74a776675bc08a9a9dd82e0a02b7ab46ae06360b820a dataset_origin=Expansion-75 source_record=Expansion-75:7732d6f9245150ab17a8c08d0b7297c508fc5c517b3f952b68ae60b0f461b233 original_dataset=/workspace/ni_al/data/processed/ni_al_expansion_dft_75.extxyz original_dataset_sha256=ff69c2bfed14bfcf48931949647d8f1b3c9353a89c20378c9113155940792137 energy=-25138.069153137694 stress="-0.0003945832469845127 -8.858546571100063e-05 -0.0008106803008036845 -8.858546571100063e-05 0.0005031523453412714 0.009167365650055173 -0.0008106803008036845 0.009167365650055173 -0.0026656318794556185" pbc="T T T"
Al       4.42938015       0.07168974       1.88060571       0.03146050       0.12021725      -0.15385482
Al       1.78006591       1.25162502       3.32167427      -0.03620772      -0.19288596      -0.32973740
Al       1.73793558       1.14680393       0.37972687       0.18758382      -0.16520929       0.06687990
Al       4.19206349       2.29830810       4.09837538      -0.12012016      -0.20464667      -0.05699852
Al       0.65879865       4.54681371       3.28274511      -0.08873904      -0.25783617      -0.03274561
Al       3.07574853       5.59941891       7.00237749      -0.07857750       0.16349629      -0.13103718
Al       0.63789994       4.44061921       0.35830339       0.28480462       0.22565003       0.36659431
Al       3.03955650       5.57031014       4.10138061       0.10467236      -0.02662895       0.03809716
Al       4.17677745       2.33195718       7.00737958      -0.25495020      -0.35923699      -0.26122608
Al       2.82104599       3.40435801       1.83376241      -0.00314970      -0.04915567      -0.03807020
Al       0.38083315       6.66017866       5.50467148       0.12664419       0.13625169       0.13306891
Al       1.99733608       3.37485101       5.57169141       0.05575505      -0.08896898      -0.08449315
Ni       2.14803937       5.79704933       1.84269914      -0.17914908       0.11099843      -0.00645050
Ni       0.29807635       2.47894859       1.81655789      -0.07409188       0.13368492       0.38862591
Ni       2.71841151       0.95782437       5.53058629      -0.11446034       0.03543171       0.15869937
Ni       4.51207907       4.23470259       5.52740628       0.15852510       0.41883835      -0.05735210
16
Lattice="4.883410571176137 0.0 0.0 0.0 6.702510309403247 0.0 0.0 0.0 7.382491105471437" Properties=species:S:1:pos:R:3:forces:R:3 config_id=cfg039_Al3Ni_biaxial_xy_expansion phase=Al3Ni config_type=biaxial_xy_expansion source=QE_7.6_PBE provenance=/workspace/ni_al/data/expansion_026_100/production_gpu/chunk_07/cfg039_Al3Ni_biaxial_xy_expansion/attempt_001/qe.out qe_output_sha256=b889d46dee8989e4bf1d632be20fce46c403273f0e29ba284671ef1b859274f9 canonical_input=/workspace/ni_al/data/expansion_026_100/qe_inputs/cfg039_Al3Ni_biaxial_xy_expansion.in canonical_input_sha256=ffce39af4662712e6c1d8c23f4bf1b21e0c3dae9e3e9bace6e755eac4bb1634d dataset_origin=Expansion-75 source_record=Expansion-75:b889d46dee8989e4bf1d632be20fce46c403273f0e29ba284671ef1b859274f9 original_dataset=/workspace/ni_al/data/processed/ni_al_expansion_dft_75.extxyz original_dataset_sha256=ff69c2bfed14bfcf48931949647d8f1b3c9353a89c20378c9113155940792137 energy=-25138.122429061823 stress="0.018394512733062435 -0.0 -0.0 -0.0 0.019191896883824104 -0.0 -0.0 -0.0 0.010077425716423206" pbc="T T T"
Al       4.47332666       0.05031768       1.84562326       0.01499187       0.01835838       0.00000000
Al       1.77804637       1.14828028       3.28334421      -0.01363440      -0.00720926      -0.02517966
Al       1.77804637       1.14828028       0.40790231      -0.01363440      -0.00720926       0.02517966
Al       4.21975313       2.20297537       4.09914738      -0.01363440       0.00720926       0.02517966
Al       0.66365891       4.49953348       3.28334566       0.01363440      -0.00720926      -0.02517966
Al       3.10536567       5.55422856       6.97459073       0.01363440       0.00720926      -0.02517966
Al       0.66365891       4.49953348       0.40790086       0.01363440      -0.00720926       0.02517966
Al       3.10536567       5.55422856       4.09914835       0.01363440       0.00720926       0.02517966
Al       4.21975313       2.20297537       6.97459170      -0.01363440       0.00720926      -0.02517966
Al       2.85178969       3.40157039       1.84562326      -0.01499187       0.01835838       0.00000000
Al       0.41008538       6.65219116       5.53686978      -0.01499187      -0.01835838       0.00000000
Al       2.03162235       3.30093845       5.53686978       0.01499187      -0.01835838       0.00000000
Ni       2.16369858       5.83357430       1.84562326       0.01070848      -0.00449046       0.00000000
Ni       0.27800768       2.48231914       1.84562326      -0.01070848      -0.00449046       0.00000000
Ni       2.71971345       0.86893454       5.53686978      -0.01070848       0.00449046       0.00000000
Ni       4.60540435       4.22018970       5.53686978       0.01070848       0.00449046       0.00000000
8
Lattice="3.830028059714269 0.0 0.0 0.0 4.9813239600063834 -0.5517008690064054 0.0 -0.013830238848135959 5.011764782236874" Properties=species:S:1:pos:R:3:forces:R:3 config_id=cfg056_Al3Ni5_uniaxial_x_expansion phase=Al3Ni5 config_type=uniaxial_x_expansion source=QE_7.6_PBE provenance=/workspace/ni_al/data/expansion_026_100/production_gpu/chunk_07/cfg056_Al3Ni5_uniaxial_x_expansion/attempt_001/qe.out qe_output_sha256=20ac5a3b00aa7c7fd325f3d0e64fdbfdc56ea82e6bfd90d70cb2d593b7c78b98 canonical_input=/workspace/ni_al/data/expansion_026_100/qe_inputs/cfg056_Al3Ni5_uniaxial_x_expansion.in canonical_input_sha256=b8c5a040932c7851de840976e28acd26ce78c83a9afd7a689c0fe44e1871b38b dataset_origin=Expansion-75 source_record=Expansion-75:20ac5a3b00aa7c7fd325f3d0e64fdbfdc56ea82e6bfd90d70cb2d593b7c78b98 original_dataset=/workspace/ni_al/data/processed/ni_al_expansion_dft_75.extxyz original_dataset_sha256=ff69c2bfed14bfcf48931949647d8f1b3c9353a89c20378c9113155940792137 energy=-24969.603300633946 stress="0.02893307828741965 -0.0 -0.0 -0.0 0.012763783384353956 0.0018579032604517777 -0.0 0.0018579032604517777 0.012362987746922155" pbc="T T T"
Al       0.00000000       2.48374724       2.23003083       0.00000000       0.00000000       0.00000000
Al       1.91501403       1.08762639       3.78500153       0.00000000      -0.01350040       0.01504646
Al       1.91501403       3.87986771       0.67506051       0.00000000       0.01350040      -0.01504646
Ni       0.00000000       0.00000000       0.00000000       0.00000000       0.00000000       0.00000000
Ni       0.00000000       2.47683212       4.73591359       0.00000000       0.00000000       0.00000000
Ni       0.00000000       4.97440884       1.95418152       0.00000000       0.00000000       0.00000000
Ni       1.91501403       1.37310155       1.23285556       0.00000000       0.05548772       0.04975709
Ni       1.91501403       3.59439255       3.22720648       0.00000000      -0.05548772      -0.04975709
4
Lattice="3.5672608190976813 0.0 0.0 -0.03567385673213601 3.567385673225601 0.0 0.0 0.0 3.567385673225601" Properties=species:S:1:pos:R:3:forces:R:3 config_id=cfg094_AlNi3_shear_xy_negative phase=AlNi3 config_type=shear_xy_negative source=QE_7.6_PBE provenance=/workspace/ni_al/data/expansion_026_100/production_gpu/chunk_07/cfg094_AlNi3_shear_xy_negative/attempt_001/qe.out qe_output_sha256=a118a5399e5f1499bc8a57aaf398c5b9cdf48930930bda7da0741a59135bc1e5 canonical_input=/workspace/ni_al/data/expansion_026_100/qe_inputs/cfg094_AlNi3_shear_xy_negative.in canonical_input_sha256=8681d8aeb6c32f11c9dbe82ff5f4982216fe0651bdd5e997c537616ab83bc89b dataset_origin=Expansion-75 source_record=Expansion-75:a118a5399e5f1499bc8a57aaf398c5b9cdf48930930bda7da0741a59135bc1e5 original_dataset=/workspace/ni_al/data/processed/ni_al_expansion_dft_75.extxyz original_dataset_sha256=ff69c2bfed14bfcf48931949647d8f1b3c9353a89c20378c9113155940792137 energy=-14550.847121565163 stress="-0.00021097787257463011 -0.008260868868780556 -0.0 -0.008260868868780556 -0.0003251280501759854 -0.0 -0.0 -0.0 -5.633667284530214e-05" pbc="T T T"
Al       0.00000000       0.00000000       0.00000000       0.00000000       0.00000000       0.00000000
Ni      -0.01783692       1.78369248       1.78369212       0.00000000       0.00000000       0.00000000
Ni       1.78363041       0.00000000       1.78369212       0.00000000       0.00000000       0.00000000
Ni       1.76579348       1.78369248       0.00000000       0.00000000       0.00000000       0.00000000
4
Lattice="3.5672608190976813 0.0 0.0 0.0 3.567385673225601 0.0 0.0 0.0 3.567385673225601" Properties=species:S:1:pos:R:3:forces:R:3 config_id=cfg095_AlNi3_rattle_small phase=AlNi3 config_type=rattle_small source=QE_7.6_PBE provenance=/workspace/ni_al/data/expansion_026_100/production_gpu/chunk_07/cfg095_AlNi3_rattle_small/attempt_001/qe.out qe_output_sha256=eb767dee8d74be1d787d2648f6cdea785a0a71702217db1bc2b9e4fee1d3d0cf canonical_input=/workspace/ni_al/data/expansion_026_100/qe_inputs/cfg095_AlNi3_rattle_small.in canonical_input_sha256=eac4cf201441ee4df749383fd9d68744790652423c207e7123019053bc3011b2 dataset_origin=Expansion-75 source_record=Expansion-75:eb767dee8d74be1d787d2648f6cdea785a0a71702217db1bc2b9e4fee1d3d0cf original_dataset=/workspace/ni_al/data/processed/ni_al_expansion_dft_75.extxyz original_dataset_sha256=ff69c2bfed14bfcf48931949647d8f1b3c9353a89c20378c9113155940792137 energy=-14550.842812565339 stress="-0.0006485987069730583 8.424818445038038e-05 -4.95481079699481e-05 8.424818445038038e-05 -0.0004435104530834642 -0.0001856986054148484 -4.95481079699481e-05 -0.0001856986054148484 -0.0007716136595890163" pbc="T T T"
Al       0.00943116       0.00427714       0.01894694      -0.08610941      -0.07416189      -0.12954768
Ni       3.56181801       1.77798347       1.78650353       0.02553316       0.09033140      -0.04138277
Ni       1.76796879       0.00569177       1.78288397       0.14998398      -0.09376384      -0.00919479
Ni       1.79530367       1.77943257       3.54643547      -0.08940774       0.07759433       0.18012524
5
Lattice="4.10964138792606 0.0 0.0 -2.05482069396303 3.4469560512317865 0.0 0.0 0.0 4.907862374000466" Properties=species:S:1:pos:R:3:forces:R:3 config_id=cfg071_Al3Ni2_orthorhombic_xy phase=Al3Ni2 config_type=orthorhombic_xy source=QE_7.6_PBE provenance=/workspace/ni_al/data/expansion_026_100/production_gpu/chunk_07/cfg071_Al3Ni2_orthorhombic_xy/attempt_001/qe.out qe_output_sha256=fb8b58c4dbc763e41813f1c08d2fcc427beb10dfc86765ae7c5b82c2501db3bf canonical_input=/workspace/ni_al/data/expansion_026_100/qe_inputs/cfg071_Al3Ni2_orthorhombic_xy.in canonical_input_sha256=8ba508d92225a3fc5cb76f0e8c39c3e189b4c8f36d3b7f54527a6f295ade8892 dataset_origin=Expansion-75 source_record=Expansion-75:fb8b58c4dbc763e41813f1c08d2fcc427beb10dfc86765ae7c5b82c2501db3bf original_dataset=/workspace/ni_al/data/processed/ni_al_expansion_dft_75.extxyz original_dataset_sha256=ff69c2bfed14bfcf48931949647d8f1b3c9353a89c20378c9113155940792137 energy=-10956.493817794915 stress="0.017109703127454686 -0.0 -0.0 -0.0 -0.01881820617460997 -0.0010086043579687993 -0.0 -0.0010086043579687993 -0.0007014985235556419" pbc="T T T"
Al       0.00000000       0.00000000       0.00000000       0.00000000       0.00000000       0.00000000
Al      -0.00000288       2.29797230       3.17789306       0.00000000      -0.12062274      -0.00711864
Al       2.05482234       1.14898416       1.72996891       0.00000000       0.12062274       0.00711864
Ni      -0.00000288       2.29797230       0.71968598       0.00000000       0.02514230       0.00140124
Ni       2.05482234       1.14898416       4.18817639       0.00000000      -0.02514230      -0.00140124
5
Lattice="4.044922625911538 0.0 0.0 -2.022461312955769 3.503004117104864 0.0 0.0 0.08834152273238037 4.907862374000466" Properties=species:S:1:pos:R:3:forces:R:3 config_id=cfg072_Al3Ni2_shear_rattle_yz_positive phase=Al3Ni2 config_type=shear_rattle_yz_positive source=QE_7.6_PBE provenance=/workspace/ni_al/data/expansion_026_100/production_gpu/chunk_07/cfg072_Al3Ni2_shear_rattle_yz_positive/attempt_001/qe.out qe_output_sha256=da6da6e4c7c4f6671857ed5fa215888994404bb97bcef711fb151d0b550b8029 canonical_input=/workspace/ni_al/data/expansion_026_100/qe_inputs/cfg072_Al3Ni2_shear_rattle_yz_positive.in canonical_input_sha256=f572177fcce0c3e1b37bc9806d3029f429e3903830c8529ed85cf50562184dca dataset_origin=Expansion-75 source_record=Expansion-75:da6da6e4c7c4f6671857ed5fa215888994404bb97bcef711fb151d0b550b8029 original_dataset=/workspace/ni_al/data/processed/ni_al_expansion_dft_75.extxyz original_dataset_sha256=ff69c2bfed14bfcf48931949647d8f1b3c9353a89c20378c9113155940792137 energy=-10956.469778575054 stress="-0.005051900962892559 -0.0018111580258172331 0.0008367314890039679 -0.0018111580258172331 -0.0018705666734572682 0.008551415035876907 0.0008367314890039679 0.008551415035876907 4.10124522713125e-05" pbc="T T T"
Al       2.01500287       3.49814755       0.04071305       0.12380547      -0.01465255      -0.21582545
Al      -0.01481429       2.38503434       3.15021305       0.09082570       0.12590197       0.18716840
Al       2.03527858       1.24235076       1.72205308      -0.07540045      -0.35025673       0.20505141
Ni       0.02009543       2.30843312       0.68451658      -0.19663476       0.33985896       0.26603586
Ni       2.01181893       1.25173043       4.21822857       0.05740404      -0.10085165      -0.44243022
16
Lattice="4.825504516972251 0.0 0.0 0.0 6.623033902572181 0.0 0.0 0.0 7.382491105471437" Properties=species:S:1:pos:R:3:forces:R:3 config_id=cfg040_Al3Ni_rattle_medium phase=Al3Ni config_type=rattle_medium source=QE_7.6_PBE provenance=/workspace/ni_al/data/expansion_026_100/production_gpu/chunk_08/cfg040_Al3Ni_rattle_medium/attempt_001/qe.out qe_output_sha256=ddbdb84a91ea5268231ec28cd45906575c2e137b41b9a3a22f92141d01c83f02 canonical_input=/workspace/ni_al/data/expansion_026_100/qe_inputs/cfg040_Al3Ni_rattle_medium.in canonical_input_sha256=0912a4cbef4fe76b82699b7143a8e0a8d8985464ea02a503a5a202b9d5a11587 dataset_origin=Expansion-75 source_record=Expansion-75:ddbdb84a91ea5268231ec28cd45906575c2e137b41b9a3a22f92141d01c83f02 original_dataset=/workspace/ni_al/data/processed/ni_al_expansion_dft_75.extxyz original_dataset_sha256=ff69c2bfed14bfcf48931949647d8f1b3c9353a89c20378c9113155940792137 energy=-25138.05763330159 stress="-0.0043619991203631804 0.00018103368183169046 0.0005499030398087198 0.00018103368183169046 0.001536157076120729 -0.0004639189013697008 0.0005499030398087198 -0.0004639189013697008 -0.0012546031716633192" pbc="T T T"
Al       4.37871701       0.08813181       1.79014601       0.26756575      -0.15213810       0.23379512
Al       1.73736378       1.15227226       3.28793952       0.17855061      -0.25648799       0.08826115
Al       1.76859599       1.12096369       0.47374230      -0.06348191       0.06370281      -0.59816671
Al       4.19094282       2.14014808       4.09569769      -0.19408010       0.25246235       0.06312729
Al       0.65243177       4.43565694       3.30010760       0.11207359       0.10549888      -0.24281888
Al       3.09298947       5.46701691       7.01344957      -0.14194500       0.14323690      -0.44492835
Al       0.66062402       4.48773940       0.39842374       0.05836196      -0.24796785       0.22281011
Al       3.08069751       5.47783779       4.07464579      -0.03604537       0.08945073       0.23306709
Al       4.13618122       2.18331337       6.95302859       0.32325173       0.11328857       0.27574427
Al       2.80875504       3.32354060       1.82383087      -0.03210120       0.27757878       0.12157340
Al       0.41851015       6.59345492       5.54132300      -0.02982512      -0.12143604       0.04969393
Al       1.98681696       3.23592017       5.52808634       0.07526097       0.18998427       0.02223510
Ni       2.17152536       5.78599357       1.83835385      -0.35436176      -0.40440699       0.24288992
Ni       0.26124155       2.42673095       1.86166531       0.04525335       0.40466624      -0.26000349
Ni       2.70037947       0.88511729       5.52224352      -0.13774813      -0.40293074       0.21150915
Ni       4.55827564       4.18042190       5.55725961      -0.07072938      -0.05450183      -0.21878911
16
Lattice="4.825504516972251 0.0 0.0 0.0 6.623033902572181 0.0 0.0 0.0 7.22007630115053" Properties=species:S:1:pos:R:3:forces:R:3 config_id=cfg041_Al3Ni_uniaxial_z_compression phase=Al3Ni config_type=uniaxial_z_compression source=QE_7.6_PBE provenance=/workspace/ni_al/data/expansion_026_100/production_gpu/chunk_08/cfg041_Al3Ni_uniaxial_z_compression/attempt_001/qe.out qe_output_sha256=b1f4b9eb88934c34e23ac973e05faf5a3b770dfacde6c5fc7f284144451537a0 canonical_input=/workspace/ni_al/data/expansion_026_100/qe_inputs/cfg041_Al3Ni_uniaxial_z_compression.in canonical_input_sha256=672818e27e1e8e7c2dc25165a3597fe5f937d92bf9d1fd51b7fd44486227201d dataset_origin=Expansion-75 source_record=Expansion-75:b1f4b9eb88934c34e23ac973e05faf5a3b770dfacde6c5fc7f284144451537a0 original_dataset=/workspace/ni_al/data/processed/ni_al_expansion_dft_75.extxyz original_dataset_sha256=ff69c2bfed14bfcf48931949647d8f1b3c9353a89c20378c9113155940792137 energy=-25138.097257010642 stress="-0.0104388651288201 -0.0 -0.0 -0.0 -0.010341709870716382 -0.0 -0.0 -0.0 -0.031401157561567486" pbc="T T T"
Al       4.42028326       0.04972103       1.80501955       0.02174086       0.06209131       0.00000000
Al       1.75696282       1.13466431       3.21111064      -0.00783546       0.02137595      -0.04773933
Al       1.75696282       1.13466431       0.39892846      -0.00783546       0.02137595       0.04773933
Al       4.16971653       2.17685313       4.00896614      -0.00783546      -0.02137595       0.04773933
Al       0.65578944       4.44617933       3.21111205       0.00783546       0.02137595      -0.04773933
Al       3.06854315       5.48836815       6.82114973       0.00783546      -0.02137595      -0.04773933
Al       0.65578944       4.44617933       0.39892704       0.00783546       0.02137595       0.04773933
Al       3.06854315       5.48836815       4.00896708       0.00783546      -0.02137595       0.04773933
Al       4.16971653       2.17685313       6.82115068      -0.00783546      -0.02137595      -0.04773933
Al       2.81797400       3.36123557       1.80501955      -0.02174086       0.06209131       0.00000000
Al       0.40522271       6.57331143       5.41505864      -0.02174086      -0.06209131       0.00000000
Al       2.00753197       3.26179689       5.41505864       0.02174086      -0.06209131       0.00000000
Ni       2.13804208       5.76440149       1.80501955       0.02296575       0.01756560       0.00000000
Ni       0.27471115       2.45288453       1.80501955      -0.02296575       0.01756560       0.00000000
Ni       2.68746389       0.85863097       5.41505864      -0.02296575      -0.01756560       0.00000000
Ni       4.55079482       4.17014793       5.41505864       0.02296575      -0.01756560       0.00000000
8
Lattice="3.7623065419586723 0.0 0.0 -0.009930615641635296 4.9813239600063834 -0.5517008690064054 0.09021176608018171 -0.013830238848135959 5.011764782236874" Properties=species:S:1:pos:R:3:forces:R:3 config_id=cfg057_Al3Ni5_shear_rattle_xz_positive phase=Al3Ni5 config_type=shear_rattle_xz_positive source=QE_7.6_PBE provenance=/workspace/ni_al/data/expansion_026_100/production_gpu/chunk_08/cfg057_Al3Ni5_shear_rattle_xz_positive/attempt_001/qe.out qe_output_sha256=3cbf08351a54553cafbe7ec08f53349875c1d045e517410281dbb17352d8a735 canonical_input=/workspace/ni_al/data/expansion_026_100/qe_inputs/cfg057_Al3Ni5_shear_rattle_xz_positive.in canonical_input_sha256=cd4dbaac3cafaab2e9226c1d04f0bb8fbf1193a8aa9fd4babea7c36d293a7d96 dataset_origin=Expansion-75 source_record=Expansion-75:3cbf08351a54553cafbe7ec08f53349875c1d045e517410281dbb17352d8a735 original_dataset=/workspace/ni_al/data/processed/ni_al_expansion_dft_75.extxyz original_dataset_sha256=ff69c2bfed14bfcf48931949647d8f1b3c9353a89c20378c9113155940792137 energy=-24969.55129194036 stress="-0.0031380749313312866 -0.000964259470424415 0.009575096578443411 -0.000964259470424415 -0.00018557878538136795 0.00042754050570535234 0.009575096578443411 0.00042754050570535234 -0.003423276902182333" pbc="T T T"
Al       3.77723584       2.43832677       2.24946633       0.64026781       0.38123652      -0.15685291
Al       1.95895103       1.13776243       3.78846111      -0.18718695      -0.48134244      -0.04338297
Al       1.85826208       3.87101574       0.68077342       0.22767423       0.17831464      -0.00790481
Ni       3.83631952      -0.00951327       4.98582908       0.13566732      -0.09751488       0.24001984
Ni       0.08929716       2.46207339       4.72621248       0.02784631       0.26944054       0.15380612
Ni       3.79138598       4.96126426       1.95809925       0.06243993      -0.04514244      -0.10614631
Ni       1.95560440       1.40371044       1.22110360      -0.56185695      -0.36378034       0.07365693
Ni       1.95581296       3.59150639       3.24206952      -0.34485170       0.15878840      -0.15319590
4
Lattice="3.5672608190976813 0.0 0.0 0.0 3.567385673225601 0.0 0.0 0.0 3.567385673225601" Properties=species:S:1:pos:R:3:forces:R:3 config_id=cfg096_AlNi3_rattle_large phase=AlNi3 config_type=rattle_large source=QE_7.6_PBE provenance=/workspace/ni_al/data/expansion_026_100/production_gpu/chunk_08/cfg096_AlNi3_rattle_large/attempt_001/qe.out qe_output_sha256=85f52160851f7cd707867929a28b79a260e2a4795e61208bd4dd87393ccfcb10 canonical_input=/workspace/ni_al/data/expansion_026_100/qe_inputs/cfg096_AlNi3_rattle_large.in canonical_input_sha256=0e87ebf4ad8a5bbd24f731236b7b14b0288dd5319045e4b19bfe53389f76dd74 dataset_origin=Expansion-75 source_record=Expansion-75:85f52160851f7cd707867929a28b79a260e2a4795e61208bd4dd87393ccfcb10 original_dataset=/workspace/ni_al/data/processed/ni_al_expansion_dft_75.extxyz original_dataset_sha256=ff69c2bfed14bfcf48931949647d8f1b3c9353a89c20378c9113155940792137 energy=-14550.808372471454 stress="-0.004048469123697322 -0.0013479319160305111 0.0008065491728203321 -0.0013479319160305111 -0.0028775466299864093 0.00011200884780280908 0.0008065491728203321 0.00011200884780280908 -0.002295992070613358" pbc="T T T"
Al       0.01496293       0.03951283       3.53982509      -0.23184289      -0.43825524       0.27585889
Ni       0.01247660       1.80637700       1.79358134      -0.23290672      -0.07167362      -0.14808103
Ni       1.75392751       3.56223200       1.79112187       0.37222263      -0.12044670      -0.12793543
Ni       1.78589378       1.72664880       0.01024161       0.09252697       0.63037556       0.00015756
4
Lattice="3.6243369922030997 0.0 0.0 0.0 3.567385673225601 0.0 0.0 0.0 3.510307502454183" Properties=species:S:1:pos:R:3:forces:R:3 config_id=cfg097_AlNi3_orthorhombic_xz phase=AlNi3 config_type=orthorhombic_xz source=QE_7.6_PBE provenance=/workspace/ni_al/data/expansion_026_100/production_gpu/chunk_08/cfg097_AlNi3_orthorhombic_xz/attempt_001/qe.out qe_output_sha256=e09361e2a84416c6b170a574af97162789b8e9640deccb4fe36139e31acbed39 canonical_input=/workspace/ni_al/data/expansion_026_100/qe_inputs/cfg097_AlNi3_orthorhombic_xz.in canonical_input_sha256=dcd640426eb18bd5b04d05cd14184d8a90287066b80202b73a9d0f68586e982a dataset_origin=Expansion-75 source_record=Expansion-75:e09361e2a84416c6b170a574af97162789b8e9640deccb4fe36139e31acbed39 original_dataset=/workspace/ni_al/data/processed/ni_al_expansion_dft_75.extxyz original_dataset_sha256=ff69c2bfed14bfcf48931949647d8f1b3c9353a89c20378c9113155940792137 energy=-14550.841931579858 stress="0.009589848640315793 -0.0 -0.0 -0.0 -0.0014268469002544414 -0.0 -0.0 -0.0 -0.00991357879711021" pbc="T T T"
Al       0.00000000       0.00000000       0.00000000       0.00000000       0.00000000       0.00000000
Ni       0.00000000       1.78369248       1.75515304       0.00000000       0.00000000       0.00000000
Ni       1.81216850       0.00000000       1.75515304       0.00000000       0.00000000       0.00000000
Ni       1.81216850       1.78369248       0.00000000       0.00000000       0.00000000       0.00000000
5
Lattice="3.9721140186452035 0.0 0.0 -1.9860570093221013 3.4399500429972765 0.0 0.0 0.0 4.907862374000466" Properties=species:S:1:pos:R:3:forces:R:3 config_id=cfg073_Al3Ni2_biaxial_xy_compression phase=Al3Ni2 config_type=biaxial_xy_compression source=QE_7.6_PBE provenance=/workspace/ni_al/data/expansion_026_100/production_gpu/chunk_08/cfg073_Al3Ni2_biaxial_xy_compression/attempt_001/qe.out qe_output_sha256=56a7d9bb7f7d72dfad239c3b7cb9332e9346382eb849d6058c252fb8a3f275e1 canonical_input=/workspace/ni_al/data/expansion_026_100/qe_inputs/cfg073_Al3Ni2_biaxial_xy_compression.in canonical_input_sha256=967594aef0872f3bf98e53b2445adae283a71e3a1e833e4e86f5200efc067625 dataset_origin=Expansion-75 source_record=Expansion-75:56a7d9bb7f7d72dfad239c3b7cb9332e9346382eb849d6058c252fb8a3f275e1 original_dataset=/workspace/ni_al/data/processed/ni_al_expansion_dft_75.extxyz original_dataset_sha256=ff69c2bfed14bfcf48931949647d8f1b3c9353a89c20378c9113155940792137 energy=-10956.46615260792 stress="-0.039201559832639045 5.6891027494459005e-15 4.097846516486299e-23 5.6891027494459005e-15 -0.03920159638812622 2.36589389248878e-23 4.097846516486299e-23 2.36589389248878e-23 -0.01807270423829922" pbc="T T T"
Al       0.00000000       0.00000000       0.00000000      -0.00000000       0.00000000       0.00000000
Al      -0.00000278       2.29330162       3.17789306       0.00000000      -0.00000000      -0.03961465
Al       1.98605860       1.14664883       1.72996891      -0.00000000      -0.00000000       0.03961465
Ni      -0.00000278       2.29330162       0.71968598       0.00000000       0.00000000       0.07473696
Ni       1.98605860       1.14664883       4.18817639       0.00000000       0.00000000      -0.07473696
2
Lattice="2.937418360450358 0.0 0.0 0.0 2.89400823689718 0.0 0.0 0.0 2.89400823689718" Properties=species:S:1:pos:R:3:forces:R:3 config_id=cfg080_AlNi_uniaxial_x_expansion phase=AlNi config_type=uniaxial_x_expansion source=QE_7.6_PBE provenance=/workspace/ni_al/data/expansion_026_100/production_gpu/chunk_08/cfg080_AlNi_uniaxial_x_expansion/attempt_001/qe.out qe_output_sha256=fb794e8beced9ea27e39f186303f6c880e9afbbc4c34e11ff82c3b374321a6c0 canonical_input=/workspace/ni_al/data/expansion_026_100/qe_inputs/cfg080_AlNi_uniaxial_x_expansion.in canonical_input_sha256=c4d32edd7a731afd9fa0415795c14cf4c629825c8a4e793099025939aaa6aaf9 dataset_origin=Expansion-75 source_record=Expansion-75:fb794e8beced9ea27e39f186303f6c880e9afbbc4c34e11ff82c3b374321a6c0 original_dataset=/workspace/ni_al/data/processed/ni_al_expansion_dft_75.extxyz original_dataset_sha256=ff69c2bfed14bfcf48931949647d8f1b3c9353a89c20378c9113155940792137 energy=-5209.308366975704 stress="0.018971615733388333 -0.0 -0.0 -0.0 0.011862541287617075 -0.0 -0.0 -0.0 0.011862541287617075" pbc="T T T"
Al       1.46870918       1.44700412       1.44700412       0.00000000       0.00000000       0.00000000
Ni       0.00000000       0.00000000       0.00000000       0.00000000       0.00000000       0.00000000
2
Lattice="2.89400823689718 0.0 0.0 -0.028940082369451798 2.89400823689718 0.0 0.0 0.0 2.89400823689718" Properties=species:S:1:pos:R:3:forces:R:3 config_id=cfg081_AlNi_shear_xy_negative phase=AlNi config_type=shear_xy_negative source=QE_7.6_PBE provenance=/workspace/ni_al/data/expansion_026_100/production_gpu/chunk_08/cfg081_AlNi_shear_xy_negative/attempt_001/qe.out qe_output_sha256=03ef2b56bae196fd0ecaf6e60dc641a5cb646396efde5aa3165bfb8748928b44 canonical_input=/workspace/ni_al/data/expansion_026_100/qe_inputs/cfg081_AlNi_shear_xy_negative.in canonical_input_sha256=8bf7a3953d98cf142ec6a52371408951c8e0490c12afcd2c178ba54e5e57b69c dataset_origin=Expansion-75 source_record=Expansion-75:03ef2b56bae196fd0ecaf6e60dc641a5cb646396efde5aa3165bfb8748928b44 original_dataset=/workspace/ni_al/data/processed/ni_al_expansion_dft_75.extxyz original_dataset_sha256=ff69c2bfed14bfcf48931949647d8f1b3c9353a89c20378c9113155940792137 energy=-5209.310948256447 stress="-0.0001317339099285582 -0.0072214086027133206 -0.0 -0.0072214086027133206 -0.0002472798110194023 -0.0 -0.0 -0.0 -0.00021056766298037903" pbc="T T T"
Al       1.43253408       1.44700412       1.44700412       0.00000000       0.00000000       0.00000000
Ni       0.00000000       0.00000000       0.00000000       0.00000000       0.00000000       0.00000000
2
Lattice="2.89400823689718 0.0 0.0 0.0 2.89400823689718 0.0 0.0 0.0 2.89400823689718" Properties=species:S:1:pos:R:3:forces:R:3 config_id=cfg082_AlNi_rattle_small phase=AlNi config_type=rattle_small source=QE_7.6_PBE provenance=/workspace/ni_al/data/expansion_026_100/production_gpu/chunk_08/cfg082_AlNi_rattle_small/attempt_001/qe.out qe_output_sha256=4340988fbb90e74f1f809a7a5689b8529fac355e8171a06978443abec26a0cf5 canonical_input=/workspace/ni_al/data/expansion_026_100/qe_inputs/cfg082_AlNi_rattle_small.in canonical_input_sha256=2bfa058bd8fb8b74c60f77f264fd623562fb043ba37f8f78fb5824dd2ac9eee2 dataset_origin=Expansion-75 source_record=Expansion-75:4340988fbb90e74f1f809a7a5689b8529fac355e8171a06978443abec26a0cf5 original_dataset=/workspace/ni_al/data/processed/ni_al_expansion_dft_75.extxyz original_dataset_sha256=ff69c2bfed14bfcf48931949647d8f1b3c9353a89c20378c9113155940792137 energy=-5209.3083329284345 stress="-0.0005975822983237855 -0.00021780624281106923 -0.00010376576962620346 -0.00021780624281106923 -0.0003477142067175054 -0.0003914381450007924 -0.00010376576962620346 -0.0003914381450007924 -0.0005555437779153864" pbc="T T T"
Al       1.44294680       1.43164824       1.43970955       0.04650607       0.17549117       0.08357118
Ni       0.00405732       0.01535588       0.00729457      -0.04650607      -0.17549117      -0.08357118
16
Lattice="4.825504516972251 0.0 0.0 0.0 6.623033902572181 0.0 -0.13288483989883182 0.0 7.382491105471437" Properties=species:S:1:pos:R:3:forces:R:3 config_id=cfg042_Al3Ni_shear_xz_negative phase=Al3Ni config_type=shear_xz_negative source=QE_7.6_PBE provenance=/workspace/ni_al/data/expansion_026_100/production_gpu/chunk_09/cfg042_Al3Ni_shear_xz_negative/attempt_001/qe.out qe_output_sha256=ecb7af6c02006796e02b230552d18b100674d50ec85712f5a6adc1b52e48fe65 canonical_input=/workspace/ni_al/data/expansion_026_100/qe_inputs/cfg042_Al3Ni_shear_xz_negative.in canonical_input_sha256=626a52dd9b52eba712bfcf0753248321633b3fbb7f7312cbe5cc1311d77664e1 dataset_origin=Expansion-75 source_record=Expansion-75:ecb7af6c02006796e02b230552d18b100674d50ec85712f5a6adc1b52e48fe65 original_dataset=/workspace/ni_al/data/processed/ni_al_expansion_dft_75.extxyz original_dataset_sha256=ff69c2bfed14bfcf48931949647d8f1b3c9353a89c20378c9113155940792137 energy=-25138.157230651286 stress="7.756992817585787e-05 -0.0 -0.009437582819005863 -0.0 9.642561855137311e-05 -0.0 -0.009437582819005863 -0.0 -0.00033068656946952255" pbc="T T T"
Al       4.38706204       0.04972103       1.84562326      -0.00130871       0.00044642      -0.01137944
Al       1.69786262       1.13466431       3.28334421      -0.02301957       0.00515322       0.00268494
Al       1.74962058       1.13466431       0.40790231       0.02246958      -0.00131805       0.00745579
Al       4.09593187       2.17685313       4.09914738       0.02246958       0.00131805       0.00745579
Al       0.59668922       4.44617933       3.28334566      -0.02246958      -0.00131805      -0.00745579
Al       2.94300051       5.48836815       6.97459073      -0.02246958       0.00131805      -0.00745579
Al       0.64844722       4.44617933       0.40790086       0.02301957       0.00515322      -0.00268494
Al       2.99475848       5.48836815       4.09914835       0.02301957      -0.00515322      -0.00268494
Al       4.04417388       2.17685313       6.97459170      -0.02301957      -0.00515322       0.00268494
Al       2.78475278       3.36123557       1.84562326       0.00130871       0.00044642       0.01137944
Al       0.30555905       6.57331143       5.53686978       0.00130871      -0.00044642       0.01137944
Al       1.90786831       3.26179689       5.53686978      -0.00130871      -0.00044642      -0.01137944
Ni       2.10482086       5.76440149       1.84562326       0.00150102       0.00074255       0.00793929
Ni       0.24148993       2.45288453       1.84562326      -0.00150102       0.00074255      -0.00793929
Ni       2.58780023       0.85863097       5.53686978      -0.00150102      -0.00074255      -0.00793929
Ni       4.45113116       4.17014793       5.53686978       0.00150102      -0.00074255       0.00793929
16
Lattice="4.994397175067005 0.0 0.0 0.0 6.8548400891616135 0.0 0.0 0.0 7.640878294162829" Properties=species:S:1:pos:R:3:forces:R:3 config_id=cfg043_Al3Ni_volume_rattle_expansion phase=Al3Ni config_type=volume_rattle_expansion source=QE_7.6_PBE provenance=/workspace/ni_al/data/expansion_026_100/production_gpu/chunk_09/cfg043_Al3Ni_volume_rattle_expansion/attempt_001/qe.out qe_output_sha256=ff5a34be6a7b831cff8952710c94b1ec99605051630056b7b7152ae5109a6718 canonical_input=/workspace/ni_al/data/expansion_026_100/qe_inputs/cfg043_Al3Ni_volume_rattle_expansion.in canonical_input_sha256=12956fa99e219b1461884e973e16310e68705e664da7e0245621c654055950ee dataset_origin=Expansion-75 source_record=Expansion-75:ff5a34be6a7b831cff8952710c94b1ec99605051630056b7b7152ae5109a6718 original_dataset=/workspace/ni_al/data/processed/ni_al_expansion_dft_75.extxyz original_dataset_sha256=ff69c2bfed14bfcf48931949647d8f1b3c9353a89c20378c9113155940792137 energy=-25137.321129386197 stress="0.05638956244416999 0.00010781404568203988 -5.419559746096865e-06 0.00010781404568203988 0.05784423471312407 -0.0004700456419918613 -5.419559746096865e-06 -0.0004700456419918613 0.0604006322193593" pbc="T T T"
Al       4.55117996       0.05880251       1.88618342       0.09390403      -0.05336379       0.05693079
Al       1.81349396       1.18475095       3.37804653       0.01632760      -0.09886530       0.10648125
Al       1.81724099       1.18725213       0.40311356      -0.07597284      -0.05185562       0.20532306
Al       4.32788121       2.24532007       4.25520923      -0.08550255      -0.00385828       0.04403290
Al       0.66739082       4.59313863       3.39095287       0.05595789       0.03204019       0.04031648
Al       3.18611832       5.70653671       7.19937827      -0.02569469      -0.09103265       0.10669196
Al       0.68258261       4.58187830       0.41655132       0.02988461       0.02725196       0.03331999
Al       3.17243445       5.69682120       4.23668289       0.03031089       0.00535517       0.04139303
Al       4.33361828       2.23447683       7.22790015      -0.06836792       0.09018345       0.00918671
Al       2.92121951       3.48108047       1.90848984      -0.06035038       0.02117434       0.01832821
Al       0.41014153       6.78619136       5.73659164       0.09376652       0.07482854      -0.03332058
Al       2.11403982       3.38340496       5.73258343      -0.07644560       0.04450947      -0.00434652
Ni       2.20356457       5.95893513       1.91418391      -0.01256323       0.02797874      -0.07693097
Ni       0.25091116       2.54915122       1.95482707       0.16510684      -0.13606038      -0.32228226
Ni       2.79082642       0.89929300       5.75881612      -0.06919795      -0.04178063      -0.26219134
Ni       4.71254580       4.29167526       5.72753107      -0.01116321       0.15349477       0.03706728
8
Lattice="3.702109637287254 0.0 0.0 0.0 4.9813239600063834 -0.5428736551020629 0.0 -0.013830238848135959 4.931576545721268" Properties=species:S:1:pos:R:3:forces:R:3 config_id=cfg058_Al3Ni5_biaxial_xz_compression phase=Al3Ni5 config_type=biaxial_xz_compression source=QE_7.6_PBE provenance=/workspace/ni_al/data/expansion_026_100/production_gpu/chunk_09/cfg058_Al3Ni5_biaxial_xz_compression/attempt_001/qe.out qe_output_sha256=953733fe62cdeb011cea6adf5c4678f11b7cf33ed9ccd4996570bfd4d793fd0c canonical_input=/workspace/ni_al/data/expansion_026_100/qe_inputs/cfg058_Al3Ni5_biaxial_xz_compression.in canonical_input_sha256=6f72e68041008b498dfcd9dc1a4709d121265f41893ae4608510b4ecd104ca01 dataset_origin=Expansion-75 source_record=Expansion-75:953733fe62cdeb011cea6adf5c4678f11b7cf33ed9ccd4996570bfd4d793fd0c original_dataset=/workspace/ni_al/data/processed/ni_al_expansion_dft_75.extxyz original_dataset_sha256=ff69c2bfed14bfcf48931949647d8f1b3c9353a89c20378c9113155940792137 energy=-24969.56037503172 stress="-0.04267923179745231 -0.0 -0.0 -0.0 -0.020821980342330734 -0.0019915065633524707 -0.0 -0.0019915065633524707 -0.04863750450720063" pbc="T T T"
Al       0.00000000       2.48374724       2.19435034       0.00000000       0.00000000       0.00000000
Al       1.85105482       1.08762639       3.72444150       0.00000000      -0.00725129      -0.05508331
Al       1.85105482       3.87986771       0.66425954       0.00000000       0.00725129       0.05508331
Ni       0.00000000       0.00000000       0.00000000       0.00000000       0.00000000       0.00000000
Ni       0.00000000       2.47683212       4.66013897       0.00000000       0.00000000       0.00000000
Ni       0.00000000       4.97440884       1.92291462       0.00000000       0.00000000       0.00000000
Ni       1.85105482       1.37310155       1.21312987       0.00000000      -0.04301020      -0.00619684
Ni       1.85105482       3.59439255       3.17557117       0.00000000       0.04301020       0.00619684
4
Lattice="3.4780792986198388 0.0 0.0 0.0 3.478201031395761 0.0 0.0 0.0 3.478201031395761" Properties=species:S:1:pos:R:3:forces:R:3 config_id=cfg098_AlNi3_volume_rattle_compression phase=AlNi3 config_type=volume_rattle_compression source=QE_7.6_PBE provenance=/workspace/ni_al/data/expansion_026_100/production_gpu/chunk_09/cfg098_AlNi3_volume_rattle_compression/attempt_001/qe.out qe_output_sha256=cc1fa587d179abb2086626ba0c44c3e5107194fe3047432315b4344eea9e69ab canonical_input=/workspace/ni_al/data/expansion_026_100/qe_inputs/cfg098_AlNi3_volume_rattle_compression.in canonical_input_sha256=b15fb4b02f5f93ab1c6504d76634e0ec2d5d637594a65d08b5463a94bb441cbd dataset_origin=Expansion-75 source_record=Expansion-75:cc1fa587d179abb2086626ba0c44c3e5107194fe3047432315b4344eea9e69ab original_dataset=/workspace/ni_al/data/processed/ni_al_expansion_dft_75.extxyz original_dataset_sha256=ff69c2bfed14bfcf48931949647d8f1b3c9353a89c20378c9113155940792137 energy=-14550.680652230983 stress="-0.1036605867550364 -0.0004035763120972028 0.0002468060412471456 -0.0004035763120972028 -0.10371654132725477 -0.00010893791271631021 0.0002468060412471456 -0.00010893791271631021 -0.10340331620511554" pbc="T T T"
Al       0.01475152       0.01269968       0.00187511      -0.24203305      -0.12835418      -0.06487776
Ni       0.00224092       1.74339118       1.73106727      -0.13898708      -0.05087480       0.13893826
Ni       1.74154911       3.46675876       1.73929597       0.06339008       0.11609986       0.04385607
Ni       1.71953775       1.73355174       0.00596128       0.31763006       0.06312912      -0.11791657
4
Lattice="3.5672608190976813 0.0 0.0 0.0 3.631598615344446 0.0 0.0 0.0 3.631598615344446" Properties=species:S:1:pos:R:3:forces:R:3 config_id=cfg099_AlNi3_biaxial_yz_expansion phase=AlNi3 config_type=biaxial_yz_expansion source=QE_7.6_PBE provenance=/workspace/ni_al/data/expansion_026_100/production_gpu/chunk_09/cfg099_AlNi3_biaxial_yz_expansion/attempt_001/qe.out qe_output_sha256=6cf4191dc946500341b38be15aabaff5bce0d7b1165e75f65cd6c541fdf4035f canonical_input=/workspace/ni_al/data/expansion_026_100/qe_inputs/cfg099_AlNi3_biaxial_yz_expansion.in canonical_input_sha256=a0fa899d9be0a4c1239761888c10168a8cb09f1015a2663eee407297a49a9d3c dataset_origin=Expansion-75 source_record=Expansion-75:6cf4191dc946500341b38be15aabaff5bce0d7b1165e75f65cd6c541fdf4035f original_dataset=/workspace/ni_al/data/processed/ni_al_expansion_dft_75.extxyz original_dataset_sha256=ff69c2bfed14bfcf48931949647d8f1b3c9353a89c20378c9113155940792137 energy=-14550.815060822513 stress="0.03086443004482005 -0.0 -0.0 -0.0 0.0404555250929456 -0.0 -0.0 -0.0 0.0404555250929456" pbc="T T T"
Al       0.00000000       0.00000000       0.00000000       0.00000000       0.00000000       0.00000000
Ni       0.00000000       1.81579894       1.81579858       0.00000000       0.00000000       0.00000000
Ni       1.78363041       0.00000000       1.81579858       0.00000000       0.00000000       0.00000000
Ni       1.78363041       1.81579894       0.00000000       0.00000000       0.00000000       0.00000000
5
Lattice="4.044922625911538 0.0 0.0 -2.022461312955769 3.503004117104864 0.0 -0.10797297222779823 0.0 4.907862374000466" Properties=species:S:1:pos:R:3:forces:R:3 config_id=cfg074_Al3Ni2_shear_xz_negative phase=Al3Ni2 config_type=shear_xz_negative source=QE_7.6_PBE provenance=/workspace/ni_al/data/expansion_026_100/production_gpu/chunk_09/cfg074_Al3Ni2_shear_xz_negative/attempt_001/qe.out qe_output_sha256=938377dde1fafd77c751939e705411d6d21c90b6dd927663710a5a3e81b78785 canonical_input=/workspace/ni_al/data/expansion_026_100/qe_inputs/cfg074_Al3Ni2_shear_xz_negative.in canonical_input_sha256=cef97f0189d383b8daf89f379c4ac02fcae4d167431a7288b76aec51a9011212 dataset_origin=Expansion-75 source_record=Expansion-75:938377dde1fafd77c751939e705411d6d21c90b6dd927663710a5a3e81b78785 original_dataset=/workspace/ni_al/data/processed/ni_al_expansion_dft_75.extxyz original_dataset_sha256=ff69c2bfed14bfcf48931949647d8f1b3c9353a89c20378c9113155940792137 energy=-10956.504201938653 stress="-0.0003407746136414419 0.0005985129610680482 -0.012135424705905248 0.0005985129610680482 -0.0001408050496135625 -9.064377575418677e-05 -0.012135424705905248 -9.064377575418677e-05 -8.132719486151473e-05" pbc="T T T"
Al       0.00000000       0.00000000       0.00000000       0.00000000       0.00000000       0.00000000
Al      -0.06991648       2.33533770       3.17789306      -0.01488729       0.00322457      -0.00241610
Al       1.98440361       1.16766683       1.72996891       0.01488729      -0.00322457       0.00241610
Ni      -0.01583592       2.33533770       0.71968598       0.03680516       0.00201860      -0.00069982
Ni       1.93032305       1.16766683       4.18817639      -0.03680516      -0.00201860       0.00069982
2
Lattice="2.89400823689718 0.0 0.0 0.0 2.89400823689718 0.0 0.0 0.0 2.89400823689718" Properties=species:S:1:pos:R:3:forces:R:3 config_id=cfg083_AlNi_rattle_large phase=AlNi config_type=rattle_large source=QE_7.6_PBE provenance=/workspace/ni_al/data/expansion_026_100/production_gpu/chunk_09/cfg083_AlNi_rattle_large/attempt_001/qe.out qe_output_sha256=a01c2b7af25d3e6db8db3ca24661f0d9bea40bf9214aec4051dcbecb8b29759c canonical_input=/workspace/ni_al/data/expansion_026_100/qe_inputs/cfg083_AlNi_rattle_large.in canonical_input_sha256=5afe1f7431e95196094dcbdd00d2a650099fa32b3416d1d34949d2c7ad5c7b8d dataset_origin=Expansion-75 source_record=Expansion-75:a01c2b7af25d3e6db8db3ca24661f0d9bea40bf9214aec4051dcbecb8b29759c original_dataset=/workspace/ni_al/data/processed/ni_al_expansion_dft_75.extxyz original_dataset_sha256=ff69c2bfed14bfcf48931949647d8f1b3c9353a89c20378c9113155940792137 energy=-5209.280997738633 stress="-0.004774320717502981 -0.0016912412128012129 -0.0031700366153001353 -0.0016912412128012129 -0.004774320717502981 -0.0031700366153001353 -0.0031700366153001353 -0.0031700366153001353 -0.0033203413286562295" pbc="T T T"
Al       1.46876403       1.46875208       1.48857131      -0.25591247      -0.25591247      -0.48072573
Ni       2.87224833       2.87226028       2.85244105       0.25591247       0.25591247       0.48072573
2
Lattice="2.8216580309745507 0.0 0.0 0.0 2.8216580309745507 0.0 0.0 0.0 2.8216580309745507" Properties=species:S:1:pos:R:3:forces:R:3 config_id=cfg084_AlNi_volume_rattle_compression phase=AlNi config_type=volume_rattle_compression source=QE_7.6_PBE provenance=/workspace/ni_al/data/expansion_026_100/production_gpu/chunk_09/cfg084_AlNi_volume_rattle_compression/attempt_001/qe.out qe_output_sha256=ea2acbdebf2b6b61f45452833ba2e43cf2d46e28675493caeda07212e051a114 canonical_input=/workspace/ni_al/data/expansion_026_100/qe_inputs/cfg084_AlNi_volume_rattle_compression.in canonical_input_sha256=c15abba6b83cec2bdc7d9088ec288e471734de0ec95f50479e7edf37dd4617e8 dataset_origin=Expansion-75 source_record=Expansion-75:ea2acbdebf2b6b61f45452833ba2e43cf2d46e28675493caeda07212e051a114 original_dataset=/workspace/ni_al/data/processed/ni_al_expansion_dft_75.extxyz original_dataset_sha256=ff69c2bfed14bfcf48931949647d8f1b3c9353a89c20378c9113155940792137 energy=-5209.2271780224055 stress="-0.09102863429166556 0.0004389419309703866 -0.00013136384069522254 0.0004389419309703866 -0.0899575709477649 0.0008024889128087241 -0.00013136384069522254 0.0008024889128087241 -0.090959772663144" pbc="T T T"
Al       1.40686785       1.43523205       1.40358302       0.06096547      -0.37281745       0.11147175
Ni       0.00396117       2.79725500       0.00724599      -0.06096547       0.37281745      -0.11147175
2
Lattice="2.89400823689718 0.0 0.0 0.0 2.940312368687503 0.0 0.0 0.0 2.8477041051068572" Properties=species:S:1:pos:R:3:forces:R:3 config_id=cfg085_AlNi_orthorhombic_yz phase=AlNi config_type=orthorhombic_yz source=QE_7.6_PBE provenance=/workspace/ni_al/data/expansion_026_100/production_gpu/chunk_09/cfg085_AlNi_orthorhombic_yz/attempt_001/qe.out qe_output_sha256=4cc84a1613eefe617d570d341d0862ad6e001f53e6177b191c7dc26612177e02 canonical_input=/workspace/ni_al/data/expansion_026_100/qe_inputs/cfg085_AlNi_orthorhombic_yz.in canonical_input_sha256=067c33c3950d74d202abade3fd1948dbd840f7a33e881bc2a53446723577e6e5 dataset_origin=Expansion-75 source_record=Expansion-75:4cc84a1613eefe617d570d341d0862ad6e001f53e6177b191c7dc26612177e02 original_dataset=/workspace/ni_al/data/processed/ni_al_expansion_dft_75.extxyz original_dataset_sha256=ff69c2bfed14bfcf48931949647d8f1b3c9353a89c20378c9113155940792137 energy=-5209.308450335551 stress="0.0007107560638042981 -0.0 -0.0 -0.0 0.006776880669088026 -0.0 -0.0 -0.0 -0.009656106188499866" pbc="T T T"
Al       1.44700412       1.47015618       1.42385205       0.00000000       0.00000000       0.00000000
Ni       0.00000000       0.00000000       0.00000000       0.00000000       0.00000000       0.00000000
16
Lattice="4.825504516972251 0.0 0.0 -0.16557584756387958 6.623033902572181 0.0 0.0 0.0 7.382491105471437" Properties=species:S:1:pos:R:3:forces:R:3 config_id=cfg044_Al3Ni_shear_rattle_xy_negative phase=Al3Ni config_type=shear_rattle_xy_negative source=QE_7.6_PBE provenance=/workspace/ni_al/data/expansion_026_100/production_gpu/chunk_10/cfg044_Al3Ni_shear_rattle_xy_negative/attempt_001/qe.out qe_output_sha256=659c968599dcdd1a51d17775afd70de0524ebde61f5a85be3f83a6980ce3857c canonical_input=/workspace/ni_al/data/expansion_026_100/qe_inputs/cfg044_Al3Ni_shear_rattle_xy_negative.in canonical_input_sha256=4e37d5ab801d49c9d4e1f0918245efe91893878ae5095a21e0ec81108b454fd6 dataset_origin=Expansion-75 source_record=Expansion-75:659c968599dcdd1a51d17775afd70de0524ebde61f5a85be3f83a6980ce3857c original_dataset=/workspace/ni_al/data/processed/ni_al_expansion_dft_75.extxyz original_dataset_sha256=ff69c2bfed14bfcf48931949647d8f1b3c9353a89c20378c9113155940792137 energy=-25137.898910042906 stress="-0.0025026426817279556 -0.011111256704949024 -0.0005099925973253877 -0.011111256704949024 -0.0029843987409628354 -0.001205177680324039 -0.0005099925973253877 -0.001205177680324039 -0.004048760417156448" pbc="T T T"
Al       4.43501349       0.06515448       1.87300466       0.05735094      -0.05428389      -0.10418439
Al       1.77281838       1.05954608       3.32103457      -0.61200482       0.48619128      -0.75854698
Al       1.72993288       1.15937749       0.42323282       0.08222700      -0.20977135      -0.05043300
Al       4.08063876       2.20499599       4.10603756       0.31940206      -0.00034596       0.02650256
Al       0.53402012       4.40462279       3.24512969       0.11674329       0.46432337       0.32424494
Al       2.86987951       5.51605259       6.90783074       0.30016476      -0.02201387       0.30834500
Al       0.51316628       4.43048652       0.36388686       0.12641529       0.36160242       0.52291880
Al       2.95825784       5.48080351       4.09195436      -0.00912126      -0.21984801       0.02945126
Al       4.13314437       2.12572237       7.04002387      -0.24447432       0.06580738      -0.53242405
Al       2.71577777       3.39197091       1.87006053       0.24974009      -0.23262718      -0.14118956
Al       0.25458587       6.56774681       5.50601065      -0.19931165       0.13240124       0.16186711
Al       1.87302740       3.27833341       5.57903118       0.44270344      -0.34579817      -0.18627311
Ni       2.02760904       5.75382314       1.85420545      -0.23011296       0.06555374      -0.34806580
Ni       0.25996586       2.48733316       1.86335250      -0.23225041      -0.45154150       0.03595057
Ni       2.62863653       0.84939938       5.46148923       0.43156731       0.30180920       1.01627277
Ni       4.49296714       4.20889102       5.55365866      -0.59903875      -0.34145872      -0.30443611
8
Lattice="3.7623065419586723 0.0 0.0 0.0 4.9934613791236035 -0.5517008690064054 0.0 -0.12408906405746915 5.011764782236874" Properties=species:S:1:pos:R:3:forces:R:3 config_id=cfg059_Al3Ni5_shear_yz_negative phase=Al3Ni5 config_type=shear_yz_negative source=QE_7.6_PBE provenance=/workspace/ni_al/data/expansion_026_100/production_gpu/chunk_10/cfg059_Al3Ni5_shear_yz_negative/attempt_001/qe.out qe_output_sha256=f75267cd64d6e278bb9e971d0d749293d08dfcfcd6037879be5dd6dc6623086a canonical_input=/workspace/ni_al/data/expansion_026_100/qe_inputs/cfg059_Al3Ni5_shear_yz_negative.in canonical_input_sha256=1219edb330aefafab83cd0a3bf1ef609f266d779a95d5befe66d7b5afd0be0f8 dataset_origin=Expansion-75 source_record=Expansion-75:f75267cd64d6e278bb9e971d0d749293d08dfcfcd6037879be5dd6dc6623086a original_dataset=/workspace/ni_al/data/processed/ni_al_expansion_dft_75.extxyz original_dataset_sha256=ff69c2bfed14bfcf48931949647d8f1b3c9353a89c20378c9113155940792137 energy=-24969.621259105264 stress="-0.0035653735660030003 -0.0 -0.0 -0.0 0.002268274409469926 -0.005849425946163786 -0.0 -0.005849425946163786 -0.00011057908784646473" pbc="T T T"
Al       0.00000000       2.43468656       2.23003083       0.00000000       0.00000000       0.00000000
Al       1.88115327       1.00435636       3.78500153       0.00000000       0.01877086      -0.02881893
Al       1.88115327       3.86501638       0.67506051       0.00000000      -0.01877086       0.02881893
Ni       0.00000000       0.00000000       0.00000000       0.00000000       0.00000000       0.00000000
Ni       0.00000000       2.37264202       4.73591359       0.00000000       0.00000000       0.00000000
Ni       0.00000000       4.93141685       1.95418152       0.00000000       0.00000000       0.00000000
Ni       1.88115327       1.34597873       1.23285556       0.00000000       0.00309525       0.00719281
Ni       1.88115327       3.52339401       3.22720648       0.00000000      -0.00309525      -0.00719281
8
Lattice="3.893987270927276 0.0 0.0 0.0 5.155670298605642 -0.5710103994220296 0.0 -0.01431429720782572 5.187176549615448" Properties=species:S:1:pos:R:3:forces:R:3 config_id=cfg060_Al3Ni5_volume_rattle_expansion phase=Al3Ni5 config_type=volume_rattle_expansion source=QE_7.6_PBE provenance=/workspace/ni_al/data/expansion_026_100/production_gpu/chunk_10/cfg060_Al3Ni5_volume_rattle_expansion/attempt_001/qe.out qe_output_sha256=9455f6f88543c4c489b1aea072da480342723e30f21d07e3be5e0e0f968885fe canonical_input=/workspace/ni_al/data/expansion_026_100/qe_inputs/cfg060_Al3Ni5_volume_rattle_expansion.in canonical_input_sha256=ab4cd1bfb7f6946aa5cd8370fa47d8da93355dad4a45ac516fc4a11173fa8400 dataset_origin=Expansion-75 source_record=Expansion-75:9455f6f88543c4c489b1aea072da480342723e30f21d07e3be5e0e0f968885fe original_dataset=/workspace/ni_al/data/processed/ni_al_expansion_dft_75.extxyz original_dataset_sha256=ff69c2bfed14bfcf48931949647d8f1b3c9353a89c20378c9113155940792137 energy=-24969.129342588287 stress="0.08932572043501165 -0.00018765471842616902 -1.3514441257548278e-05 -0.00018765471842616902 0.08409103807021963 0.00025846483397810193 -1.3514441257548278e-05 0.00025846483397810193 0.08424455133858048" pbc="T T T"
Al       3.87721157       2.56373103       2.31157024       0.17091908       0.00183131      -0.05876335
Al       1.96270342       1.14155566       3.91288613      -0.12237400      -0.10090526       0.04517587
Al       1.96014576       4.01910289       0.69524240      -0.10795215      -0.05218793      -0.00717648
Ni       3.89346739       5.15544875      -0.55429131       0.05328708       0.03808052      -0.11197324
Ni       3.88491733       2.58932925      -0.28002086       0.08180269      -0.06439528      -0.02044134
Ni       3.88619172       5.14679287       2.03363606       0.07625202      -0.00132772      -0.01482416
Ni       1.95379919       1.37713986       1.24361231      -0.09416181       0.25949219       0.19219790
Ni       1.94548724       3.74230985       3.34383685      -0.05777291      -0.08058783      -0.02419519
8
Lattice="3.7623065419586723 0.0 0.0 0.0 4.9813239600063834 -0.5517008690064054 0.0 -0.013830238848135959 5.011764782236874" Properties=species:S:1:pos:R:3:forces:R:3 config_id=cfg061_Al3Ni5_rattle_xlarge phase=Al3Ni5 config_type=rattle_xlarge source=QE_7.6_PBE provenance=/workspace/ni_al/data/expansion_026_100/production_gpu/chunk_10/cfg061_Al3Ni5_rattle_xlarge/attempt_001/qe.out qe_output_sha256=cb9c94571ae44e152048042e7d2d2619648266f4ad641724fb574ae07c4c7812 canonical_input=/workspace/ni_al/data/expansion_026_100/qe_inputs/cfg061_Al3Ni5_rattle_xlarge.in canonical_input_sha256=3418cbdeb4241d3920a9380233a8ef40d3b2290f81432cdea8b9e2b1e8d1bbbf dataset_origin=Expansion-75 source_record=Expansion-75:cb9c94571ae44e152048042e7d2d2619648266f4ad641724fb574ae07c4c7812 original_dataset=/workspace/ni_al/data/processed/ni_al_expansion_dft_75.extxyz original_dataset_sha256=ff69c2bfed14bfcf48931949647d8f1b3c9353a89c20378c9113155940792137 energy=-24969.412608104598 stress="-0.0011834880581953347 -0.0020610536082147934 -0.001685001677063327 -0.0020610536082147934 -0.009497964004709408 0.0005217802688478637 -0.001685001677063327 0.0005217802688478637 -0.011874139254928865" pbc="T T T"
Al       3.75629208       2.45148944       2.13598331       0.28988519       0.52668268       1.09504419
Al       1.85220916       1.10355911       3.79283475       0.15518942       0.09849706      -0.16583295
Al       1.93302744       3.91058037       0.68956463      -0.63183161      -0.30058832       0.35096412
Ni       3.75730193       4.90287038       4.42762685       0.15898583       0.72429679       0.15151003
Ni       3.71531527       2.51585423      -0.21864601       0.46148716      -0.45460764      -0.77812026
Ni       0.00160240       0.03420194       2.49216162       0.13710385      -0.44401314       0.14744471
Ni       1.91851423       1.32408753       1.20651431      -0.48067783       0.29157448       0.04464420
Ni       1.87727019       3.62733340       3.31421056      -0.09014201      -0.44184189      -0.84565405
4
Lattice="3.5672608190976813 0.0 0.0 0.0 3.567385673225601 0.0 -0.07848248481069922 0.0 3.567385673225601" Properties=species:S:1:pos:R:3:forces:R:3 config_id=cfg100_AlNi3_shear_rattle_xz_negative phase=AlNi3 config_type=shear_rattle_xz_negative source=QE_7.6_PBE provenance=/workspace/ni_al/data/expansion_026_100/production_gpu/chunk_10/cfg100_AlNi3_shear_rattle_xz_negative/attempt_001/qe.out qe_output_sha256=2672461e70e32842b65a6bc9b8870fb05bd6c22bf0d96b922f13714ad1838f91 canonical_input=/workspace/ni_al/data/expansion_026_100/qe_inputs/cfg100_AlNi3_shear_rattle_xz_negative.in canonical_input_sha256=59717123c2326d9e488a71304abab90fa12fcf9904a6c63944c796acb6170911 dataset_origin=Expansion-75 source_record=Expansion-75:2672461e70e32842b65a6bc9b8870fb05bd6c22bf0d96b922f13714ad1838f91 original_dataset=/workspace/ni_al/data/processed/ni_al_expansion_dft_75.extxyz original_dataset_sha256=ff69c2bfed14bfcf48931949647d8f1b3c9353a89c20378c9113155940792137 energy=-14550.819392385223 stress="-0.001596085580674371 0.00023491741503467968 -0.01802824013492321 0.00023491741503467968 -0.001894047266595251 0.0007094859955300588 -0.01802824013492321 0.0007094859955300588 -0.002542172306664645" pbc="T T T"
Al       0.00003504       3.54813427       0.00367684      -0.00021671       0.21795706       0.04236980
Ni      -0.03293596       1.79728876       1.75316408      -0.07034877      -0.18689241       0.18948802
Ni       1.75297925       0.00134010       1.82884104      -0.07392470       0.07461768      -0.46383926
Ni       1.69021755       1.78800751       3.54908795       0.14449017      -0.10568233       0.23198144
5
Lattice="4.186494917818802 0.0 0.0 -2.0932474589094014 3.6256092612032846 0.0 0.0 0.0 5.079637557090372" Properties=species:S:1:pos:R:3:forces:R:3 config_id=cfg075_Al3Ni2_volume_rattle_expansion phase=Al3Ni2 config_type=volume_rattle_expansion source=QE_7.6_PBE provenance=/workspace/ni_al/data/expansion_026_100/production_gpu/chunk_10/cfg075_Al3Ni2_volume_rattle_expansion/attempt_001/qe.out qe_output_sha256=9deca2926255febe78a0e50a6eeb74aff096863cab3fd5201691b9dccf628aa1 canonical_input=/workspace/ni_al/data/expansion_026_100/qe_inputs/cfg075_Al3Ni2_volume_rattle_expansion.in canonical_input_sha256=b0cd42d192f50b3cb0535fb5070d86700fa7f8ade963d9a1c499252b11b8a95b dataset_origin=Expansion-75 source_record=Expansion-75:9deca2926255febe78a0e50a6eeb74aff096863cab3fd5201691b9dccf628aa1 original_dataset=/workspace/ni_al/data/processed/ni_al_expansion_dft_75.extxyz original_dataset_sha256=ff69c2bfed14bfcf48931949647d8f1b3c9353a89c20378c9113155940792137 energy=-10956.215743735123 stress="0.0655619931240083 0.0002735834364170013 -0.00034224665806800345 0.0002735834364170013 0.06706573449217142 0.0001921474953089352 -0.00034224665806800345 0.0001921474953089352 0.07127537503426941" pbc="T T T"
Al       0.02781330       0.00974567       5.07560629      -0.24451917      -0.04953577       0.00111146
Al      -0.00689601       2.39501608       3.26459583       0.03795580       0.09516814       0.35698351
Al       2.08294195       1.20758688       1.78460159       0.03663896       0.00094917      -0.03494251
Ni      -0.01864876       2.43106612       0.76214436       0.15322623      -0.06141184      -0.25890064
Ni       2.10128193       1.20780462       4.35196417       0.01669818       0.01483030      -0.06425181
2
Lattice="2.89400823689718 0.0 0.0 0.0 2.89400823689718 0.0 0.05209214826461324 0.0 2.89400823689718" Properties=species:S:1:pos:R:3:forces:R:3 config_id=cfg086_AlNi_shear_rattle_xz_positive phase=AlNi config_type=shear_rattle_xz_positive source=QE_7.6_PBE provenance=/workspace/ni_al/data/expansion_026_100/production_gpu/chunk_10/cfg086_AlNi_shear_rattle_xz_positive/attempt_001/qe.out qe_output_sha256=a17005f9f37cab9a27bb7b7fe77bc2cc599252bce7df8e9423f2bc3cf2ddf9a7 canonical_input=/workspace/ni_al/data/expansion_026_100/qe_inputs/cfg086_AlNi_shear_rattle_xz_positive.in canonical_input_sha256=baff1d80209b26089f7107b97947cf848c2b77b768fbf82fe12fd680966e3a10 dataset_origin=Expansion-75 source_record=Expansion-75:a17005f9f37cab9a27bb7b7fe77bc2cc599252bce7df8e9423f2bc3cf2ddf9a7 original_dataset=/workspace/ni_al/data/processed/ni_al_expansion_dft_75.extxyz original_dataset_sha256=ff69c2bfed14bfcf48931949647d8f1b3c9353a89c20378c9113155940792137 energy=-5209.294928610144 stress="-0.0025317838625841652 8.033177698503819e-05 0.012170680943534592 8.033177698503819e-05 -0.0027524249849831075 0.0005327965688125425 0.012170680943534592 0.0005327965688125425 -0.0015566565909622527" pbc="T T T"
Al       1.46569030       1.45147361       1.41241647       0.05181585      -0.05197786       0.38902791
Ni       0.00735989       2.88953875       0.03458765      -0.05181585       0.05197786      -0.38902791
2
Lattice="2.841916088633567 0.0 0.0 0.0 2.89400823689718 0.0 0.0 0.0 2.841916088633567" Properties=species:S:1:pos:R:3:forces:R:3 config_id=cfg087_AlNi_biaxial_xz_compression phase=AlNi config_type=biaxial_xz_compression source=QE_7.6_PBE provenance=/workspace/ni_al/data/expansion_026_100/production_gpu/chunk_10/cfg087_AlNi_biaxial_xz_compression/attempt_001/qe.out qe_output_sha256=7df03d6d565f8532c87cc70ac8d888688301a48798132d646ed03012e68c054e canonical_input=/workspace/ni_al/data/expansion_026_100/qe_inputs/cfg087_AlNi_biaxial_xz_compression.in canonical_input_sha256=b90084fba9023f2e5813e98622ef6a37978bbcf56fbcfe18e3fb3cca3f5bdf67 dataset_origin=Expansion-75 source_record=Expansion-75:7df03d6d565f8532c87cc70ac8d888688301a48798132d646ed03012e68c054e original_dataset=/workspace/ni_al/data/processed/ni_al_expansion_dft_75.extxyz original_dataset_sha256=ff69c2bfed14bfcf48931949647d8f1b3c9353a89c20378c9113155940792137 energy=-5209.293615007718 stress="-0.04284799231014978 -0.0 -0.0 -0.0 -0.0324699229495842 -0.0 -0.0 -0.0 -0.04284799231014978" pbc="T T T"
Al       1.42095804       1.44700412       1.42095804       0.00000000       0.00000000       0.00000000
Ni       0.00000000       0.00000000       0.00000000       0.00000000       0.00000000       0.00000000
2
Lattice="2.89400823689718 0.0 0.0 0.0 2.89400823689718 0.0 0.0 -0.06366818121219396 2.89400823689718" Properties=species:S:1:pos:R:3:forces:R:3 config_id=cfg088_AlNi_shear_rattle_yz_negative phase=AlNi config_type=shear_rattle_yz_negative source=QE_7.6_PBE provenance=/workspace/ni_al/data/expansion_026_100/production_gpu/chunk_10/cfg088_AlNi_shear_rattle_yz_negative/attempt_001/qe.out qe_output_sha256=685d8de95f3dec18c0cea95fcf28ec3d7c2a031707b49774c136de400e5f712e canonical_input=/workspace/ni_al/data/expansion_026_100/qe_inputs/cfg088_AlNi_shear_rattle_yz_negative.in canonical_input_sha256=9553bfc00c5cb6921f2b47f221fdf16be5788422df33c1bea9df9ebd077aaee6 dataset_origin=Expansion-75 source_record=Expansion-75:685d8de95f3dec18c0cea95fcf28ec3d7c2a031707b49774c136de400e5f712e original_dataset=/workspace/ni_al/data/processed/ni_al_expansion_dft_75.extxyz original_dataset_sha256=ff69c2bfed14bfcf48931949647d8f1b3c9353a89c20378c9113155940792137 energy=-5209.302290214271 stress="-0.0012758750432792167 -0.0003435474423980915 0.0007027698648278607 -0.0003435474423980915 -0.001161923960781353 -0.015626221816706184 0.0007027698648278607 -0.015626221816706184 -0.0015691215949571024" pbc="T T T"
Al       1.46312446       1.42232838       1.43397854      -0.18515390      -0.06664736       0.14134448
Ni       2.87788790       2.88684988       0.01302558       0.18515390       0.06664736      -0.14134448
16
Lattice="4.6324843362939605 0.0 0.0 0.0 6.358112546468973 0.0 0.0 0.0 7.087191461252698" Properties=species:S:1:pos:R:3:forces:R:3 config_id=cfg101_Al3Ni_iso_compression phase=Al3Ni config_type=iso_compression target_role=TRAIN strain_type=isotropic strain_value=-0.04 rattle_sigma_A=0 random_seed=NONE source=QE_7.6_PBE source_structure=Al3Ni_relaxed design_round=v1_cfg101-108 provenance=/workspace/ni_al/data/al3ni_remediation_v1/production_dft/cfg101_Al3Ni_iso_compression/attempt_001/qe.out qe_output_sha256=b9226b79a05435b33d5f60efb8aee92c23927309a65353e3947568b419fbbd4f canonical_input=/workspace/ni_al/data/al3ni_remediation_v1/qe_inputs/cfg101_Al3Ni_iso_compression.in canonical_input_sha256=498e071e276b9a62b9e4b3096a76a7339e2bce3cc02d4730f8fa6dd1d9d02560 energy=-25136.78698116325 stress="-0.1106148431349334 -0.0 -0.0 -0.0 -0.11353126277862602 -0.0 -0.0 -0.0 -0.11734075633386548" pbc="T T T"
Al       4.24347193       0.04773219       1.77179833      -0.03143644       0.05060013       0.00000000
Al       1.68668431       1.08927774       3.15201044       0.04113735       0.07822791       0.01476075
Al       1.68668431       1.08927774       0.39158622       0.04113735       0.07822791      -0.01476075
Al       4.00292787       2.08977900       3.93518148       0.04113735      -0.07822791      -0.01476075
Al       0.62955786       4.26833215       3.15201183      -0.04113735       0.07822791       0.01476075
Al       2.94580142       5.26883342       6.69560710      -0.04113735      -0.07822791       0.01476075
Al       0.62955786       4.26833215       0.39158483      -0.04113735       0.07822791      -0.01476075
Al       2.94580142       5.26883342       3.93518241      -0.04113735      -0.07822791      -0.01476075
Al       4.00292787       2.08977900       6.69560803       0.04113735      -0.07822791       0.01476075
Al       2.70525504       3.22678615       1.77179833       0.03143644       0.05060013       0.00000000
Al       0.38901380       6.31037897       5.31539499       0.03143644      -0.05060013       0.00000000
Al       1.92723069       3.13132501       5.31539499      -0.03143644      -0.05060013       0.00000000
Ni       2.05252040       5.53382543       1.77179833       0.02748626       0.05075561       0.00000000
Ni       0.26372270       2.35476915       1.77179833      -0.02748626       0.05075561       0.00000000
Ni       2.57996533       0.82428573       5.31539499      -0.02748626      -0.05075561       0.00000000
Ni       4.36876302       4.00334201       5.31539499       0.02748626      -0.05075561       0.00000000
16
Lattice="4.728994426633105 0.0 0.0 0.0 6.490573224520079 0.0 0.0 0.0 7.234841283362067" Properties=species:S:1:pos:R:3:forces:R:3 config_id=cfg102_Al3Ni_iso_compression phase=Al3Ni config_type=iso_compression target_role=TRAIN strain_type=isotropic strain_value=-0.02 rattle_sigma_A=0 random_seed=NONE source=QE_7.6_PBE source_structure=Al3Ni_relaxed design_round=v1_cfg101-108 provenance=/workspace/ni_al/data/al3ni_remediation_v1/production_dft/cfg102_Al3Ni_iso_compression/attempt_001/qe.out qe_output_sha256=d6ab560d917e9b66f6d25ce62e5b31c66426bfb241085e887ff688be3b22fa4c canonical_input=/workspace/ni_al/data/al3ni_remediation_v1/qe_inputs/cfg102_Al3Ni_iso_compression.in canonical_input_sha256=bf38b8aa2d2f0d80b7ca716ab8fb663cd181284a1a5efe59f0bb32c096b83782 energy=-25137.852923354832 stress="-0.04779436731565564 -0.0 -0.0 -0.0 -0.049146796911615075 -0.0 -0.0 -0.0 -0.05080927456005347" pbc="T T T"
Al       4.33187759       0.04872661       1.80871079      -0.01257624       0.02309814       0.00000000
Al       1.72182356       1.11197102       3.21767732       0.01677039       0.03553906       0.00558589
Al       1.72182356       1.11197102       0.39974426       0.01677039       0.03553906      -0.00558589
Al       4.08632220       2.13331607       4.01716443       0.01677039      -0.03553906      -0.00558589
Al       0.64267365       4.35725574       3.21767874      -0.01677039       0.03553906       0.00558589
Al       3.00717229       5.37860078       6.83509891      -0.01677039      -0.03553906       0.00558589
Al       0.64267365       4.35725574       0.39974284      -0.01677039       0.03553906      -0.00558589
Al       3.00717229       5.37860078       4.01716538      -0.01677039      -0.03553906      -0.00558589
Al       4.08632220       2.13331607       6.83509986       0.01677039      -0.03553906       0.00558589
Al       2.76161452       3.29401086       1.80871079       0.01257624       0.02309814       0.00000000
Al       0.39711826       6.44184520       5.42613238       0.01257624      -0.02309814       0.00000000
Al       1.96738133       3.19656095       5.42613238      -0.01257624      -0.02309814       0.00000000
Ni       2.09528124       5.64911346       1.80871079       0.01159294       0.02165518       0.00000000
Ni       0.26921693       2.40382684       1.80871079      -0.01159294       0.02165518       0.00000000
Ni       2.63371461       0.84145835       5.42613238      -0.01159294      -0.02165518       0.00000000
Ni       4.45977892       4.08674497       5.42613238       0.01159294      -0.02165518       0.00000000
16
Lattice="4.922014607312396 0.0 0.0 0.0 6.755494580623288 0.0 0.0 0.0 7.530140927580801" Properties=species:S:1:pos:R:3:forces:R:3 config_id=cfg103_Al3Ni_iso_expansion phase=Al3Ni config_type=iso_expansion target_role=TRAIN strain_type=isotropic strain_value=0.02 rattle_sigma_A=0 random_seed=NONE source=QE_7.6_PBE source_structure=Al3Ni_relaxed design_round=v1_cfg101-108 provenance=/workspace/ni_al/data/al3ni_remediation_v1/production_dft/cfg103_Al3Ni_iso_expansion/attempt_001/qe.out qe_output_sha256=1135adaf3cfd3decfa27b6018525d142726f4823985776ffb055abaf53c73046 canonical_input=/workspace/ni_al/data/al3ni_remediation_v1/qe_inputs/cfg103_Al3Ni_iso_expansion.in canonical_input_sha256=18c2a4828828c3c0c105d7555705d96b2cc70cdee5e84f162b049b9ad78880d9 energy=-25137.893678158136 stress="0.03601188980218816 -0.0 -0.0 -0.0 0.03739347387316102 -0.0 -0.0 -0.0 0.03842481654099541" pbc="T T T"
Al       4.50868892       0.05071545       1.88253572       0.00883355      -0.01883170       0.00000000
Al       1.79210208       1.15735760       3.34901109      -0.01717818      -0.02311574      -0.00683718
Al       1.79210208       1.15735760       0.41606036      -0.01717818      -0.02311574       0.00683718
Al       4.25311086       2.22039019       4.18113032      -0.01717818       0.02311574       0.00683718
Al       0.66890523       4.53510291       3.34901257       0.01717818      -0.02311574      -0.00683718
Al       3.12991401       5.59813551       7.11408254       0.01717818       0.02311574      -0.00683718
Al       0.66890523       4.53510291       0.41605888       0.01717818      -0.02311574       0.00683718
Al       3.12991401       5.59813551       4.18113131       0.01717818       0.02311574       0.00683718
Al       4.25311086       2.22039019       7.11408353      -0.01717818       0.02311574      -0.00683718
Al       2.87433348       3.42846028       1.88253572      -0.00883355      -0.01883170       0.00000000
Al       0.41332716       6.70477765       5.64760717      -0.00883355       0.01883170       0.00000000
Al       2.04768261       3.32703283       5.64760717       0.00883355       0.01883170       0.00000000
Ni       2.18080292       5.87968952       1.88253572      -0.00692372      -0.01877889       0.00000000
Ni       0.28020537       2.50194222       1.88253572       0.00692372      -0.01877889       0.00000000
Ni       2.74121317       0.87580359       5.64760717       0.00692372       0.01877889       0.00000000
Ni       4.64181071       4.25355089       5.64760717      -0.00692372       0.01877889       0.00000000
16
Lattice="4.728994426633105 0.0 0.0 0.0 6.490573224520079 0.0 0.0 0.0 7.234841283362067" Properties=species:S:1:pos:R:3:forces:R:3 config_id=cfg104_Al3Ni_volume_rattle_compression phase=Al3Ni config_type=volume_rattle_compression target_role=TRAIN strain_type=isotropic strain_value=-0.02 rattle_sigma_A=0.015 random_seed=20261104 source=QE_7.6_PBE source_structure=Al3Ni_relaxed design_round=v1_cfg101-108 provenance=/workspace/ni_al/data/al3ni_remediation_v1/production_dft/cfg104_Al3Ni_volume_rattle_compression/attempt_001/qe.out qe_output_sha256=b68da2f8c4f711c570394be3694dfd883dabca6a9df5f38a3218f19616e3555e canonical_input=/workspace/ni_al/data/al3ni_remediation_v1/qe_inputs/cfg104_Al3Ni_volume_rattle_compression.in canonical_input_sha256=46356e6f9ab4e88d2d204f689a91db128eb8d919316b68f3546e3796cbf3a54b energy=-25137.804284486054 stress="-0.04891150299813262 0.000595223495831893 0.0004237810864444241 0.000595223495831893 -0.0489823422402747 -0.001128580269006958 0.0004237810864444241 -0.001128580269006958 -0.05111061332716612" pbc="T T T"
Al       4.34619042       0.07077376       1.80693924      -0.20251447      -0.14238475      -0.05501899
Al       1.69295762       1.09040843       3.20716026       0.21562529       0.19449610       0.13155416
Al       1.73379883       1.10407682       0.41856502      -0.02036890       0.18338718      -0.24251356
Al       4.08984371       2.12025550       4.02085695      -0.01778801       0.06700926      -0.01372140
Al       0.61735198       4.35635266       3.22085163       0.19402716       0.13992412      -0.11416236
Al       3.00590712       5.35517195       6.84998744       0.02338060       0.18579760      -0.27016269
Al       0.63970242       4.37448163       0.37893656       0.05987494      -0.11538118       0.30741176
Al       2.99492300       5.39278138       4.00180224       0.09884794      -0.14716514       0.17501513
Al       4.08559241       2.11603941       6.82865389       0.15590219       0.08648817       0.10345028
Al       2.77718718       3.28708601       1.81749436      -0.25551182       0.15963659      -0.01526758
Al       0.41010070       6.42644074       5.44123619      -0.02997749       0.07206676      -0.04410909
Al       1.96292397       3.19971504       5.43937720       0.05760857      -0.04237822      -0.10817289
Ni       2.10366421       5.65763072       1.78262582      -0.07096020      -0.18380911       0.33795360
Ni       0.25804055       2.42038045       1.81306814       0.18702869      -0.05690784      -0.11089551
Ni       2.64273984       0.86224041       5.40748070      -0.18065735      -0.33069693       0.21978689
Ni       4.47104282       4.09073954       5.44370881      -0.21451716      -0.07008260      -0.30114777
16
Lattice="4.922014607312396 0.0 0.0 0.0 6.755494580623288 0.0 0.0 0.0 7.530140927580801" Properties=species:S:1:pos:R:3:forces:R:3 config_id=cfg105_Al3Ni_volume_rattle_expansion phase=Al3Ni config_type=volume_rattle_expansion target_role=TRAIN strain_type=isotropic strain_value=0.02 rattle_sigma_A=0.015 random_seed=20261105 source=QE_7.6_PBE source_structure=Al3Ni_relaxed design_round=v1_cfg101-108 provenance=/workspace/ni_al/data/al3ni_remediation_v1/production_dft/cfg105_Al3Ni_volume_rattle_expansion/attempt_001/qe.out qe_output_sha256=a24f0fe2d37ab54d267781ec2b25df6aa8256118dc274bc1ce7bba76690f9c69 canonical_input=/workspace/ni_al/data/al3ni_remediation_v1/qe_inputs/cfg105_Al3Ni_volume_rattle_expansion.in canonical_input_sha256=a58dee5262de4b7ac99c72850df85dabebfb50c88bdf0cf0b7bbe1c416703e7c energy=-25137.842503196614 stress="0.03394421790376644 0.0010491889673936946 0.00014823057264710013 0.0010491889673936946 0.038640188031540804 -0.0005481079639695494 0.00014823057264710013 -0.0005481079639695494 0.03753226623734709" pbc="T T T"
Al       4.50593930       0.04291961       1.87025276       0.03392078       0.01531144       0.06681236
Al       1.80101508       1.17375710       3.35631205      -0.01254352      -0.10525589      -0.12426298
Al       1.77879532       1.13127922       0.38446261      -0.11849785       0.10224087       0.29535104
Al       4.28052177       2.22362381       4.16544675      -0.24150007      -0.02414058       0.25424164
Al       0.67059964       4.55136452       3.37441602       0.13171841      -0.07289700      -0.20396455
Al       3.14455926       5.59884940       7.11305891      -0.08484497      -0.00535996       0.07425450
Al       0.66912251       4.55258551       0.38878824       0.06730862      -0.13050890       0.20086492
Al       3.15411299       5.60141248       4.19925641      -0.21903860       0.07251013      -0.20013349
Al       4.23472212       2.21736960       7.11833411       0.06023725       0.04924531      -0.03785533
Al       2.89620811       3.43720466       1.87067502      -0.20908449       0.00107507       0.02648753
Al       0.41356894       6.69243332       5.64966023       0.00674755       0.13796120      -0.02913208
Al       2.04010217       3.31039636       5.67014305       0.03410243       0.06427280      -0.08316909
Ni       2.17552258       5.86609827       1.88831054       0.00743735       0.07808952      -0.00152923
Ni       0.25023713       2.51121406       1.89961558       0.30411216      -0.09254834      -0.23901162
Ni       2.72573880       0.84700647       5.65613647       0.16745993       0.27710077      -0.13204888
Ni       4.63536297       4.28643045       5.63627345       0.07246501      -0.36709643       0.13309525
16
Lattice="4.825504516972251 0.0 0.0 0.0 6.623033902572181 0.0 0.0 0.0 7.382491105471437" Properties=species:S:1:pos:R:3:forces:R:3 config_id=cfg106_Al3Ni_rattle_020 phase=Al3Ni config_type=rattle_020 target_role=TRAIN strain_type=none strain_value=0 rattle_sigma_A=0.02 random_seed=20261106 source=QE_7.6_PBE source_structure=Al3Ni_relaxed design_round=v1_cfg101-108 provenance=/workspace/ni_al/data/al3ni_remediation_v1/production_dft/cfg106_Al3Ni_rattle_020/attempt_001/qe.out qe_output_sha256=3703cbce744bc423533c3537b03214ea2fcfad02995070d4c97adcdcbd258e78 canonical_input=/workspace/ni_al/data/al3ni_remediation_v1/qe_inputs/cfg106_Al3Ni_rattle_020.in canonical_input_sha256=852c7538f5dd8c4192b944a5ecb9c5705e8d8b7d99135b37a0ce29ee9333fac4 energy=-25138.11457069661 stress="-0.00041934054503884563 -0.0005038984810788609 -0.000425268753372954 -0.0005038984810788609 -0.0002555176320082946 -0.0011017921753104782 -0.000425268753372954 -0.0011017921753104782 -0.0007870269636921391" pbc="T T T"
Al       4.45370001       0.07421633       1.84211920      -0.25672141      -0.23188549       0.02479167
Al       1.78857196       1.13029398       3.28218825      -0.15823452       0.12622155      -0.05577010
Al       1.77051173       1.14881978       0.36813271      -0.25936065       0.01262097       0.37228969
Al       4.17196245       2.16037660       4.10753645       0.07597964       0.07204659      -0.06408170
Al       0.66525291       4.44865454       3.27905980      -0.17886256      -0.04823373       0.06707910
Al       3.08482499       5.47330234       7.00705897      -0.04422330       0.04463711      -0.21705623
Al       0.65129313       4.44393303       0.38193283       0.04687462      -0.08591045       0.14519617
Al       3.05064685       5.50832022       4.11393054       0.13822882      -0.18444673      -0.05472915
Al       4.14685655       2.16298573       6.98694341       0.23433073       0.12376616       0.07959113
Al       2.83014066       3.37940947       1.83775002      -0.04368882      -0.05499626       0.04913922
Al       0.38774535       6.58674382       5.52855066       0.05168820      -0.15755001       0.02862933
Al       1.99705140       3.24923383       5.53928403       0.05819802       0.09421991      -0.04428706
Ni       2.09264053       5.77294565       1.83357471       0.38289119       0.04909845       0.10217090
Ni       0.28031981       2.44425057       1.87708144       0.05010320       0.12040761      -0.32462357
Ni       2.68232511       0.87056582       5.55154691       0.02393314      -0.25167035      -0.19512591
Ni       4.55020429       4.13020793       5.52325339      -0.12113633       0.37167466       0.08678651
16
Lattice="4.6324843362939605 0.0 0.0 0.0 6.358112546468973 0.0 0.0 0.0 7.087191461252698" Properties=species:S:1:pos:R:3:forces:R:3 config_id=cfg107_Al3Ni_volume_rattle_compression phase=Al3Ni config_type=volume_rattle_compression target_role=VALIDATION strain_type=isotropic strain_value=-0.04 rattle_sigma_A=0.015 random_seed=20261107 source=QE_7.6_PBE source_structure=Al3Ni_relaxed design_round=v1_cfg101-108 provenance=/workspace/ni_al/data/al3ni_remediation_v1/production_dft/cfg107_Al3Ni_volume_rattle_compression/attempt_001/qe.out qe_output_sha256=aa6ad5501c43cf052e8e3a8570720b8254cf135d874c430fa9df29b8fc607078 canonical_input=/workspace/ni_al/data/al3ni_remediation_v1/qe_inputs/cfg107_Al3Ni_volume_rattle_compression.in canonical_input_sha256=6bbc7ec40344ef38c3d465a70754138722397c9f8cf7cb0520470f2982b3335d energy=-25136.729873890665 stress="-0.11161651377276013 0.0003603919437782513 0.0006223190244578794 0.0003603919437782513 -0.1144194863539223 0.000805831662783666 0.0006223190244578794 0.000805831662783666 -0.11818678045671702" pbc="T T T"
Al       4.24681929       0.03253942       1.77470803       0.01057009       0.19479330      -0.07485971
Al       1.67845408       1.08771692       3.14815347       0.11810411       0.11535348       0.17680010
Al       1.69666667       1.10085118       0.37603866      -0.23755470       0.03390545       0.28820219
Al       4.00281149       2.09765845       3.93403586      -0.10179107      -0.19283472       0.13893817
Al       0.62895619       4.26427519       3.14486186      -0.04602608       0.13102181       0.19165005
Al       2.95747717       5.29408865       6.67666815      -0.14119363      -0.38805634       0.42892703
Al       0.65418760       4.25581440       0.40665552      -0.16864133       0.09529748      -0.18894749
Al       2.95506926       5.28556920       3.92648688      -0.03135978      -0.27990616       0.13913668
Al       3.98676570       2.07679604       6.68333869       0.23162489       0.10271098       0.22186013
Al       2.71532488       3.21602591       1.78083552       0.00601236       0.19459436      -0.03193768
Al       0.37172549       6.30773772       5.31243263       0.17585473      -0.02545297      -0.00534102
Al       1.91004009       3.13710307       5.28856169       0.22885712      -0.13028389       0.11209785
Ni       2.04554318       5.54584654       1.79811147       0.16301522      -0.08201379      -0.50172029
Ni       0.27271674       2.35469279       1.78546401      -0.13627647      -0.07166859      -0.29527659
Ni       2.55726042       0.80663757       5.32681729       0.10340289       0.31672119      -0.38040170
Ni       4.38006758       4.00153622       5.33437585      -0.17459834      -0.01418160      -0.21912773
16
Lattice="4.825504516972251 0.0 0.0 0.0 6.623033902572181 0.0 0.0 0.0 7.382491105471437" Properties=species:S:1:pos:R:3:forces:R:3 config_id=cfg108_Al3Ni_rattle_030 phase=Al3Ni config_type=rattle_030 target_role=VALIDATION strain_type=none strain_value=0 rattle_sigma_A=0.03 random_seed=20261108 source=QE_7.6_PBE source_structure=Al3Ni_relaxed design_round=v1_cfg101-108 provenance=/workspace/ni_al/data/al3ni_remediation_v1/production_dft/cfg108_Al3Ni_rattle_030/attempt_001/qe.out qe_output_sha256=684fc2bdc3ccf4e39c7fbdf4ad795d73498feb670bbabfa2a6c566d5278788b5 canonical_input=/workspace/ni_al/data/al3ni_remediation_v1/qe_inputs/cfg108_Al3Ni_rattle_030.in canonical_input_sha256=181322f9dcac76ecbdbcf2f51ff61dc3c39ae7e6c39839c3f715509b60f7cf6a energy=-25138.050115129652 stress="0.0005951530646584453 0.0015131449090949023 1.9440841772131776e-05 0.0015131449090949023 -0.0025608806130994815 -2.2711719307704898e-05 1.9440841772131776e-05 -2.2711719307704898e-05 -0.002861949897187296" pbc="T T T"
Al       4.38866846       0.03673643       1.84744713       0.32929770       0.18723487       0.03597861
Al       1.75275886       1.12908778       3.28846724       0.01091030       0.06415491       0.06621236
Al       1.74563897       1.10543755       0.41698110       0.02719850       0.15831197      -0.05765193
Al       4.18886992       2.16216752       4.02950032      -0.37442900       0.04603196       0.61275273
Al       0.64062549       4.41831588       3.26046300       0.14329497       0.38575985       0.32037140
Al       3.08469894       5.49247754       6.97492613      -0.06469474      -0.04626667       0.07222369
Al       0.66332152       4.43121260       0.41839262       0.05158495       0.20231764      -0.11872294
Al       3.05691426       5.48762995       4.10273051       0.05304899      -0.08130602       0.07840562
Al       4.20518429       2.13486255       6.98991980      -0.25115905       0.22053404      -0.03869869
Al       2.80423981       3.34794784       1.82734236       0.05721504       0.10530565       0.02032265
Al       0.34112099       0.02721973       5.52061315       0.30313826      -0.43866207       0.00023906
Al       2.05543466       3.29167662       5.53657569      -0.09584716      -0.18785700       0.03099247
Ni       2.14816818       5.81171877       1.86333873      -0.23166249      -0.55720030      -0.13394598
Ni       0.28868845       2.49250823       1.87072835      -0.01430910      -0.45690982      -0.46270349
Ni       2.68062522       0.85374460       5.55089508       0.05683923       0.16182607      -0.15545354
Ni       4.55908970       4.13848215       5.56162211      -0.00042641       0.23672492      -0.27032202
16
Lattice="5.0474777247529845 0.0 0.0 0.0 6.927693462089924 0.0 0.0 0.0 7.7220856963227815" Properties=species:S:1:pos:R:3:forces:R:3 config_id=cfg111_Al3Ni_iso_expansion phase=Al3Ni config_type=iso_expansion target_role=TRAIN strain_type=isotropic strain_value=0.046 rattle_sigma_A=0.0 random_seed=NONE source=QE_7.6_PBE source_structure=Al3Ni_relaxed design_round=round2_cfg111-115 provenance=/workspace/ni_al/data/al3ni_remediation_v1/round2_production_dft/cfg111_Al3Ni_iso_expansion/attempt_001/qe.out qe_output_sha256=bdaca399293e6310e9f4cee3ff3280c9438110d4cc5ef5b2363e026e454e137b canonical_input=/workspace/ni_al/data/al3ni_remediation_v1/round2_qe_inputs/cfg111_Al3Ni_iso_expansion.in canonical_input_sha256=a1eedbbda6a571124f2df923d67fa4a22ac5dbe73782e26b99f524d4a8ca4fd4 energy=-25136.80326359608 stress="0.06870074315239487 -0.0 -0.0 -0.0 0.07147683074787389 -0.0 -0.0 -0.0 0.07353257616847635" pbc="T T T"
Al       4.62361629       0.05200820       1.93052193       0.01413944      -0.03580022       0.00000000
Al       1.83778311       1.18685887       3.43437804      -0.03055929      -0.04770032      -0.01395465
Al       1.83778311       1.18685887       0.42666582      -0.03055929      -0.04770032       0.01395465
Al       4.36152349       2.27698837       4.28770816      -0.03055929       0.04770032       0.01395465
Al       0.68595575       4.65070358       3.43437956       0.03055929      -0.04770032      -0.01395465
Al       3.20969613       5.74083308       7.29542190       0.03055929       0.04770032      -0.01395465
Al       0.68595575       4.65070358       0.42666430       0.03055929      -0.04770032       0.01395465
Al       3.20969613       5.74083308       4.28770917       0.03055929       0.04770032       0.01395465
Al       4.36152349       2.27698837       7.29542291      -0.03055929       0.04770032      -0.01395465
Al       2.94760080       3.51585240       1.93052193      -0.01413944      -0.03580022       0.00000000
Al       0.42386295       6.87568375       5.79156579      -0.01413944       0.03580022       0.00000000
Al       2.09987844       3.41183954       5.79156579       0.01413944       0.03580022       0.00000000
Ni       2.23639201       6.02956395       1.93052193      -0.01230178      -0.03396066       0.00000000
Ni       0.28734786       2.56571722       1.93052193       0.01230178      -0.03396066       0.00000000
Ni       2.81108723       0.89812799       5.79156579       0.01230178       0.03396066       0.00000000
Ni       4.76013138       4.36197473       5.79156579      -0.01230178       0.03396066       0.00000000
16
Lattice="5.0474777247529845 0.0 0.0 0.0 6.927693462089924 0.0 0.0 0.0 7.7220856963227815" Properties=species:S:1:pos:R:3:forces:R:3 config_id=cfg112_Al3Ni_volume_rattle_expansion phase=Al3Ni config_type=volume_rattle_expansion target_role=TRAIN strain_type=isotropic strain_value=0.046 rattle_sigma_A=0.015 random_seed=20261112 source=QE_7.6_PBE source_structure=Al3Ni_relaxed design_round=round2_cfg111-115 provenance=/workspace/ni_al/data/al3ni_remediation_v1/round2_production_dft/cfg112_Al3Ni_volume_rattle_expansion/attempt_001/qe.out qe_output_sha256=4d8158c033348134e155cea81a24c6d3ab47a0f9475f52d2a576cf7728e8fd5f canonical_input=/workspace/ni_al/data/al3ni_remediation_v1/round2_qe_inputs/cfg112_Al3Ni_volume_rattle_expansion.in canonical_input_sha256=0f55edba5ee45a2444c3bda1da036e181663c7258240e2e31133d3753fde310a energy=-25136.789262864713 stress="0.0688647045586234 0.0005936816338106077 -0.00010572484088155858 0.0005936816338106077 0.07103495218032217 -0.00013982837636009157 -0.00010572484088155858 -0.00013982837636009157 0.0732541171355738" pbc="T T T"
Al       4.64091981       0.03355409       1.92282006      -0.05034503       0.01095601       0.00521081
Al       1.81470803       1.16189096       3.44872215       0.03843829       0.07002170      -0.08022797
Al       1.82929174       1.18753150       0.43549050       0.05570563      -0.05577693      -0.01580040
Al       4.38102905       2.28280257       4.29271732      -0.14971932       0.00765345       0.01877159
Al       0.67792897       4.65459537       3.43548105       0.05637981      -0.03109697      -0.02803450
Al       3.21614342       5.74548757       7.28890343      -0.01334710       0.04448013      -0.01674980
Al       0.66303773       4.64953587       0.41692331       0.15088670      -0.01445661       0.06185318
Al       3.20435952       5.76588699       4.27794571       0.11470301      -0.06475813       0.07888616
Al       4.38362081       2.26342424       7.31252104      -0.15810282       0.05423859      -0.11186349
Al       2.93126994       3.51583425       1.92973356      -0.00154839      -0.03990114       0.00774211
Al       0.43443526       6.88043244       5.78564680      -0.05279498       0.00432479       0.02891795
Al       2.09669100       3.41286064       5.79300028       0.08782045       0.01076615      -0.00481097
Ni       2.23378147       6.03294410       1.92614364      -0.04205276      -0.06191376      -0.00801234
Ni       0.27575279       2.58052328       1.93336150       0.06476965      -0.10757540       0.02436972
Ni       2.81780941       0.90253338       5.79039057       0.02211866       0.05220877       0.03288072
Ni       4.77905497       4.35169835       5.78689981      -0.12291183       0.12082935       0.00686722
16
Lattice="5.095732769923057 0.0 0.0 0.0 6.993923801116475 0.0 0.0 0.0 7.795910607377464" Properties=species:S:1:pos:R:3:forces:R:3 config_id=cfg113_Al3Ni_iso_expansion phase=Al3Ni config_type=iso_expansion target_role=TRAIN strain_type=isotropic strain_value=0.056 rattle_sigma_A=0.0 random_seed=NONE source=QE_7.6_PBE source_structure=Al3Ni_relaxed design_round=round2_cfg111-115 provenance=/workspace/ni_al/data/al3ni_remediation_v1/round2_production_dft/cfg113_Al3Ni_iso_expansion/attempt_001/qe.out qe_output_sha256=cee554e6cd6a6ea8739366f399b5876d6b7422bb30cd0e2ee5fdcf3ab6bccde7 canonical_input=/workspace/ni_al/data/al3ni_remediation_v1/round2_qe_inputs/cfg113_Al3Ni_iso_expansion.in canonical_input_sha256=347b1e387c2c3bda0a71a13b6640a7017c54aa6d719d6a66fcee0cf134e7f028 energy=-25136.208046426647 stress="0.07789581973251944 -0.0 -0.0 -0.0 0.08109761008917554 -0.0 -0.0 -0.0 0.08345613992333485" pbc="T T T"
Al       4.66781912       0.05250541       1.94897816       0.01488077      -0.04007542       0.00000000
Al       1.85535274       1.19820551       3.46721148      -0.03420588      -0.05514491      -0.01693266
Al       1.85535274       1.19820551       0.43074484      -0.03420588      -0.05514491       0.01693266
Al       4.40322065       2.29875690       4.32869963      -0.03420588       0.05514491       0.01693266
Al       0.69251365       4.69516537       3.46721301       0.03420588      -0.05514491      -0.01693266
Al       3.24038156       5.79571676       7.36516781       0.03420588       0.05514491      -0.01693266
Al       0.69251365       4.69516537       0.43074331       0.03420588      -0.05514491       0.01693266
Al       3.24038156       5.79571676       4.32870065       0.03420588       0.05514491       0.01693266
Al       4.40322065       2.29875690       7.36516883      -0.03420588       0.05514491      -0.01693266
Al       2.97578054       3.54946476       1.94897816      -0.01488077      -0.04007542       0.00000000
Al       0.42791518       6.94141687       5.84693448      -0.01488077       0.04007542       0.00000000
Al       2.11995376       3.44445751       5.84693448       0.01488077       0.04007542       0.00000000
Ni       2.25777244       6.08720797       1.94897816      -0.01338257      -0.03776509       0.00000000
Ni       0.29009497       2.59024606       1.94897816       0.01338257      -0.03776509       0.00000000
Ni       2.83796187       0.90671430       5.84693448       0.01338257       0.03776509       0.00000000
Ni       4.80563933       4.40367621       5.84693448      -0.01338257       0.03776509       0.00000000
16
Lattice="5.095732769923057 0.0 0.0 0.0 6.993923801116475 0.0 0.0 0.0 7.795910607377464" Properties=species:S:1:pos:R:3:forces:R:3 config_id=cfg114_Al3Ni_volume_rattle_expansion phase=Al3Ni config_type=volume_rattle_expansion target_role=TRAIN strain_type=isotropic strain_value=0.056 rattle_sigma_A=0.015 random_seed=20261114 source=QE_7.6_PBE source_structure=Al3Ni_relaxed design_round=round2_cfg111-115 provenance=/workspace/ni_al/data/al3ni_remediation_v1/round2_production_dft/cfg114_Al3Ni_volume_rattle_expansion/attempt_001/qe.out qe_output_sha256=29941f47c758f7f57e26228e916c81e4c82f45522a29cc1f0a37aed198a267a1 canonical_input=/workspace/ni_al/data/al3ni_remediation_v1/round2_qe_inputs/cfg114_Al3Ni_volume_rattle_expansion.in canonical_input_sha256=6fd65fe8936b4f7c209fa1457c5b6fa44fa2c4b3628ca9757248856e5cf1d921 energy=-25136.17840575565 stress="0.07712022841015373 0.00010103280446315235 -0.00039069374674141123 0.00010103280446315235 0.08130137378593494 -1.4655748373037102e-05 -0.00039069374674141123 -1.4655748373037102e-05 0.08276448665705584" pbc="T T T"
Al       4.65478436       0.06161245       1.94698509       0.04391152      -0.05961675      -0.00403814
Al       1.86811426       1.17000935       3.45613030      -0.10855735       0.05893339       0.00983618
Al       1.84710873       1.19983922       0.43034113       0.02404636      -0.07777296       0.00571156
Al       4.39641212       2.29561504       4.33008382       0.01743136       0.06736744       0.00165936
Al       0.71343310       4.66729512       3.46837256      -0.05637968       0.02099699       0.00569996
Al       3.24474896       5.75286016       7.38056468      -0.02356079       0.21764207      -0.12278597
Al       0.67742490       4.72311471       0.41764162       0.09455087      -0.14221855       0.08851660
Al       3.22939258       5.80455247       4.30162503       0.14462927      -0.01039054       0.15802964
Al       4.41353263       2.30522965       7.36510021      -0.04842461       0.06427166       0.03456898
Al       2.98034091       3.55842023       1.95651907      -0.00947999      -0.09828156      -0.03922304
Al       0.42889388       6.94947978       5.85063551      -0.03494844       0.02506951      -0.01205926
Al       2.11383019       3.43838621       5.86183501      -0.00064429       0.10279670      -0.02509074
Ni       2.26146860       6.07749570       1.91062693      -0.03883858       0.00539453       0.19434836
Ni       0.30389994       2.58961342       1.95424371      -0.03283581      -0.04691867      -0.01312981
Ni       2.83850803       0.95734050       5.87200253       0.00676945      -0.22967193      -0.14052633
Ni       4.79398123       4.40051418       5.86459294       0.02233072       0.10239869      -0.14151733
16
Lattice="5.081256256372335 0.0 0.0 0.0 6.974054699408209 0.0 0.0 0.0 7.77376313406166" Properties=species:S:1:pos:R:3:forces:R:3 config_id=cfg115_Al3Ni_iso_expansion phase=Al3Ni config_type=iso_expansion target_role=VALIDATION strain_type=isotropic strain_value=0.053 rattle_sigma_A=0.0 random_seed=NONE source=QE_7.6_PBE source_structure=Al3Ni_relaxed design_round=round2_cfg111-115 provenance=/workspace/ni_al/data/al3ni_remediation_v1/round2_production_dft/cfg115_Al3Ni_iso_expansion/attempt_001/qe.out qe_output_sha256=31cf652fc742e0dd32b754985c19137dbb6f42c80938870e3630fea383ecb923 canonical_input=/workspace/ni_al/data/al3ni_remediation_v1/round2_qe_inputs/cfg115_Al3Ni_iso_expansion.in canonical_input_sha256=947eb701b642e1e2890b4f21c9680621ece52c0bfd3276a9cbaf9e174e2d10e7 energy=-25136.39557985407 stress="0.07529627495045657 -0.0 -0.0 -0.0 0.0783777375374424 -0.0 -0.0 -0.0 0.08064946378457977" pbc="T T T"
Al       4.65455827       0.05235624       1.94344129       0.01472011      -0.03892443       0.00000000
Al       1.85008185       1.19480152       3.45736145      -0.03319127      -0.05301102      -0.01601723
Al       1.85008185       1.19480152       0.42952113      -0.03319127      -0.05301102       0.01601723
Al       4.39071150       2.29222634       4.31640219      -0.03319127       0.05301102       0.01601723
Al       0.69054628       4.68182683       3.45736298       0.03319127      -0.05301102      -0.01601723
Al       3.23117593       5.77925166       7.34424403       0.03319127       0.05301102      -0.01601723
Al       0.69054628       4.68182683       0.42951961       0.03319127      -0.05301102       0.01601723
Al       3.23117593       5.77925166       4.31640321       0.03319127       0.05301102       0.01601723
Al       4.39071150       2.29222634       7.34424506      -0.03319127       0.05301102      -0.01601723
Al       2.96732662       3.53938105       1.94344129      -0.01472011      -0.03892443       0.00000000
Al       0.42669951       6.92169693       5.83032387      -0.01472011       0.03892443       0.00000000
Al       2.11393116       3.43467212       5.83032387       0.01472011       0.03892443       0.00000000
Ni       2.25135831       6.06991477       1.94344129      -0.01311426      -0.03675682       0.00000000
Ni       0.28927084       2.58288741       1.94344129       0.01311426      -0.03675682       0.00000000
Ni       2.82989947       0.90413841       5.83032387       0.01311426       0.03675682       0.00000000
Ni       4.79198694       4.39116577       5.83032387      -0.01311426       0.03675682       0.00000000
5
Lattice="3.9357097150115354 0.0 0.0 -1.9678548575057677 3.408423005943483 0.0 0.0 0.0 4.907862374000466" Properties=species:S:1:pos:R:3:forces:R:3 config_id=cfg117_Al3Ni2_biaxial_xy_compression phase=Al3Ni2 config_type=biaxial_xy_compression target_role=TRAIN gap_ref=A1/cfg073 source=QE_7.6_PBE provenance=/workspace/ni_al/data/al3ni_remediation_v1/round3_production_dft/pod01/cfg117_Al3Ni2_biaxial_xy_compression/attempt_001/qe.out qe_output_sha256=58c19f21f6d4c3046202a54ece0a4b6ad4a23f8a8bea6a22b09963bc86a2e89e canonical_input=/workspace/ni_al/data/al3ni_remediation_v1/round3_structures/pod_01/cfg117_Al3Ni2_biaxial_xy_compression.in canonical_input_sha256=0d1d5795311041695a9d898c387b6c739860557bb8cb98eaa69f8c652a662db8 energy=-10956.4043563814 stress="-0.06183759674980148 -0.0 -0.0 -0.0 -0.06183765441339181 -0.0 -0.0 -0.0 -0.0281687548248285" pbc="T T T"
Al       0.00000000       0.00000000       0.00000000      -0.00000000       0.00000000       0.00000000
Al      -0.00000275       2.27228358       3.17789306       0.00000000       0.00000000      -0.06187642
Al       1.96785643       1.13613982       1.72996891       0.00000000      -0.00000000       0.06187642
Ni      -0.00000275       2.27228358       0.71968598       0.00000000       0.00000000       0.11757478
Ni       1.96785643       1.13613982       4.18817639       0.00000000       0.00000000      -0.11757478
4
Lattice="3.4959156027154075 0.0 0.0 0.0 3.4960379597613294 0.0 0.0 0.0 3.4960379597613294" Properties=species:S:1:pos:R:3:forces:R:3 config_id=cfg118_AlNi3_volume_rattle_compression phase=AlNi3 config_type=volume_rattle_compression target_role=TRAIN gap_ref=A2/cfg098 source=QE_7.6_PBE provenance=/workspace/ni_al/data/al3ni_remediation_v1/round3_production_dft/pod01/cfg118_AlNi3_volume_rattle_compression/attempt_001/qe.out qe_output_sha256=34b387f2279520e4f6d6bffd3d2020d3d785781eb9f5cd00fec6f5b0aeaba338 canonical_input=/workspace/ni_al/data/al3ni_remediation_v1/round3_structures/pod_02/cfg118_AlNi3_volume_rattle_compression.in canonical_input_sha256=8655830c2475a79ac26a2396c46f369034ca2b47927dfabc8967e8d2c79c0e93 energy=-14550.728439125962 stress="-0.08078137096275277 -8.839732611735499e-05 -0.0011034139089540268 -8.839732611735499e-05 -0.07998615826482786 0.00012731725969607118 -0.0011034139089540268 0.00012731725969607118 -0.08171307512097468" pbc="T T T"
Al       3.46563485       3.49556390       3.49533687       0.25646531       0.04065795       0.10025217
Ni       0.03320561       1.75425713       1.74793990      -0.36126028      -0.10418885      -0.09311948
Ni       1.76657329       3.49005753       1.76451552      -0.16752294       0.10235991      -0.27362328
Ni       1.72641746       1.74823462       3.48032018       0.27231791      -0.03882900       0.26649058
4
Lattice="3.4424066904287023 0.0 0.0 0.0 3.442527174662625 0.0 0.0 0.0 3.442527174662625" Properties=species:S:1:pos:R:3:forces:R:3 config_id=cfg119_AlNi3_volume_rattle_compression phase=AlNi3 config_type=volume_rattle_compression target_role=TRAIN gap_ref=A2/cfg098 source=QE_7.6_PBE provenance=/workspace/ni_al/data/al3ni_remediation_v1/round3_production_dft/pod01/cfg119_AlNi3_volume_rattle_compression/attempt_001/qe.out qe_output_sha256=abd7b04bccb2add834088d5666c877756f355b08eadf6b08df253dc574b6f369 canonical_input=/workspace/ni_al/data/al3ni_remediation_v1/round3_structures/pod_03/cfg119_AlNi3_volume_rattle_compression.in canonical_input_sha256=dda75168fcf643525ff6ba6a88f53cdbd738aa50b1a0e8f429783c3718d25b4b energy=-14550.494535177022 stress="-0.1572234751169545 -0.0011195354774760499 -0.0003318849548335357 -0.0011195354774760499 -0.1576556039809807 0.00016524046171979845 -0.0003318849548335357 0.00016524046171979845 -0.15775612317054313" pbc="T T T"
Al       3.42438015       0.01052959       3.44157898       0.39163260      -0.20557550       0.14048416
Ni       3.43068243       1.70364360       1.72957514       0.37326801       0.31664989      -0.23756328
Ni       1.76007501       0.00350836       1.73190434      -0.69084916      -0.15330532      -0.26805198
Ni       1.71208248       1.72484494       3.42452168      -0.07405145       0.04223093       0.36513110
8
Lattice="3.8526018989658004 0.0 0.0 0.0 4.9813239600063834 -0.5517008690064054 0.0 -0.013830238848135959 5.011764782236874" Properties=species:S:1:pos:R:3:forces:R:3 config_id=cfg121_Al3Ni5_uniaxial_x_expansion phase=Al3Ni5 config_type=uniaxial_x_expansion target_role=TRAIN gap_ref=A3/cfg056 source=QE_7.6_PBE provenance=/workspace/ni_al/data/al3ni_remediation_v1/round3_production_dft/pod01/cfg121_Al3Ni5_uniaxial_x_expansion/attempt_001/qe.out qe_output_sha256=ea19bf9119810a86725ae8db5cdc5474bf15bbca14f815007778269bdfc0087a canonical_input=/workspace/ni_al/data/al3ni_remediation_v1/round3_structures/pod_04/cfg121_Al3Ni5_uniaxial_x_expansion.in canonical_input_sha256=251e5b324435a440022f701314f984f775d88a3febc3535b3ca6ffcda3dedbe5 energy=-24969.584563760407 stress="0.03798366573865772 -0.0 -0.0 -0.0 0.016567255185596964 0.0024144411449328385 -0.0 0.0024144411449328385 0.01604628435611639" pbc="T T T"
Al       0.00000000       2.48374724       2.23003083       0.00000000       0.00000000       0.00000000
Al       1.92630095       1.08762639       3.78500153       0.00000000      -0.01717006       0.01913415
Al       1.92630095       3.87986771       0.67506051       0.00000000       0.01717006      -0.01913415
Ni       0.00000000       0.00000000       0.00000000       0.00000000       0.00000000       0.00000000
Ni       0.00000000       2.47683212       4.73591359       0.00000000       0.00000000       0.00000000
Ni       0.00000000       4.97440884       1.95418152       0.00000000       0.00000000       0.00000000
Ni       1.92630095       1.37310155       1.23285556       0.00000000       0.07193818       0.06451408
Ni       1.92630095       3.59439255       3.22720648       0.00000000      -0.07193818      -0.06451408
16
Lattice="4.912363598278581 0.0 0.0 0.0 6.742248512818778 0.0 0.0 0.0 7.382491105471437" Properties=species:S:1:pos:R:3:forces:R:3 config_id=cfg123_Al3Ni_biaxial_xy_expansion phase=Al3Ni config_type=biaxial_xy_expansion target_role=TRAIN gap_ref=B1/cfg039 source=QE_7.6_PBE provenance=/workspace/ni_al/data/al3ni_remediation_v1/round3_production_dft/pod01/cfg123_Al3Ni_biaxial_xy_expansion/attempt_001/qe.out qe_output_sha256=cb02865c12ec0328dbdc79f4733f20c4b821aa437890d2234bc3ac9fa9ac9882 canonical_input=/workspace/ni_al/data/al3ni_remediation_v1/round3_structures/pod_05/cfg123_Al3Ni_biaxial_xy_expansion.in canonical_input_sha256=a09c3815a39f63d05d018bfb918f513398c428538fc5b25b17270392c29e9d4e energy=-25138.056346480626 stress="0.026511839751316785 -0.0 -0.0 -0.0 0.02789088360817013 -0.0 -0.0 -0.0 0.014809307930452516" pbc="T T T"
Al       4.49984836       0.05061601       1.84562326       0.02178851       0.02761693       0.00000000
Al       1.78858815       1.15508827       3.28334421      -0.01931696      -0.01194195      -0.03638671
Al       1.78858815       1.15508827       0.40790231      -0.01931696      -0.01194195       0.03638671
Al       4.24477142       2.21603648       4.09914738      -0.01931696       0.01194195       0.03638671
Al       0.66759365       4.52621056       3.28334566       0.01931696      -0.01194195      -0.03638671
Al       3.12377692       5.58715877       6.97459073       0.01931696       0.01194195      -0.03638671
Al       0.66759365       4.52621056       0.40790086       0.01931696      -0.01194195       0.03638671
Al       3.12377692       5.58715877       4.09914835       0.01931696       0.01194195       0.03638671
Al       4.24477142       2.21603648       6.97459170      -0.01931696       0.01194195      -0.03638671
Al       2.86869753       3.42173781       1.84562326      -0.02178851       0.02761693       0.00000000
Al       0.41251672       6.69163103       5.53686978      -0.02178851      -0.02761693       0.00000000
Al       2.04366754       3.32050923       5.53686978       0.02178851      -0.02761693       0.00000000
Ni       2.17652684       5.86816071       1.84562326       0.01508425      -0.00536471       0.00000000
Ni       0.27965595       2.49703645       1.84562326      -0.01508425      -0.00536471       0.00000000
Ni       2.73583824       0.87408633       5.53686978      -0.01508425       0.00536471       0.00000000
Ni       4.63270912       4.24521059       5.53686978       0.01508425       0.00536471       0.00000000
2
Lattice="2.81587001450126 0.0 0.0 0.0 2.89400823689718 0.0 0.0 0.0 2.81587001450126" Properties=species:S:1:pos:R:3:forces:R:3 config_id=cfg125_AlNi_biaxial_xz_compression phase=AlNi config_type=biaxial_xz_compression target_role=TRAIN gap_ref=B2/cfg087 source=QE_7.6_PBE provenance=/workspace/ni_al/data/al3ni_remediation_v1/round3_production_dft/pod02/cfg125_AlNi_biaxial_xz_compression/attempt_001/qe.out qe_output_sha256=f309e47cd1c1620a415fd97dba01743ebaba84632179cff92ea1a1260006be6f canonical_input=/workspace/ni_al/data/al3ni_remediation_v1/round3_structures/pod_06/cfg125_AlNi_biaxial_xz_compression.in canonical_input_sha256=71e530d6fb8241096df6e7751072f4c232ce7beb9137e939c3e9b120aebcd5af energy=-5209.270143110544 stress="-0.06712943685036128 -0.0 -0.0 -0.0 -0.051847783666641854 -0.0 -0.0 -0.0 -0.06712943685036128" pbc="T T T"
Al       1.40793501       1.44700412       1.40793501       0.00000000       0.00000000       0.00000000
Ni       0.00000000       0.00000000       0.00000000       0.00000000       0.00000000       0.00000000
5
Lattice="4.044922625911538 0.0 0.0 -2.022461312955769 3.503004117104864 0.0 0.0 0.13251228409807056 4.907862374000466" Properties=species:S:1:pos:R:3:forces:R:3 config_id=cfg127_Al3Ni2_shear_rattle_yz_positive phase=Al3Ni2 config_type=shear_rattle_yz_positive target_role=TRAIN gap_ref=C1a/cfg072 source=QE_7.6_PBE provenance=/workspace/ni_al/data/al3ni_remediation_v1/round3_production_dft/pod02/cfg127_Al3Ni2_shear_rattle_yz_positive/attempt_001/qe.out qe_output_sha256=cc79d02a2bd3615825f75fedd02c870bd66bf7b2b37f3cee1afaaa8ceb1dba58 canonical_input=/workspace/ni_al/data/al3ni_remediation_v1/round3_structures/pod_07/cfg127_Al3Ni2_shear_rattle_yz_positive.in canonical_input_sha256=3f4ed05440b352033b9feb073629fc0de1c3ecdc12f6edb4f79ba92f4e499d9a energy=-10956.474808373505 stress="-0.0034896280840526228 0.002337669439273842 -0.001166413926061529 0.002337669439273842 0.0006143122743312929 0.015177511542798812 -0.001166413926061529 0.015177511542798812 -0.002738996855083179" pbc="T T T"
Al       4.01336300       0.14853688       4.88653884       0.39764401      -0.21195539       0.12657162
Al       0.03295616       2.40344511       3.21111999      -0.22805535       0.17974275      -0.37287510
Al       2.01719601       1.21672109       1.70971788       0.04207148      -0.06494422       0.25008087
Ni      -0.00333599       2.35167186       0.73671015      -0.09213730       0.04959771      -0.06359474
Ni       2.02966364       1.28317096       4.17949984      -0.11952283       0.04755915       0.05981736
8
Lattice="3.7623065419586723 0.0 0.0 -0.014895923463452948 4.9813239600063834 -0.5517008690064054 0.13531764912027264 -0.013830238848135959 5.011764782236874" Properties=species:S:1:pos:R:3:forces:R:3 config_id=cfg129_Al3Ni5_shear_rattle_xz_positive phase=Al3Ni5 config_type=shear_rattle_xz_positive target_role=TRAIN gap_ref=C1b/cfg057 source=QE_7.6_PBE provenance=/workspace/ni_al/data/al3ni_remediation_v1/round3_production_dft/pod02/cfg129_Al3Ni5_shear_rattle_xz_positive/attempt_001/qe.out qe_output_sha256=1ba8e1d8af27b7c9ccce5564222438ad4ebcf4d4127e6430831e3e618e970150 canonical_input=/workspace/ni_al/data/al3ni_remediation_v1/round3_structures/pod_08/cfg129_Al3Ni5_shear_rattle_xz_positive.in canonical_input_sha256=a1f71dba3ff16d96540fafec80e90046282b5adb972ee3fdd35d3a6891f36326 energy=-24969.553184717857 stress="-0.0033859569607076205 0.0014935701936896978 0.017260218569535645 0.0014935701936896978 -0.0018626307094721207 0.00039387933382564896 0.017260218569535645 0.00039387933382564896 -0.0020473040341777568" pbc="T T T"
Al       3.80394776       2.49398733       2.24418311       0.34675781       0.13187283      -0.20686272
Al       2.01944852       1.06671180       3.75169260      -0.41723422       0.02666984       0.31082195
Al       1.88509994       3.88264993       0.68226953       0.06084788      -0.07804553       0.00941866
Ni       3.73256726       4.96488697      -0.49628679       0.20438530       0.08772311      -0.65307968
Ni       3.88968229       2.45152465       4.72545653       0.07894808       0.03327613       0.08033316
Ni       3.82615250       0.03632528       2.48020852       0.11481104      -0.29545351       0.45533794
Ni       1.92955565       1.38962432       1.21885850      -0.16215700      -0.01222132      -0.00451414
Ni       1.96907207       3.58426612       3.23386801      -0.22635889       0.10617844       0.00854483
2
Lattice="2.89400823689718 0.0 0.0 0.0 2.89400823689718 0.0 0.07813822239591983 0.0 2.89400823689718" Properties=species:S:1:pos:R:3:forces:R:3 config_id=cfg131_AlNi_shear_rattle_xz_positive phase=AlNi config_type=shear_rattle_xz_positive target_role=TRAIN gap_ref=C1c/cfg086 source=QE_7.6_PBE provenance=/workspace/ni_al/data/al3ni_remediation_v1/round3_production_dft/pod02/cfg131_AlNi_shear_rattle_xz_positive/attempt_001/qe.out qe_output_sha256=cfef5ec9ab3868965fd5fb386ea616c722af3b4bcd2a6de2822a8c1057e11efe canonical_input=/workspace/ni_al/data/al3ni_remediation_v1/round3_structures/pod_09/cfg131_AlNi_shear_rattle_xz_positive.in canonical_input_sha256=9a0be9ceef5084ed0a5d35205d0d092c5d974ca94e230f12b60d88803cf2aed6 energy=-5209.29933004432 stress="-0.001331197465634478 3.43851697429884e-05 0.019605977681682454 3.43851697429884e-05 -0.0014168268268730897 -0.0006985565015215581 0.019605977681682454 -0.0006985565015215581 -0.0020753205918148544" pbc="T T T"
Al       1.48559015       1.42598785       1.43747373      -0.00835919       0.24143363       0.10931663
Ni       0.00048308       0.02101627       0.00953038       0.00835919      -0.24143363      -0.10931663
2
Lattice="2.89400823689718 0.0 0.0 0.0 2.89400823689718 0.0 0.0 -0.1302303706605331 2.89400823689718" Properties=species:S:1:pos:R:3:forces:R:3 config_id=cfg133_AlNi_shear_rattle_yz_negative phase=AlNi config_type=shear_rattle_yz_negative target_role=TRAIN gap_ref="C1c/cfg088 (revised: -0.029->-0.045 to clear gate b)" source=QE_7.6_PBE provenance=/workspace/ni_al/data/al3ni_remediation_v1/round3_production_dft/pod02/cfg133_AlNi_shear_rattle_yz_negative/attempt_001/qe.out qe_output_sha256=056841c2acbd79f227215e6099ffdeac7c942c7c042be5831f718012ad0deb07 canonical_input=/workspace/ni_al/data/al3ni_remediation_v1/round3_structures/pod_10/cfg133_AlNi_shear_rattle_yz_negative.in canonical_input_sha256=0e84727bfc9b1d03a32271befad6059730116fe8e15211effa7d5d7795a85b98 energy=-5209.292751155334 stress="-0.0022522233872699247 -8.255657900727137e-05 -0.0001239368969444205 -8.255657900727137e-05 -0.0004785084963801557 -0.03276431403489837 -0.0001239368969444205 -0.03276431403489837 -0.00280341219092257" pbc="T T T"
Al       1.45109737       1.38639212       1.45483057      -0.04744120      -0.07009729      -0.10155032
Ni       2.88991499       2.75927468       2.88618179       0.04744120       0.07009729       0.10155032
4
Lattice="3.5672608190976813 0.0 0.0 0.0 3.567385673225601 0.0 -0.10345418452369444 0.0 3.567385673225601" Properties=species:S:1:pos:R:3:forces:R:3 config_id=cfg135_AlNi3_shear_rattle_xz_negative phase=AlNi3 config_type=shear_rattle_xz_negative target_role=TRAIN gap_ref=C1d/cfg100 source=QE_7.6_PBE provenance=/workspace/ni_al/data/al3ni_remediation_v1/round3_production_dft/pod01/cfg135_AlNi3_shear_rattle_xz_negative/attempt_001/qe.out qe_output_sha256=75b5f615870ab0b24f7ede77d93e12d330c111459df1dd62f3467e867a27cf93 canonical_input=/workspace/ni_al/data/al3ni_remediation_v1/round3_structures/pod_01/cfg135_AlNi3_shear_rattle_xz_negative.in canonical_input_sha256=b7f69364c4c3eebbab71919d1aba936fb77f6e1b8d2c6abcb59ab440fe597eb3 energy=-14550.784758436357 stress="-0.004002092817913155 0.0012273574406448074 -0.025746425513268313 0.0012273574406448074 -0.003239654956522584 -0.0016790640735980219 -0.025746425513268313 -0.0016790640735980219 -0.006389975853258853" pbc="T T T"
Al       0.01414892       0.01737782       0.03940953      -0.16503273      -0.32860288      -0.47591040
Ni       3.50961284       1.76615508       1.74788534       0.03226415       0.34523883       0.47128044
Ni       1.69285671       0.02830568       1.78734611       0.40380090      -0.44726434       0.13167787
Ni       1.71099484       1.75554638       3.56012892      -0.27103231       0.43062839      -0.12704791
5
Lattice="4.14200076893332 0.0 0.0 -2.0710003844666605 3.4189320182947474 0.0 0.0 0.0 4.907862374000466" Properties=species:S:1:pos:R:3:forces:R:3 config_id=cfg137_Al3Ni2_orthorhombic_xy phase=Al3Ni2 config_type=orthorhombic_xy target_role=TRAIN gap_ref=C2a/cfg071 source=QE_7.6_PBE provenance=/workspace/ni_al/data/al3ni_remediation_v1/round3_production_dft/pod01/cfg137_Al3Ni2_orthorhombic_xy/attempt_001/qe.out qe_output_sha256=b8d931db4b68c4c410e41c89f892cdf97704ceadb363f33349a6aa71ce7f8526 canonical_input=/workspace/ni_al/data/al3ni_remediation_v1/round3_structures/pod_02/cfg137_Al3Ni2_orthorhombic_xy.in canonical_input_sha256=7981ebbc320f0c77c9bfc989fac033d340516b546ca0c52ca6f08032a0b95a17 energy=-10956.468480276444 stress="0.025590286774727865 -0.0 -0.0 -0.0 -0.029581961172853635 -0.0016717308049760621 -0.0 -0.0016717308049760621 -0.0014585727142300553" pbc="T T T"
Al       0.00000000       0.00000000       0.00000000       0.00000000       0.00000000       0.00000000
Al      -0.00000290       2.27928959       3.17789306       0.00000000      -0.18377061      -0.01344379
Al       2.07100204       1.13964283       1.72996891       0.00000000       0.18377061       0.01344379
Ni      -0.00000290       2.27928959       0.71968598       0.00000000       0.03921008       0.00602243
Ni       2.07100204       1.13964283       4.18817639       0.00000000      -0.03921008      -0.00602243
2
Lattice="2.89400823689718 0.0 0.0 0.0 2.963464434582664 0.0 0.0 0.0 2.8245520392116963" Properties=species:S:1:pos:R:3:forces:R:3 config_id=cfg139_AlNi_orthorhombic_yz phase=AlNi config_type=orthorhombic_yz target_role=TRAIN gap_ref=C2b/cfg085 source=QE_7.6_PBE provenance=/workspace/ni_al/data/al3ni_remediation_v1/round3_production_dft/pod01/cfg139_AlNi_orthorhombic_yz/attempt_001/qe.out qe_output_sha256=73ab00b87af4d87db220cc0f14a35f8e62b1b93917ad0365530f276110049dc5 canonical_input=/workspace/ni_al/data/al3ni_remediation_v1/round3_structures/pod_03/cfg139_AlNi_orthorhombic_yz.in canonical_input_sha256=72159bed47a6fef1fd7d9cf089efa6a886165a1d844bfa37402eeed3e72f53d6 energy=-5209.304615275828 stress="0.0010710802712135363 -0.0 -0.0 -0.0 0.008795950428048836 -0.0 -0.0 -0.0 -0.014042797129112624" pbc="T T T"
Al       1.44700412       1.48173222       1.41227602       0.00000000       0.00000000       0.00000000
Ni       0.00000000       0.00000000       0.00000000       0.00000000       0.00000000       0.00000000
4
Lattice="3.6528750787558093 0.0 0.0 0.0 3.567385673225601 0.0 0.0 0.0 3.481768417068474" Properties=species:S:1:pos:R:3:forces:R:3 config_id=cfg141_AlNi3_orthorhombic_xz phase=AlNi3 config_type=orthorhombic_xz target_role=TRAIN gap_ref=C2c/cfg097 source=QE_7.6_PBE provenance=/workspace/ni_al/data/al3ni_remediation_v1/round3_production_dft/pod01/cfg141_AlNi3_orthorhombic_xz/attempt_001/qe.out qe_output_sha256=f2ec681665f4244b36ad108116ad660bd8d7fb8e90043388156e47e13c1c5796 canonical_input=/workspace/ni_al/data/al3ni_remediation_v1/round3_structures/pod_04/cfg141_AlNi3_orthorhombic_xz.in canonical_input_sha256=76412c5bc685aa42ce8f2f349d2bbec75386c282297976d9d216977f8cff0f56 energy=-14550.833104035297 stress="0.014405588706666899 -0.0 -0.0 -0.0 -0.003097349311704443 -0.0 -0.0 -0.0 -0.014594000063459452" pbc="T T T"
Al       0.00000000       0.00000000       0.00000000       0.00000000       0.00000000       0.00000000
Ni       0.00000000       1.78369248       1.74088351       0.00000000       0.00000000       0.00000000
Ni       1.82643754       0.00000000       1.74088351       0.00000000       0.00000000       0.00000000
Ni       1.82643754       1.78369248       0.00000000       0.00000000       0.00000000       0.00000000
