2
Lattice="2.8361278940568466 0.0 -0.0 -0.0 2.8361278940568466 -0.0 0.0 -0.0 2.8361278940568466" Properties=species:S:1:pos:R:3:forces:R:3 config_id=AlNi_iso_m02 phase=AlNi config_type=iso_m02 source=QE_7.6_PBE energy=-5209.264458355565 stress="-0.0689940358365476 -0.0 -0.0 -0.0 -0.0689940358365476 -0.0 -0.0 -0.0 -0.0689940358365476" pbc="T T T"
Al       1.41806395       1.41806395       1.41806395       0.00000000       0.00000000       0.00000000
Ni       0.00000000       0.00000000       0.00000000       0.00000000       0.00000000       0.00000000
2
Lattice="2.9518885834474338 0.0 -0.0 -0.0 2.9518885834474338 -0.0 0.0 -0.0 2.9518885834474338" Properties=species:S:1:pos:R:3:forces:R:3 config_id=AlNi_iso_p02 phase=AlNi config_type=iso_p02 source=QE_7.6_PBE energy=-5209.271144464695 stress="0.05184836053031304 -0.0 -0.0 -0.0 0.05184836053031304 -0.0 -0.0 -0.0 0.05184836053031304" pbc="T T T"
Al       1.47594429       1.47594429       1.47594429       0.00000000       0.00000000       0.00000000
Ni       0.00000000       0.00000000       0.00000000       0.00000000       0.00000000       0.00000000
5
Lattice="3.9640241335997097 0.0 0.0 -1.9820120667998549 3.432944000300689 -0.0 -0.0 -0.0 4.809705078237738" Properties=species:S:1:pos:R:3:forces:R:3 config_id=Al3Ni2_iso_m02 phase=Al3Ni2 config_type=iso_m02 source=QE_7.6_PBE energy=-10956.400671770292 stress="-0.056211445517740835 -0.0 -0.0 -0.0 -0.056211445517740835 -0.0 -0.0 -0.0 -0.06021002193193444" pbc="T T T"
Al       0.00000000       0.00000000       0.00000000       0.00000000       0.00000000       0.00000000
Al      -0.00000277       2.28863092       3.11433516      -0.00000000       0.00000000      -0.09536247
Al       1.98201365       1.14431348       1.69536952       0.00000000       0.00000000       0.09536247
Ni      -0.00000277       2.28863092       0.70529226      -0.00000000       0.00000000       0.06572768
Ni       1.98201365       1.14431348       4.10441282       0.00000000      -0.00000000      -0.06572768
5
Lattice="4.125821123408222 0.0 0.0 -2.062910561704111 3.5730642383996054 -0.0 -0.0 -0.0 5.006019676055008" Properties=species:S:1:pos:R:3:forces:R:3 config_id=Al3Ni2_iso_p02 phase=Al3Ni2 config_type=iso_p02 source=QE_7.6_PBE energy=-10956.41587776371 stress="0.04239592788183468 0.0 0.0 0.0 0.04239592788183468 0.0 0.0 0.0 0.045471755892752846" pbc="T T T"
Al       0.00000000       0.00000000       0.00000000      -0.00000000       0.00000000       0.00000000
Al      -0.00000289       2.38204448       3.24145095       0.00000000       0.00000000       0.07051379
Al       2.06291221       1.19102018       1.76456831      -0.00000000       0.00000000      -0.07051379
Ni      -0.00000289       2.38204448       0.73407971      -0.00000000      -0.00000000      -0.05275724
Ni       2.06291221       1.19102018       4.27193997       0.00000000      -0.00000000       0.05275724
4
Lattice="3.495915562621792 0.0 -0.0 0.0 3.4960379196664837 0.0 0.0 0.0 3.4960379196664837" Properties=species:S:1:pos:R:3:forces:R:3 config_id=AlNi3_iso_m02 phase=AlNi3 config_type=iso_m02 source=QE_7.6_PBE energy=-14550.746648508584 stress="-0.07939584345914219 -0.0 -0.0 -0.0 -0.079371971361147 -0.0 -0.0 -0.0 -0.079371971361147" pbc="T T T"
Al       0.00000000       0.00000000       0.00000000       0.00000000       0.00000000       0.00000000
Ni       0.00000000       1.74801861       1.74801826       0.00000000       0.00000000       0.00000000
Ni       1.74795778       0.00000000       1.74801826       0.00000000       0.00000000       0.00000000
Ni       1.74795778       1.74801861       0.00000000       0.00000000       0.00000000       0.00000000
4
Lattice="3.6386060801454914 0.0 -0.0 0.0 3.6387334313582964 0.0 0.0 0.0 3.6387334313582964" Properties=species:S:1:pos:R:3:forces:R:3 config_id=AlNi3_iso_p02 phase=AlNi3 config_type=iso_p02 source=QE_7.6_PBE energy=-14550.762379273538 stress="0.05886675734089765 -0.0 -0.0 -0.0 0.05888512049320164 -0.0 -0.0 -0.0 0.05888512049320164" pbc="T T T"
Al       0.00000000       0.00000000       0.00000000       0.00000000       0.00000000       0.00000000
Ni       0.00000000       1.81936635       1.81936599       0.00000000       0.00000000       0.00000000
Ni       1.81930304       0.00000000       1.81936599       0.00000000       0.00000000       0.00000000
Ni       1.81930304       1.81936635       0.00000000       0.00000000       0.00000000       0.00000000
8
Lattice="3.687060191228383 0.0 0.0 0.0 4.88169718966791 -0.5406668193815388 0.0 -0.013553633262955537 4.911529193675138" Properties=species:S:1:pos:R:3:forces:R:3 config_id=Al3Ni5_iso_m02 phase=Al3Ni5 config_type=iso_m02 source=QE_7.6_PBE energy=-24969.43088902333 stress="-0.07474537513815696 -0.0 -0.0 -0.0 -0.073028420397734 -0.00011936048997592872 -0.0 -0.00011936048997592872 -0.0730017938268932" pbc="T T T"
Al       0.00000000       2.43407215       2.18543008       0.00000000       0.00000000       0.00000000
Al       1.84353010       1.06587380       3.70930128       0.00000000       0.04835294      -0.05385304
Al       1.84353010       3.80227013       0.66155926       0.00000000      -0.04835294       0.05385304
Ni       0.00000000       0.00000000       0.00000000       0.00000000       0.00000000       0.00000000
Ni       0.00000000       2.44084896      -0.27033415       0.00000000       0.00000000       0.00000000
Ni       0.00000000      -0.00677682       2.45576460       0.00000000       0.00000000       0.00000000
Ni       1.84353010       1.34563944       1.20819837       0.00000000      -0.00072788      -0.00082995
Ni       1.84353010       3.52250448       3.16266216       0.00000000       0.00072788       0.00082995
8
Lattice="3.8375528975120465 0.0 0.0 0.0 5.08095073672913 -0.5627349193382689 0.0 -0.014106844451254283 5.112000377222899" Properties=species:S:1:pos:R:3:forces:R:3 config_id=Al3Ni5_iso_p02 phase=Al3Ni5 config_type=iso_p02 source=QE_7.6_PBE energy=-24969.461407950905 stress="0.055514563887804444 -0.0 -0.0 -0.0 0.05431085925427797 0.00014782337604711171 -0.0 0.00014782337604711171 0.054279641895361185" pbc="T T T"
Al       0.00000000       2.53342233       2.27463158       0.00000000       0.00000000       0.00000000
Al       1.91877645       1.10937898       3.86070178       0.00000000      -0.04148141       0.04619244
Al       1.91877645       3.95746530       0.68856176       0.00000000       0.04148141      -0.04619244
Ni       0.00000000       0.00000000       0.00000000       0.00000000       0.00000000       0.00000000
Ni       0.00000000       2.54047575      -0.28136823       0.00000000       0.00000000       0.00000000
Ni       0.00000000      -0.00705342       2.55600019       0.00000000       0.00000000       0.00000000
Ni       1.91877645       1.40056367       1.25751274       0.00000000       0.00803110       0.00704302
Ni       1.91877645       3.66628061       3.29175080       0.00000000      -0.00803110      -0.00704302
16
Lattice="4.728994768337464 0.0 0.0 0.0 6.490573693511779 0.0 0.0 0.0 7.2348418061318025" Properties=species:S:1:pos:R:3:forces:R:3 config_id=Al3Ni_iso_m02 phase=Al3Ni config_type=iso_m02 source=QE_7.6_PBE energy=-25137.850931275556 stress="-0.04783784806712183 0.0 -0.0 0.0 -0.04919121239192583 -0.0 -0.0 -0.0 -0.050852159517821634" pbc="T T T"
Al       4.33187791       0.04872662       1.80871092      -0.01258375       0.02310136      -0.00000000
Al       1.72182368       1.11197110       3.21767756       0.01676873       0.03554190       0.00559189
Al       1.72182368       1.11197110       0.39974429       0.01676873       0.03554190      -0.00559189
Al       4.08632249       2.13331622       4.01716472       0.01676873      -0.03554190      -0.00559189
Al       0.64267370       4.35725606       3.21767898      -0.01676873       0.03554190       0.00559189
Al       3.00717250       5.37860117       6.83509941      -0.01676873      -0.03554190       0.00559189
Al       0.64267370       4.35725606       0.39974287      -0.01676873       0.03554190      -0.00559189
Al       3.00717250       5.37860117       4.01716567      -0.01676873      -0.03554190      -0.00559189
Al       4.08632249       2.13331622       6.83510035       0.01676873      -0.03554190       0.00559189
Al       2.76161472       3.29401110       1.80871092       0.01258375       0.02310136       0.00000000
Al       0.39711828       6.44184566       5.42613277       0.01258375      -0.02310136      -0.00000000
Al       1.96738147       3.19656118       5.42613277      -0.01258375      -0.02310136       0.00000000
Ni       2.09528139       5.64911386       1.80871092       0.01159953       0.02166232       0.00000000
Ni       0.26921694       2.40382701       1.80871092      -0.01159953       0.02166232       0.00000000
Ni       2.63371480       0.84145841       5.42613277      -0.01159953      -0.02166232       0.00000000
Ni       4.45977924       4.08674526       5.42613277       0.01159953      -0.02166232       0.00000000
16
Lattice="4.92201480097046 0.0 0.0 0.0 6.755494846420762 0.0 0.0 0.0 7.530141223856696" Properties=species:S:1:pos:R:3:forces:R:3 config_id=Al3Ni_iso_p02 phase=Al3Ni config_type=iso_p02 source=QE_7.6_PBE energy=-25137.891685084887 stress="0.036009223510507296 -0.0 -0.0 -0.0 0.03739105072138247 -0.0 -0.0 -0.0 0.03842214172325145" pbc="T T T"
Al       4.50868910       0.05071546       1.88253580       0.00883045      -0.01882922       0.00000000
Al       1.79210214       1.15735764       3.34901122      -0.01718011      -0.02311370      -0.00683451
Al       1.79210214       1.15735764       0.41606037      -0.01718011      -0.02311370       0.00683451
Al       4.25311102       2.22039028       4.18113049      -0.01718011       0.02311370       0.00683451
Al       0.66890526       4.53510309       3.34901270       0.01718011      -0.02311370      -0.00683451
Al       3.12991413       5.59813573       7.11408282       0.01718011       0.02311370      -0.00683451
Al       0.66890526       4.53510309       0.41605890       0.01718011      -0.02311370       0.00683451
Al       3.12991413       5.59813573       4.18113148       0.01718011       0.02311370       0.00683451
Al       4.25311102       2.22039028       7.11408380      -0.01718011       0.02311370      -0.00683451
Al       2.87433359       3.42846042       1.88253580      -0.00883045      -0.01882896       0.00000000
Al       0.41332718       6.70477791       5.64760739      -0.00883045       0.01882922       0.00000000
Al       2.04768268       3.32703295       5.64760739       0.00883045       0.01882896       0.00000000
Ni       2.18080300       5.87968974       1.88253580      -0.00690367      -0.01875851      -0.00000000
Ni       0.28020538       2.50194232       1.88253580       0.00690367      -0.01875851       0.00000000
Ni       2.74121327       0.87580363       5.64760739       0.00690367       0.01875851      -0.00000000
Ni       4.64181090       4.25355105       5.64760739      -0.00690367       0.01875851       0.00000000
2
Lattice="2.89400823875214 0.0 -0.0 -0.0 2.89400823875214 -0.0 0.0 -0.0 2.89400823875214" Properties=species:S:1:pos:R:3:forces:R:3 config_id=AlNi_relaxed phase=AlNi config_type=relaxed source=QE_7.6_PBE energy=-5209.311410373913 stress="-8.630681582874845e-05 -0.0 -0.0 -0.0 -8.630681582874845e-05 -0.0 -0.0 -0.0 -8.630681582874845e-05" pbc="T T T"
Al       1.44700412       1.44700412       1.44700412       0.00000000       0.00000000       0.00000000
Ni       0.00000000       0.00000000       0.00000000       0.00000000       0.00000000       0.00000000
5
Lattice="4.044922628503966 0.0 0.0 -2.022461314251983 3.5030041193501473 -0.0 -0.0 -0.0 4.907862377146373" Properties=species:S:1:pos:R:3:forces:R:3 config_id=Al3Ni2_relaxed phase=Al3Ni2 config_type=relaxed source=QE_7.6_PBE energy=-10956.512625390018 stress="-7.345260921595614e-06 -0.0 0.0 -0.0 -7.345260921595614e-06 0.0 0.0 0.0 -4.6826038375172033e-05" pbc="T T T"
Al       0.00000000       0.00000000       0.00000000       0.00000000      -0.00000000       0.00000000
Al      -0.00000283       2.33533770       3.17789306      -0.00000000      -0.00000000      -0.00204994
Al       2.02246293       1.16766683       1.72996891      -0.00000000      -0.00000000       0.00204994
Ni      -0.00000283       2.33533770       0.71968598       0.00000000       0.00000000      -0.00243509
Ni       2.02246293       1.16766683       4.18817639       0.00000000       0.00000000       0.00243509
4
Lattice="3.5672608213836416 0.0 -0.0 0.0 3.5673856755123903 0.0 0.0 0.0 3.5673856755123903" Properties=species:S:1:pos:R:3:forces:R:3 config_id=AlNi3_relaxed phase=AlNi3 config_type=relaxed source=QE_7.6_PBE energy=-14550.847840706278 stress="-0.00011476970189993147 -0.0 -0.0 -0.0 -9.365207675034407e-05 -0.0 -0.0 -0.0 -9.365207675034407e-05" pbc="T T T"
Al       0.00000000       0.00000000       0.00000000       0.00000000       0.00000000       0.00000000
Ni       0.00000000       1.78369248       1.78369212       0.00000000       0.00000000       0.00000000
Ni       1.78363041       0.00000000       1.78369212       0.00000000       0.00000000       0.00000000
Ni       1.78363041       1.78369248       0.00000000       0.00000000       0.00000000       0.00000000
8
Lattice="3.762306544370215 0.0 0.0 0.0 4.98132396319852 -0.5517008693599039 0.0 -0.01383023885710491 5.011764785449018" Properties=species:S:1:pos:R:3:forces:R:3 config_id=Al3Ni5_relaxed phase=Al3Ni5 config_type=relaxed source=QE_7.6_PBE energy=-24969.625439533414 stress="-0.0003277822686262043 -0.0 -0.0 -0.0 -0.00020933993626547502 -1.9281309919188485e-05 -0.0 -1.9281309919188485e-05 -0.00020474914818947773" pbc="T T T"
Al       0.00000000       2.48374724       2.23003083       0.00000000       0.00000000       0.00000000
Al       1.88115327       1.08762639       3.78500153      -0.00000000      -0.00043632       0.00048800
Al       1.88115327       3.87986771       0.67506051      -0.00000000       0.00043632      -0.00048800
Ni       0.00000000       0.00000000       0.00000000       0.00000000       0.00000000       0.00000000
Ni       0.00000000       2.49066236      -0.27585119       0.00000000       0.00000000       0.00000000
Ni       0.00000000      -0.00691512       2.50588239       0.00000000       0.00000000       0.00000000
Ni       1.88115327       1.37310155       1.23285556       0.00000000       0.00173498       0.00147144
Ni       1.88115327       3.59439255       3.22720648       0.00000000      -0.00173498      -0.00147144
16
Lattice="4.8255045200653575 0.0 0.0 0.0 6.623033906816824 0.0 0.0 0.0 7.38249111020279" Properties=species:S:1:pos:R:3:forces:R:3 config_id=Al3Ni_relaxed phase=Al3Ni config_type=relaxed source=QE_7.6_PBE energy=-25138.175258317573 stress="8.17160277527512e-05 -0.0 -0.0 -0.0 0.00016985915881189857 -0.0 -0.0 -0.0 7.253445160075668e-05" pbc="T T T"
Al       4.42028326       0.04972103       1.84562326       0.00048594      -0.00016069       0.00000000
Al       1.75696282       1.13466431       3.28334421      -0.00245412       0.00241992      -0.00121793
Al       1.75696282       1.13466431       0.40790231      -0.00245412       0.00241992       0.00121793
Al       4.16971653       2.17685313       4.09914738      -0.00245412      -0.00241992       0.00121793
Al       0.65578944       4.44617933       3.28334566       0.00245412       0.00241992      -0.00121793
Al       3.06854315       5.48836815       6.97459073       0.00245412      -0.00241992      -0.00121793
Al       0.65578944       4.44617933       0.40790086       0.00245412       0.00241992       0.00121793
Al       3.06854315       5.48836815       4.09914835       0.00245412      -0.00241992       0.00121793
Al       4.16971653       2.17685313       6.97459170      -0.00245412      -0.00241992      -0.00121793
Al       2.81797400       3.36123557       1.84562326      -0.00048594      -0.00016069       0.00000000
Al       0.40522271       6.57331143       5.53686978      -0.00048594       0.00016069       0.00000000
Al       2.00753197       3.26179689       5.53686978       0.00048594       0.00016069       0.00000000
Ni       2.13804208       5.76440149       1.84562326       0.00047283      -0.00132900       0.00000000
Ni       0.27471115       2.45288453       1.84562326      -0.00047283      -0.00132900       0.00000000
Ni       2.68746389       0.85863097       5.53686978      -0.00047283       0.00132900      -0.00000000
Ni       4.55079482       4.17014793       5.53686978       0.00047283       0.00132900       0.00000000
