2
Lattice="2.8361278940568466 0.0 -0.0 -0.0 2.8361278940568466 -0.0 0.0 -0.0 2.8361278940568466" Properties=species:S:1:pos:R:3:forces:R:3 config_id=AlNi_iso_m02 phase=AlNi config_type=iso_m02 source=QE_7.6_PBE dataset_origin=Pilot-25 source_record=Pilot-25:AlNi_iso_m02 original_dataset=/workspace/ni_al/data/processed/ni_al_pilot_dft_25.extxyz original_dataset_sha256=35b2b65fe77d181b5da30dd23bbb7ff9fc4f41c0c0f603738172e2f833ab5b0b provenance=/workspace/ni_al/configs/PILOT25_PROVENANCE.txt qe_output_sha256=historical_not_recorded canonical_input=historical_not_recorded canonical_input_sha256=historical_not_recorded energy=-5209.264458355565 stress="-0.0689940358365476 -0.0 -0.0 -0.0 -0.0689940358365476 -0.0 -0.0 -0.0 -0.0689940358365476" pbc="T T T"
Al       1.41806395       1.41806395       1.41806395       0.00000000       0.00000000       0.00000000
Ni       0.00000000       0.00000000       0.00000000       0.00000000       0.00000000       0.00000000
2
Lattice="2.9518885834474338 0.0 -0.0 -0.0 2.9518885834474338 -0.0 0.0 -0.0 2.9518885834474338" Properties=species:S:1:pos:R:3:forces:R:3 config_id=AlNi_iso_p02 phase=AlNi config_type=iso_p02 source=QE_7.6_PBE dataset_origin=Pilot-25 source_record=Pilot-25:AlNi_iso_p02 original_dataset=/workspace/ni_al/data/processed/ni_al_pilot_dft_25.extxyz original_dataset_sha256=35b2b65fe77d181b5da30dd23bbb7ff9fc4f41c0c0f603738172e2f833ab5b0b provenance=/workspace/ni_al/configs/PILOT25_PROVENANCE.txt qe_output_sha256=historical_not_recorded canonical_input=historical_not_recorded canonical_input_sha256=historical_not_recorded energy=-5209.271144464695 stress="0.05184836053031304 -0.0 -0.0 -0.0 0.05184836053031304 -0.0 -0.0 -0.0 0.05184836053031304" pbc="T T T"
Al       1.47594429       1.47594429       1.47594429       0.00000000       0.00000000       0.00000000
Ni       0.00000000       0.00000000       0.00000000       0.00000000       0.00000000       0.00000000
5
Lattice="3.9640241335997097 0.0 0.0 -1.9820120667998549 3.432944000300689 -0.0 -0.0 -0.0 4.809705078237738" Properties=species:S:1:pos:R:3:forces:R:3 config_id=Al3Ni2_iso_m02 phase=Al3Ni2 config_type=iso_m02 source=QE_7.6_PBE dataset_origin=Pilot-25 source_record=Pilot-25:Al3Ni2_iso_m02 original_dataset=/workspace/ni_al/data/processed/ni_al_pilot_dft_25.extxyz original_dataset_sha256=35b2b65fe77d181b5da30dd23bbb7ff9fc4f41c0c0f603738172e2f833ab5b0b provenance=/workspace/ni_al/configs/PILOT25_PROVENANCE.txt qe_output_sha256=historical_not_recorded canonical_input=historical_not_recorded canonical_input_sha256=historical_not_recorded energy=-10956.400671770292 stress="-0.056211445517740835 -0.0 -0.0 -0.0 -0.056211445517740835 -0.0 -0.0 -0.0 -0.06021002193193444" pbc="T T T"
Al       0.00000000       0.00000000       0.00000000       0.00000000       0.00000000       0.00000000
Al      -0.00000277       2.28863092       3.11433516      -0.00000000       0.00000000      -0.09536247
Al       1.98201365       1.14431348       1.69536952       0.00000000       0.00000000       0.09536247
Ni      -0.00000277       2.28863092       0.70529226      -0.00000000       0.00000000       0.06572768
Ni       1.98201365       1.14431348       4.10441282       0.00000000      -0.00000000      -0.06572768
5
Lattice="4.125821123408222 0.0 0.0 -2.062910561704111 3.5730642383996054 -0.0 -0.0 -0.0 5.006019676055008" Properties=species:S:1:pos:R:3:forces:R:3 config_id=Al3Ni2_iso_p02 phase=Al3Ni2 config_type=iso_p02 source=QE_7.6_PBE dataset_origin=Pilot-25 source_record=Pilot-25:Al3Ni2_iso_p02 original_dataset=/workspace/ni_al/data/processed/ni_al_pilot_dft_25.extxyz original_dataset_sha256=35b2b65fe77d181b5da30dd23bbb7ff9fc4f41c0c0f603738172e2f833ab5b0b provenance=/workspace/ni_al/configs/PILOT25_PROVENANCE.txt qe_output_sha256=historical_not_recorded canonical_input=historical_not_recorded canonical_input_sha256=historical_not_recorded energy=-10956.41587776371 stress="0.04239592788183468 0.0 0.0 0.0 0.04239592788183468 0.0 0.0 0.0 0.045471755892752846" pbc="T T T"
Al       0.00000000       0.00000000       0.00000000      -0.00000000       0.00000000       0.00000000
Al      -0.00000289       2.38204448       3.24145095       0.00000000       0.00000000       0.07051379
Al       2.06291221       1.19102018       1.76456831      -0.00000000       0.00000000      -0.07051379
Ni      -0.00000289       2.38204448       0.73407971      -0.00000000      -0.00000000      -0.05275724
Ni       2.06291221       1.19102018       4.27193997       0.00000000      -0.00000000       0.05275724
4
Lattice="3.495915562621792 0.0 -0.0 0.0 3.4960379196664837 0.0 0.0 0.0 3.4960379196664837" Properties=species:S:1:pos:R:3:forces:R:3 config_id=AlNi3_iso_m02 phase=AlNi3 config_type=iso_m02 source=QE_7.6_PBE dataset_origin=Pilot-25 source_record=Pilot-25:AlNi3_iso_m02 original_dataset=/workspace/ni_al/data/processed/ni_al_pilot_dft_25.extxyz original_dataset_sha256=35b2b65fe77d181b5da30dd23bbb7ff9fc4f41c0c0f603738172e2f833ab5b0b provenance=/workspace/ni_al/configs/PILOT25_PROVENANCE.txt qe_output_sha256=historical_not_recorded canonical_input=historical_not_recorded canonical_input_sha256=historical_not_recorded energy=-14550.746648508584 stress="-0.07939584345914219 -0.0 -0.0 -0.0 -0.079371971361147 -0.0 -0.0 -0.0 -0.079371971361147" pbc="T T T"
Al       0.00000000       0.00000000       0.00000000       0.00000000       0.00000000       0.00000000
Ni       0.00000000       1.74801861       1.74801826       0.00000000       0.00000000       0.00000000
Ni       1.74795778       0.00000000       1.74801826       0.00000000       0.00000000       0.00000000
Ni       1.74795778       1.74801861       0.00000000       0.00000000       0.00000000       0.00000000
4
Lattice="3.6386060801454914 0.0 -0.0 0.0 3.6387334313582964 0.0 0.0 0.0 3.6387334313582964" Properties=species:S:1:pos:R:3:forces:R:3 config_id=AlNi3_iso_p02 phase=AlNi3 config_type=iso_p02 source=QE_7.6_PBE dataset_origin=Pilot-25 source_record=Pilot-25:AlNi3_iso_p02 original_dataset=/workspace/ni_al/data/processed/ni_al_pilot_dft_25.extxyz original_dataset_sha256=35b2b65fe77d181b5da30dd23bbb7ff9fc4f41c0c0f603738172e2f833ab5b0b provenance=/workspace/ni_al/configs/PILOT25_PROVENANCE.txt qe_output_sha256=historical_not_recorded canonical_input=historical_not_recorded canonical_input_sha256=historical_not_recorded energy=-14550.762379273538 stress="0.05886675734089765 -0.0 -0.0 -0.0 0.05888512049320164 -0.0 -0.0 -0.0 0.05888512049320164" pbc="T T T"
Al       0.00000000       0.00000000       0.00000000       0.00000000       0.00000000       0.00000000
Ni       0.00000000       1.81936635       1.81936599       0.00000000       0.00000000       0.00000000
Ni       1.81930304       0.00000000       1.81936599       0.00000000       0.00000000       0.00000000
Ni       1.81930304       1.81936635       0.00000000       0.00000000       0.00000000       0.00000000
8
Lattice="3.687060191228383 0.0 0.0 0.0 4.88169718966791 -0.5406668193815388 0.0 -0.013553633262955537 4.911529193675138" Properties=species:S:1:pos:R:3:forces:R:3 config_id=Al3Ni5_iso_m02 phase=Al3Ni5 config_type=iso_m02 source=QE_7.6_PBE dataset_origin=Pilot-25 source_record=Pilot-25:Al3Ni5_iso_m02 original_dataset=/workspace/ni_al/data/processed/ni_al_pilot_dft_25.extxyz original_dataset_sha256=35b2b65fe77d181b5da30dd23bbb7ff9fc4f41c0c0f603738172e2f833ab5b0b provenance=/workspace/ni_al/configs/PILOT25_PROVENANCE.txt qe_output_sha256=historical_not_recorded canonical_input=historical_not_recorded canonical_input_sha256=historical_not_recorded energy=-24969.43088902333 stress="-0.07474537513815696 -0.0 -0.0 -0.0 -0.073028420397734 -0.00011936048997592872 -0.0 -0.00011936048997592872 -0.0730017938268932" pbc="T T T"
Al       0.00000000       2.43407215       2.18543008       0.00000000       0.00000000       0.00000000
Al       1.84353010       1.06587380       3.70930128       0.00000000       0.04835294      -0.05385304
Al       1.84353010       3.80227013       0.66155926       0.00000000      -0.04835294       0.05385304
Ni       0.00000000       0.00000000       0.00000000       0.00000000       0.00000000       0.00000000
Ni       0.00000000       2.44084896      -0.27033415       0.00000000       0.00000000       0.00000000
Ni       0.00000000      -0.00677682       2.45576460       0.00000000       0.00000000       0.00000000
Ni       1.84353010       1.34563944       1.20819837       0.00000000      -0.00072788      -0.00082995
Ni       1.84353010       3.52250448       3.16266216       0.00000000       0.00072788       0.00082995
8
Lattice="3.8375528975120465 0.0 0.0 0.0 5.08095073672913 -0.5627349193382689 0.0 -0.014106844451254283 5.112000377222899" Properties=species:S:1:pos:R:3:forces:R:3 config_id=Al3Ni5_iso_p02 phase=Al3Ni5 config_type=iso_p02 source=QE_7.6_PBE dataset_origin=Pilot-25 source_record=Pilot-25:Al3Ni5_iso_p02 original_dataset=/workspace/ni_al/data/processed/ni_al_pilot_dft_25.extxyz original_dataset_sha256=35b2b65fe77d181b5da30dd23bbb7ff9fc4f41c0c0f603738172e2f833ab5b0b provenance=/workspace/ni_al/configs/PILOT25_PROVENANCE.txt qe_output_sha256=historical_not_recorded canonical_input=historical_not_recorded canonical_input_sha256=historical_not_recorded energy=-24969.461407950905 stress="0.055514563887804444 -0.0 -0.0 -0.0 0.05431085925427797 0.00014782337604711171 -0.0 0.00014782337604711171 0.054279641895361185" pbc="T T T"
Al       0.00000000       2.53342233       2.27463158       0.00000000       0.00000000       0.00000000
Al       1.91877645       1.10937898       3.86070178       0.00000000      -0.04148141       0.04619244
Al       1.91877645       3.95746530       0.68856176       0.00000000       0.04148141      -0.04619244
Ni       0.00000000       0.00000000       0.00000000       0.00000000       0.00000000       0.00000000
Ni       0.00000000       2.54047575      -0.28136823       0.00000000       0.00000000       0.00000000
Ni       0.00000000      -0.00705342       2.55600019       0.00000000       0.00000000       0.00000000
Ni       1.91877645       1.40056367       1.25751274       0.00000000       0.00803110       0.00704302
Ni       1.91877645       3.66628061       3.29175080       0.00000000      -0.00803110      -0.00704302
16
Lattice="4.728994768337464 0.0 0.0 0.0 6.490573693511779 0.0 0.0 0.0 7.2348418061318025" Properties=species:S:1:pos:R:3:forces:R:3 config_id=Al3Ni_iso_m02 phase=Al3Ni config_type=iso_m02 source=QE_7.6_PBE dataset_origin=Pilot-25 source_record=Pilot-25:Al3Ni_iso_m02 original_dataset=/workspace/ni_al/data/processed/ni_al_pilot_dft_25.extxyz original_dataset_sha256=35b2b65fe77d181b5da30dd23bbb7ff9fc4f41c0c0f603738172e2f833ab5b0b provenance=/workspace/ni_al/configs/PILOT25_PROVENANCE.txt qe_output_sha256=historical_not_recorded canonical_input=historical_not_recorded canonical_input_sha256=historical_not_recorded energy=-25137.850931275556 stress="-0.04783784806712183 0.0 -0.0 0.0 -0.04919121239192583 -0.0 -0.0 -0.0 -0.050852159517821634" pbc="T T T"
Al       4.33187791       0.04872662       1.80871092      -0.01258375       0.02310136      -0.00000000
Al       1.72182368       1.11197110       3.21767756       0.01676873       0.03554190       0.00559189
Al       1.72182368       1.11197110       0.39974429       0.01676873       0.03554190      -0.00559189
Al       4.08632249       2.13331622       4.01716472       0.01676873      -0.03554190      -0.00559189
Al       0.64267370       4.35725606       3.21767898      -0.01676873       0.03554190       0.00559189
Al       3.00717250       5.37860117       6.83509941      -0.01676873      -0.03554190       0.00559189
Al       0.64267370       4.35725606       0.39974287      -0.01676873       0.03554190      -0.00559189
Al       3.00717250       5.37860117       4.01716567      -0.01676873      -0.03554190      -0.00559189
Al       4.08632249       2.13331622       6.83510035       0.01676873      -0.03554190       0.00559189
Al       2.76161472       3.29401110       1.80871092       0.01258375       0.02310136       0.00000000
Al       0.39711828       6.44184566       5.42613277       0.01258375      -0.02310136      -0.00000000
Al       1.96738147       3.19656118       5.42613277      -0.01258375      -0.02310136       0.00000000
Ni       2.09528139       5.64911386       1.80871092       0.01159953       0.02166232       0.00000000
Ni       0.26921694       2.40382701       1.80871092      -0.01159953       0.02166232       0.00000000
Ni       2.63371480       0.84145841       5.42613277      -0.01159953      -0.02166232       0.00000000
Ni       4.45977924       4.08674526       5.42613277       0.01159953      -0.02166232       0.00000000
16
Lattice="4.92201480097046 0.0 0.0 0.0 6.755494846420762 0.0 0.0 0.0 7.530141223856696" Properties=species:S:1:pos:R:3:forces:R:3 config_id=Al3Ni_iso_p02 phase=Al3Ni config_type=iso_p02 source=QE_7.6_PBE dataset_origin=Pilot-25 source_record=Pilot-25:Al3Ni_iso_p02 original_dataset=/workspace/ni_al/data/processed/ni_al_pilot_dft_25.extxyz original_dataset_sha256=35b2b65fe77d181b5da30dd23bbb7ff9fc4f41c0c0f603738172e2f833ab5b0b provenance=/workspace/ni_al/configs/PILOT25_PROVENANCE.txt qe_output_sha256=historical_not_recorded canonical_input=historical_not_recorded canonical_input_sha256=historical_not_recorded energy=-25137.891685084887 stress="0.036009223510507296 -0.0 -0.0 -0.0 0.03739105072138247 -0.0 -0.0 -0.0 0.03842214172325145" pbc="T T T"
Al       4.50868910       0.05071546       1.88253580       0.00883045      -0.01882922       0.00000000
Al       1.79210214       1.15735764       3.34901122      -0.01718011      -0.02311370      -0.00683451
Al       1.79210214       1.15735764       0.41606037      -0.01718011      -0.02311370       0.00683451
Al       4.25311102       2.22039028       4.18113049      -0.01718011       0.02311370       0.00683451
Al       0.66890526       4.53510309       3.34901270       0.01718011      -0.02311370      -0.00683451
Al       3.12991413       5.59813573       7.11408282       0.01718011       0.02311370      -0.00683451
Al       0.66890526       4.53510309       0.41605890       0.01718011      -0.02311370       0.00683451
Al       3.12991413       5.59813573       4.18113148       0.01718011       0.02311370       0.00683451
Al       4.25311102       2.22039028       7.11408380      -0.01718011       0.02311370      -0.00683451
Al       2.87433359       3.42846042       1.88253580      -0.00883045      -0.01882896       0.00000000
Al       0.41332718       6.70477791       5.64760739      -0.00883045       0.01882922       0.00000000
Al       2.04768268       3.32703295       5.64760739       0.00883045       0.01882896       0.00000000
Ni       2.18080300       5.87968974       1.88253580      -0.00690367      -0.01875851      -0.00000000
Ni       0.28020538       2.50194232       1.88253580       0.00690367      -0.01875851       0.00000000
Ni       2.74121327       0.87580363       5.64760739       0.00690367       0.01875851      -0.00000000
Ni       4.64181090       4.25355105       5.64760739      -0.00690367       0.01875851       0.00000000
2
Lattice="2.89400823875214 0.0 -0.0 -0.0 2.89400823875214 -0.0 0.0 -0.0 2.89400823875214" Properties=species:S:1:pos:R:3:forces:R:3 config_id=AlNi_relaxed phase=AlNi config_type=relaxed source=QE_7.6_PBE dataset_origin=Pilot-25 source_record=Pilot-25:AlNi_relaxed original_dataset=/workspace/ni_al/data/processed/ni_al_pilot_dft_25.extxyz original_dataset_sha256=35b2b65fe77d181b5da30dd23bbb7ff9fc4f41c0c0f603738172e2f833ab5b0b provenance=/workspace/ni_al/configs/PILOT25_PROVENANCE.txt qe_output_sha256=historical_not_recorded canonical_input=historical_not_recorded canonical_input_sha256=historical_not_recorded energy=-5209.311410373913 stress="-8.630681582874845e-05 -0.0 -0.0 -0.0 -8.630681582874845e-05 -0.0 -0.0 -0.0 -8.630681582874845e-05" pbc="T T T"
Al       1.44700412       1.44700412       1.44700412       0.00000000       0.00000000       0.00000000
Ni       0.00000000       0.00000000       0.00000000       0.00000000       0.00000000       0.00000000
5
Lattice="4.044922628503966 0.0 0.0 -2.022461314251983 3.5030041193501473 -0.0 -0.0 -0.0 4.907862377146373" Properties=species:S:1:pos:R:3:forces:R:3 config_id=Al3Ni2_relaxed phase=Al3Ni2 config_type=relaxed source=QE_7.6_PBE dataset_origin=Pilot-25 source_record=Pilot-25:Al3Ni2_relaxed original_dataset=/workspace/ni_al/data/processed/ni_al_pilot_dft_25.extxyz original_dataset_sha256=35b2b65fe77d181b5da30dd23bbb7ff9fc4f41c0c0f603738172e2f833ab5b0b provenance=/workspace/ni_al/configs/PILOT25_PROVENANCE.txt qe_output_sha256=historical_not_recorded canonical_input=historical_not_recorded canonical_input_sha256=historical_not_recorded energy=-10956.512625390018 stress="-7.345260921595614e-06 -0.0 0.0 -0.0 -7.345260921595614e-06 0.0 0.0 0.0 -4.6826038375172033e-05" pbc="T T T"
Al       0.00000000       0.00000000       0.00000000       0.00000000      -0.00000000       0.00000000
Al      -0.00000283       2.33533770       3.17789306      -0.00000000      -0.00000000      -0.00204994
Al       2.02246293       1.16766683       1.72996891      -0.00000000      -0.00000000       0.00204994
Ni      -0.00000283       2.33533770       0.71968598       0.00000000       0.00000000      -0.00243509
Ni       2.02246293       1.16766683       4.18817639       0.00000000       0.00000000       0.00243509
4
Lattice="3.5672608213836416 0.0 -0.0 0.0 3.5673856755123903 0.0 0.0 0.0 3.5673856755123903" Properties=species:S:1:pos:R:3:forces:R:3 config_id=AlNi3_relaxed phase=AlNi3 config_type=relaxed source=QE_7.6_PBE dataset_origin=Pilot-25 source_record=Pilot-25:AlNi3_relaxed original_dataset=/workspace/ni_al/data/processed/ni_al_pilot_dft_25.extxyz original_dataset_sha256=35b2b65fe77d181b5da30dd23bbb7ff9fc4f41c0c0f603738172e2f833ab5b0b provenance=/workspace/ni_al/configs/PILOT25_PROVENANCE.txt qe_output_sha256=historical_not_recorded canonical_input=historical_not_recorded canonical_input_sha256=historical_not_recorded energy=-14550.847840706278 stress="-0.00011476970189993147 -0.0 -0.0 -0.0 -9.365207675034407e-05 -0.0 -0.0 -0.0 -9.365207675034407e-05" pbc="T T T"
Al       0.00000000       0.00000000       0.00000000       0.00000000       0.00000000       0.00000000
Ni       0.00000000       1.78369248       1.78369212       0.00000000       0.00000000       0.00000000
Ni       1.78363041       0.00000000       1.78369212       0.00000000       0.00000000       0.00000000
Ni       1.78363041       1.78369248       0.00000000       0.00000000       0.00000000       0.00000000
8
Lattice="3.762306544370215 0.0 0.0 0.0 4.98132396319852 -0.5517008693599039 0.0 -0.01383023885710491 5.011764785449018" Properties=species:S:1:pos:R:3:forces:R:3 config_id=Al3Ni5_relaxed phase=Al3Ni5 config_type=relaxed source=QE_7.6_PBE dataset_origin=Pilot-25 source_record=Pilot-25:Al3Ni5_relaxed original_dataset=/workspace/ni_al/data/processed/ni_al_pilot_dft_25.extxyz original_dataset_sha256=35b2b65fe77d181b5da30dd23bbb7ff9fc4f41c0c0f603738172e2f833ab5b0b provenance=/workspace/ni_al/configs/PILOT25_PROVENANCE.txt qe_output_sha256=historical_not_recorded canonical_input=historical_not_recorded canonical_input_sha256=historical_not_recorded energy=-24969.625439533414 stress="-0.0003277822686262043 -0.0 -0.0 -0.0 -0.00020933993626547502 -1.9281309919188485e-05 -0.0 -1.9281309919188485e-05 -0.00020474914818947773" pbc="T T T"
Al       0.00000000       2.48374724       2.23003083       0.00000000       0.00000000       0.00000000
Al       1.88115327       1.08762639       3.78500153      -0.00000000      -0.00043632       0.00048800
Al       1.88115327       3.87986771       0.67506051      -0.00000000       0.00043632      -0.00048800
Ni       0.00000000       0.00000000       0.00000000       0.00000000       0.00000000       0.00000000
Ni       0.00000000       2.49066236      -0.27585119       0.00000000       0.00000000       0.00000000
Ni       0.00000000      -0.00691512       2.50588239       0.00000000       0.00000000       0.00000000
Ni       1.88115327       1.37310155       1.23285556       0.00000000       0.00173498       0.00147144
Ni       1.88115327       3.59439255       3.22720648       0.00000000      -0.00173498      -0.00147144
16
Lattice="4.8255045200653575 0.0 0.0 0.0 6.623033906816824 0.0 0.0 0.0 7.38249111020279" Properties=species:S:1:pos:R:3:forces:R:3 config_id=Al3Ni_relaxed phase=Al3Ni config_type=relaxed source=QE_7.6_PBE dataset_origin=Pilot-25 source_record=Pilot-25:Al3Ni_relaxed original_dataset=/workspace/ni_al/data/processed/ni_al_pilot_dft_25.extxyz original_dataset_sha256=35b2b65fe77d181b5da30dd23bbb7ff9fc4f41c0c0f603738172e2f833ab5b0b provenance=/workspace/ni_al/configs/PILOT25_PROVENANCE.txt qe_output_sha256=historical_not_recorded canonical_input=historical_not_recorded canonical_input_sha256=historical_not_recorded energy=-25138.175258317573 stress="8.17160277527512e-05 -0.0 -0.0 -0.0 0.00016985915881189857 -0.0 -0.0 -0.0 7.253445160075668e-05" pbc="T T T"
Al       4.42028326       0.04972103       1.84562326       0.00048594      -0.00016069       0.00000000
Al       1.75696282       1.13466431       3.28334421      -0.00245412       0.00241992      -0.00121793
Al       1.75696282       1.13466431       0.40790231      -0.00245412       0.00241992       0.00121793
Al       4.16971653       2.17685313       4.09914738      -0.00245412      -0.00241992       0.00121793
Al       0.65578944       4.44617933       3.28334566       0.00245412       0.00241992      -0.00121793
Al       3.06854315       5.48836815       6.97459073       0.00245412      -0.00241992      -0.00121793
Al       0.65578944       4.44617933       0.40790086       0.00245412       0.00241992       0.00121793
Al       3.06854315       5.48836815       4.09914835       0.00245412      -0.00241992       0.00121793
Al       4.16971653       2.17685313       6.97459170      -0.00245412      -0.00241992      -0.00121793
Al       2.81797400       3.36123557       1.84562326      -0.00048594      -0.00016069       0.00000000
Al       0.40522271       6.57331143       5.53686978      -0.00048594       0.00016069       0.00000000
Al       2.00753197       3.26179689       5.53686978       0.00048594       0.00016069       0.00000000
Ni       2.13804208       5.76440149       1.84562326       0.00047283      -0.00132900       0.00000000
Ni       0.27471115       2.45288453       1.84562326      -0.00047283      -0.00132900       0.00000000
Ni       2.68746389       0.85863097       5.53686978      -0.00047283       0.00132900      -0.00000000
Ni       4.55079482       4.17014793       5.53686978       0.00047283       0.00132900       0.00000000
16
Lattice="4.777249471803178 0.0 0.0 0.0 6.55680356354663 0.0 0.0 0.0 7.308666194416749" Properties=species:S:1:pos:R:3:forces:R:3 config_id=cfg026_Al3Ni_iso_compression phase=Al3Ni config_type=iso_compression source=QE_7.6_PBE provenance=/workspace/ni_al/data/expansion_026_100/production_gpu/chunk_01/cfg026_Al3Ni_iso_compression/attempt_001/qe.out qe_output_sha256=4e103a125b15148c4c2633d61085cadf128748bec421b818510a91f00f153ed5 canonical_input=/workspace/ni_al/data/expansion_026_100/qe_inputs/cfg026_Al3Ni_iso_compression.in canonical_input_sha256=ead454c58ff9d66466f61eea864a1912984198de9d8076b2da41b3ad9c128b69 dataset_origin=Expansion-75 source_record=Expansion-75:4e103a125b15148c4c2633d61085cadf128748bec421b818510a91f00f153ed5 original_dataset=/workspace/ni_al/data/processed/ni_al_expansion_dft_75.extxyz original_dataset_sha256=ff69c2bfed14bfcf48931949647d8f1b3c9353a89c20378c9113155940792137 energy=-25138.09895571401 stress="-0.02218172943263519 -0.0 -0.0 -0.0 -0.02279696120987891 -0.0 -0.0 -0.0 -0.023614594886247328" pbc="T T T"
Al       4.37608042       0.04922382       1.82716703      -0.00538893       0.01091477       0.00000000
Al       1.73939319       1.12331767       3.25051077       0.00655798       0.01791264       0.00196170
Al       1.73939319       1.12331767       0.40382329       0.00655798       0.01791264      -0.00196170
Al       4.12801936       2.15508460       4.05815590       0.00655798      -0.01791264      -0.00196170
Al       0.64923155       4.40171753       3.25051220      -0.00655798       0.01791264       0.00196170
Al       3.03785772       5.43348447       6.90484482      -0.00655798      -0.01791264       0.00196170
Al       0.64923155       4.40171753       0.40382185      -0.00655798       0.01791264      -0.00196170
Al       3.03785772       5.43348447       4.05815686      -0.00655798      -0.01791264      -0.00196170
Al       4.12801936       2.15508460       6.90484578       0.00655798      -0.01791264       0.00196170
Al       2.78979426       3.32762321       1.82716703       0.00538893       0.01091477       0.00000000
Al       0.40117048       6.50757831       5.48150108       0.00538893      -0.01091477       0.00000000
Al       1.98745665       3.22917892       5.48150108      -0.00538893      -0.01091477       0.00000000
Ni       2.11666166       5.70675747       1.82716703       0.00550345       0.00942830       0.00000000
Ni       0.27196404       2.42835568       1.82716703      -0.00550345       0.00942830       0.00000000
Ni       2.66058925       0.85004466       5.48150108      -0.00550345      -0.00942830       0.00000000
Ni       4.50528687       4.12844645       5.48150108       0.00550345      -0.00942830       0.00000000
16
Lattice="4.873759562142323 0.0 0.0 0.0 6.689264241597737 0.0 0.0 0.0 7.456316016526118" Properties=species:S:1:pos:R:3:forces:R:3 config_id=cfg027_Al3Ni_iso_expansion phase=Al3Ni config_type=iso_expansion source=QE_7.6_PBE provenance=/workspace/ni_al/data/expansion_026_100/production_gpu/chunk_01/cfg027_Al3Ni_iso_expansion/attempt_001/qe.out qe_output_sha256=1665361433b293a53ed1b4e35c4286dcf639ea1b0c3b2374be7ece365c902c83 canonical_input=/workspace/ni_al/data/expansion_026_100/qe_inputs/cfg027_Al3Ni_iso_expansion.in canonical_input_sha256=8995a08a2c062b688841d8fbf654de13c2f53e015d3106f1cf9d32ad9610a08f dataset_origin=Expansion-75 source_record=Expansion-75:1665361433b293a53ed1b4e35c4286dcf639ea1b0c3b2374be7ece365c902c83 original_dataset=/workspace/ni_al/data/processed/ni_al_expansion_dft_75.extxyz original_dataset_sha256=ff69c2bfed14bfcf48931949647d8f1b3c9353a89c20378c9113155940792137 energy=-25138.103862900454 stress="0.019356280221115418 -0.0 -0.0 -0.0 0.02011198377022207 -0.0 -0.0 -0.0 0.02062407842879537" pbc="T T T"
Al       4.46448609       0.05021824       1.86407949       0.00519116      -0.01009034       0.00000000
Al       1.77453245       1.14601095       3.31617765      -0.01034048      -0.01118422      -0.00411140
Al       1.77453245       1.14601095       0.41198133      -0.01034048      -0.01118422       0.00411140
Al       4.21141369       2.19862166       4.14013885      -0.01034048       0.01118422       0.00411140
Al       0.66234733       4.49064112       3.31617911       0.01034048      -0.01118422      -0.00411140
Al       3.09922858       5.54325183       7.04433663       0.01034048       0.01118422      -0.00411140
Al       0.66234733       4.49064112       0.41197987       0.01034048      -0.01118422       0.00411140
Al       3.09922858       5.54325183       4.14013983       0.01034048       0.01118422       0.00411140
Al       4.21141369       2.19862166       7.04433761      -0.01034048       0.01118422      -0.00411140
Al       2.84615374       3.39484792       1.86407949      -0.00519116      -0.01009034       0.00000000
Al       0.40927494       6.63904454       5.59223847      -0.00519116       0.01009034       0.00000000
Al       2.02760729       3.29441486       5.59223847       0.00519116       0.01009034       0.00000000
Ni       2.15942250       5.82204550       1.86407949      -0.00362875      -0.01070722       0.00000000
Ni       0.27745826       2.47741337       1.86407949       0.00362875      -0.01070722       0.00000000
Ni       2.71433853       0.86721728       5.59223847       0.00362875       0.01070722       0.00000000
Ni       4.59630277       4.21184941       5.59223847      -0.00362875       0.01070722       0.00000000
8
Lattice="3.724683476539786 0.0 0.0 0.0 4.93151072040631 -0.5461838603159415 0.0 -0.0136919364602246 4.961647134414995" Properties=species:S:1:pos:R:3:forces:R:3 config_id=cfg045_Al3Ni5_iso_compression phase=Al3Ni5 config_type=iso_compression source=QE_7.6_PBE provenance=/workspace/ni_al/data/expansion_026_100/production_gpu/chunk_01/cfg045_Al3Ni5_iso_compression/attempt_001/qe.out qe_output_sha256=20da0f9f824270b3418ad7bd86fca189e11d4b7a302c346cc3d72d9b95fb7ad0 canonical_input=/workspace/ni_al/data/expansion_026_100/qe_inputs/cfg045_Al3Ni5_iso_compression.in canonical_input_sha256=e53e5e476eea2c471a0d65439cb764daec7c8c4aa9e6574ffdaffa1ae3f049f8 dataset_origin=Expansion-75 source_record=Expansion-75:20da0f9f824270b3418ad7bd86fca189e11d4b7a302c346cc3d72d9b95fb7ad0 original_dataset=/workspace/ni_al/data/processed/ni_al_expansion_dft_75.extxyz original_dataset_sha256=ff69c2bfed14bfcf48931949647d8f1b3c9353a89c20378c9113155940792137 energy=-24969.57977036432 stress="-0.0349605041064579 -0.0 -0.0 -0.0 -0.03407764445889982 -7.990911342622238e-05 -0.0 -7.990911342622238e-05 -0.0340598018768975" pbc="T T T"
Al       0.00000000       2.45890977       2.20773052       0.00000000       0.00000000       0.00000000
Al       1.86234174       1.07675013       3.74715151       0.00000000       0.02291800      -0.02551657
Al       1.86234174       3.84106903       0.66830990       0.00000000      -0.02291800       0.02551657
Ni       0.00000000       0.00000000       0.00000000       0.00000000       0.00000000       0.00000000
Ni       0.00000000       2.45206380       4.68855446       0.00000000       0.00000000       0.00000000
Ni       0.00000000       4.92466475       1.93463970       0.00000000       0.00000000       0.00000000
Ni       1.86234174       1.35937053       1.22052700       0.00000000      -0.00012367      -0.00017432
Ni       1.86234174       3.55844862       3.19493441       0.00000000       0.00012367       0.00017432
8
Lattice="3.799929607378559 0.0 0.0 0.0 5.031137199606458 -0.5572178776968697 0.0 -0.013968541237047322 5.061882430059751" Properties=species:S:1:pos:R:3:forces:R:3 config_id=cfg046_Al3Ni5_iso_expansion phase=Al3Ni5 config_type=iso_expansion source=QE_7.6_PBE provenance=/workspace/ni_al/data/expansion_026_100/production_gpu/chunk_01/cfg046_Al3Ni5_iso_expansion/attempt_001/qe.out qe_output_sha256=86d228e633203e98f4a5c82cd572e4df477e493c251e36cb67aa9b8db89d374c canonical_input=/workspace/ni_al/data/expansion_026_100/qe_inputs/cfg046_Al3Ni5_iso_expansion.in canonical_input_sha256=0394ba76213c932ee462afc6673e787ec2bfff578a4affb305f73b619250805f dataset_origin=Expansion-75 source_record=Expansion-75:86d228e633203e98f4a5c82cd572e4df477e493c251e36cb67aa9b8db89d374c original_dataset=/workspace/ni_al/data/processed/ni_al_expansion_dft_75.extxyz original_dataset_sha256=ff69c2bfed14bfcf48931949647d8f1b3c9353a89c20378c9113155940792137 energy=-24969.585638034783 stress="0.02970619476472977 -0.0 -0.0 -0.0 0.029130455800476872 6.035468258596665e-05 -0.0 6.035468258596665e-05 0.029117968698039724" pbc="T T T"
Al       0.00000000       2.50858471       2.25233114       0.00000000       0.00000000       0.00000000
Al       1.89996480       1.09850265       3.82285154       0.00000000      -0.02184902       0.02433359
Al       1.89996480       3.91866638       0.68181111       0.00000000       0.02184902      -0.02433359
Ni       0.00000000       0.00000000       0.00000000       0.00000000       0.00000000       0.00000000
Ni       0.00000000       2.50160044       4.78327273       0.00000000       0.00000000       0.00000000
Ni       0.00000000       5.02415293       1.97372333       0.00000000       0.00000000       0.00000000
Ni       1.89996480       1.38683256       1.24518411       0.00000000       0.00454970       0.00395562
Ni       1.89996480       3.63033647       3.25947854       0.00000000      -0.00454970      -0.00395562
4
Lattice="3.5315882109065444 0.0 0.0 0.0 3.531711816493465 0.0 0.0 0.0 3.531711816493465" Properties=species:S:1:pos:R:3:forces:R:3 config_id=cfg089_AlNi3_iso_compression phase=AlNi3 config_type=iso_compression source=QE_7.6_PBE provenance=/workspace/ni_al/data/expansion_026_100/production_gpu/chunk_01/cfg089_AlNi3_iso_compression/attempt_001/qe.out qe_output_sha256=233583d40d0cedb25723de5842bc4298413375e17ac53cfce09a80a64b505cef canonical_input=/workspace/ni_al/data/expansion_026_100/qe_inputs/cfg089_AlNi3_iso_compression.in canonical_input_sha256=24175d49e82de1d560a6d264eecb73704433547d4e41a54d510e9ca33986c703 dataset_origin=Expansion-75 source_record=Expansion-75:233583d40d0cedb25723de5842bc4298413375e17ac53cfce09a80a64b505cef original_dataset=/workspace/ni_al/data/processed/ni_al_expansion_dft_75.extxyz original_dataset_sha256=ff69c2bfed14bfcf48931949647d8f1b3c9353a89c20378c9113155940792137 energy=-14550.824310636743 stress="-0.036878783566525686 -0.0 -0.0 -0.0 -0.03685636806837828 -0.0 -0.0 -0.0 -0.03685636806837828" pbc="T T T"
Al       0.00000000       0.00000000       0.00000000       0.00000000       0.00000000       0.00000000
Ni       0.00000000       1.76585555       1.76585520       0.00000000       0.00000000       0.00000000
Ni       1.76579410       0.00000000       1.76585520       0.00000000       0.00000000       0.00000000
Ni       1.76579410       1.76585555       0.00000000       0.00000000       0.00000000       0.00000000
5
Lattice="4.004473399652464 0.0 0.0 -2.002236699825732 3.4679740759343156 0.0 0.0 0.0 4.858783750260922" Properties=species:S:1:pos:R:3:forces:R:3 config_id=cfg062_Al3Ni2_iso_compression phase=Al3Ni2 config_type=iso_compression source=QE_7.6_PBE provenance=/workspace/ni_al/data/expansion_026_100/production_gpu/chunk_01/cfg062_Al3Ni2_iso_compression/attempt_001/qe.out qe_output_sha256=46dd9d883f1d886191eb3cc9ac3b663d892e404e69569d8d5f3791512113d774 canonical_input=/workspace/ni_al/data/expansion_026_100/qe_inputs/cfg062_Al3Ni2_iso_compression.in canonical_input_sha256=b7854d7d6830d2c0bb0c6af0fcc52109201abd8859ee7451dc37ea30c442d8d8 dataset_origin=Expansion-75 source_record=Expansion-75:46dd9d883f1d886191eb3cc9ac3b663d892e404e69569d8d5f3791512113d774 original_dataset=/workspace/ni_al/data/processed/ni_al_expansion_dft_75.extxyz original_dataset_sha256=ff69c2bfed14bfcf48931949647d8f1b3c9353a89c20378c9113155940792137 energy=-10956.486275286512 stress="-0.026156432424622664 3.772825795345575e-15 -4.1729597927554783e-23 3.772825795345575e-15 -0.026156456815514265 -2.4092605829820663e-23 -4.1729597927554783e-23 -2.4092605829820663e-23 -0.02806000680468011" pbc="T T T"
Al       0.00000000       0.00000000       0.00000000       0.00000000       0.00000000       0.00000000
Al      -0.00000280       2.31198432       3.14611413      -0.00000000       0.00000000      -0.04584499
Al       2.00223830       1.15599016       1.71266922       0.00000000       0.00000000       0.04584499
Ni      -0.00000280       2.31198432       0.71248912       0.00000000       0.00000000       0.02915520
Ni       2.00223830       1.15599016       4.14629462       0.00000000       0.00000000      -0.02915520
16
Lattice="4.680739381463034 0.0 0.0 0.0 6.424342885494529 0.0 0.0 0.0 7.1610163723073805" Properties=species:S:1:pos:R:3:forces:R:3 config_id=cfg028_Al3Ni_iso_compression phase=Al3Ni config_type=iso_compression source=QE_7.6_PBE provenance=/workspace/ni_al/data/expansion_026_100/production_gpu/chunk_02/cfg028_Al3Ni_iso_compression/attempt_001/qe.out qe_output_sha256=116f2d34b762dc4bf29e5659097dd6857ffa981502b8a472536cbf99687adbd9 canonical_input=/workspace/ni_al/data/expansion_026_100/qe_inputs/cfg028_Al3Ni_iso_compression.in canonical_input_sha256=5a0c2ec15b0a4b5f8949c7502be92845d74a517e8c6d05fde8ce41f710adb6a8 dataset_origin=Expansion-75 source_record=Expansion-75:116f2d34b762dc4bf29e5659097dd6857ffa981502b8a472536cbf99687adbd9 original_dataset=/workspace/ni_al/data/processed/ni_al_expansion_dft_75.extxyz original_dataset_sha256=ff69c2bfed14bfcf48931949647d8f1b3c9353a89c20378c9113155940792137 energy=-25137.421830604162 stress="-0.07712269995279131 -0.0 -0.0 -0.0 -0.07924256777823557 -0.0 -0.0 -0.0 -0.08189603836344514" pbc="T T T"
Al       4.28767476       0.04822940       1.79025456      -0.02120786       0.03634074       0.00000000
Al       1.70425393       1.10062438       3.18484388       0.02826772       0.05555313       0.00980105
Al       1.70425393       1.10062438       0.39566524       0.02826772       0.05555313      -0.00980105
Al       4.04462503       2.11154753       3.97617296       0.02826772      -0.05555313      -0.00980105
Al       0.63611576       4.31279395       3.18484529      -0.02826772       0.05555313       0.00980105
Al       2.97648685       5.32371710       6.76535300      -0.02826772      -0.05555313       0.00980105
Al       0.63611576       4.31279395       0.39566383      -0.02826772       0.05555313      -0.00980105
Al       2.97648685       5.32371710       3.97617390      -0.02826772      -0.05555313      -0.00980105
Al       4.04462503       2.11154753       6.76535394       0.02826772      -0.05555313       0.00980105
Al       2.73343478       3.26039850       1.79025456       0.02120786       0.03634074       0.00000000
Al       0.39306603       6.37611208       5.37076368       0.02120786      -0.03634074       0.00000000
Al       1.94730601       3.16394298       5.37076368      -0.02120786      -0.03634074       0.00000000
Ni       2.07390082       5.59146944       1.79025456       0.01885478       0.03543246       0.00000000
Ni       0.26646982       2.37929799       1.79025456      -0.01885478       0.03543246       0.00000000
Ni       2.60683997       0.83287204       5.37076368      -0.01885478      -0.03543246       0.00000000
Ni       4.41427097       4.04504349       5.37076368       0.01885478      -0.03543246       0.00000000
16
Lattice="4.970269652481468 0.0 0.0 0.0 6.8217249196488385 0.0 0.0 0.0 7.603965838635488" Properties=species:S:1:pos:R:3:forces:R:3 config_id=cfg029_Al3Ni_iso_expansion phase=Al3Ni config_type=iso_expansion source=QE_7.6_PBE provenance=/workspace/ni_al/data/expansion_026_100/production_gpu/chunk_02/cfg029_Al3Ni_iso_expansion/attempt_001/qe.out qe_output_sha256=58cb3175e110906e2a238b92f2aed42c0bcc69cb9af4f5303de86518a771ca9f canonical_input=/workspace/ni_al/data/expansion_026_100/qe_inputs/cfg029_Al3Ni_iso_expansion.in canonical_input_sha256=cf4cfef7399ba84b0205fdc517cd12115e6b007dddb456e79bb1e875be0b9591 dataset_origin=Expansion-75 source_record=Expansion-75:58cb3175e110906e2a238b92f2aed42c0bcc69cb9af4f5303de86518a771ca9f original_dataset=/workspace/ni_al/data/processed/ni_al_expansion_dft_75.extxyz original_dataset_sha256=ff69c2bfed14bfcf48931949647d8f1b3c9353a89c20378c9113155940792137 energy=-25137.560503998706 stress="0.05027270845189689 -0.0 -0.0 -0.0 0.05223442457305961 -0.0 -0.0 -0.0 0.05370818510060265" pbc="T T T"
Al       4.55289175       0.05121266       1.90099196       0.01152921      -0.02635254       0.00000000
Al       1.80967170       1.16870424       3.38184453      -0.02304092      -0.03357565      -0.00951963
Al       1.80967170       1.16870424       0.42013938      -0.02304092      -0.03357565       0.00951963
Al       4.29480802       2.24215872       4.22212180      -0.02304092       0.03357565       0.00951963
Al       0.67546312       4.57956471       3.38184603       0.02304092      -0.03357565      -0.00951963
Al       3.16059944       5.65301919       7.18382845       0.02304092       0.03357565      -0.00951963
Al       0.67546312       4.57956471       0.42013789       0.02304092      -0.03357565       0.00951963
Al       3.16059944       5.65301919       4.22212280       0.02304092       0.03357565       0.00951963
Al       4.29480802       2.24215872       7.18382945      -0.02304092       0.03357565      -0.00951963
Al       2.90251322       3.46207263       1.90099196      -0.01152921      -0.02635254       0.00000000
Al       0.41737939       6.77051077       5.70297587      -0.01152921       0.02635254       0.00000000
Al       2.06775793       3.35965079       5.70297587       0.01152921       0.02635254       0.00000000
Ni       2.20218334       5.93733353       1.90099196      -0.00949594      -0.02556367       0.00000000
Ni       0.28295248       2.52647106       1.90099196       0.00949594      -0.02556367       0.00000000
Ni       2.76808780       0.88438990       5.70297587       0.00949594       0.02556367       0.00000000
Ni       4.68731866       4.29525237       5.70297587      -0.00949594       0.02556367       0.00000000
8
Lattice="3.649437345700013 0.0 0.0 0.0 4.831884241206161 -0.5351498429360132 0.0 -0.013415331682401882 4.861411838770238" Properties=species:S:1:pos:R:3:forces:R:3 config_id=cfg047_Al3Ni5_iso_compression phase=Al3Ni5 config_type=iso_compression source=QE_7.6_PBE provenance=/workspace/ni_al/data/expansion_026_100/production_gpu/chunk_02/cfg047_Al3Ni5_iso_compression/attempt_001/qe.out qe_output_sha256=16171de4b48e59f822242883b943d33ad4c01d42d718e29b371feca1419dc222 canonical_input=/workspace/ni_al/data/expansion_026_100/qe_inputs/cfg047_Al3Ni5_iso_compression.in canonical_input_sha256=914d7918f7fefc00f1ddb8adb097809b2d33e51324dfff938caf2395513f3403 dataset_origin=Expansion-75 source_record=Expansion-75:16171de4b48e59f822242883b943d33ad4c01d42d718e29b371feca1419dc222 original_dataset=/workspace/ni_al/data/processed/ni_al_expansion_dft_75.extxyz original_dataset_sha256=ff69c2bfed14bfcf48931949647d8f1b3c9353a89c20378c9113155940792137 energy=-24969.176018310893 stress="-0.12059347188779124 -0.0 -0.0 -0.0 -0.11796177031401388 -0.00013092481397976722 -0.0 -0.00013092481397976722 -0.11793254136042138" pbc="T T T"
Al       0.00000000       2.40923482       2.16312990       0.00000000       0.00000000       0.00000000
Al       1.82471867       1.05499760       3.67145148       0.00000000       0.07605668      -0.08469623
Al       1.82471867       3.76347168       0.65480869       0.00000000      -0.07605668       0.08469623
Ni       0.00000000       0.00000000       0.00000000       0.00000000       0.00000000       0.00000000
Ni       0.00000000       2.40252716       4.59383618       0.00000000       0.00000000       0.00000000
Ni       0.00000000       4.82517657       1.89555607       0.00000000       0.00000000       0.00000000
Ni       1.82471867       1.33190850       1.19586989       0.00000000      -0.00011336      -0.00019717
Ni       1.82471867       3.48656077       3.13039028       0.00000000       0.00011336       0.00019717
8
Lattice="3.8751757382173326 0.0 0.0 0.0 5.130763678805605 -0.5682518950767974 0.0 -0.014245146013870039 5.16211772570351" Properties=species:S:1:pos:R:3:forces:R:3 config_id=cfg048_Al3Ni5_iso_expansion phase=Al3Ni5 config_type=iso_expansion source=QE_7.6_PBE provenance=/workspace/ni_al/data/expansion_026_100/production_gpu/chunk_02/cfg048_Al3Ni5_iso_expansion/attempt_001/qe.out qe_output_sha256=2b24f1c522bd3dd1eb83341a632ed2fbaf1b416eb8144b3a8c0585c89f8097b5 canonical_input=/workspace/ni_al/data/expansion_026_100/qe_inputs/cfg048_Al3Ni5_iso_expansion.in canonical_input_sha256=7c7dbef03b25c1787e7a98a8884b8aca67f3c555883147f4185b332de988c30d dataset_origin=Expansion-75 source_record=Expansion-75:2b24f1c522bd3dd1eb83341a632ed2fbaf1b416eb8144b3a8c0585c89f8097b5 original_dataset=/workspace/ni_al/data/processed/ni_al_expansion_dft_75.extxyz original_dataset_sha256=ff69c2bfed14bfcf48931949647d8f1b3c9353a89c20378c9113155940792137 energy=-24969.26889018108 stress="0.07775583483021267 -0.0 -0.0 -0.0 0.07597054549955883 0.0002442599136837532 -0.0 0.0002442599136837532 0.07591812368393784" pbc="T T T"
Al       0.00000000       2.55825966       2.29693175       0.00000000       0.00000000       0.00000000
Al       1.93758787       1.12025518       3.89855157       0.00000000      -0.05945959       0.06621914
Al       1.93758787       3.99626374       0.69531232       0.00000000       0.05945959      -0.06621914
Ni       0.00000000       0.00000000       0.00000000       0.00000000       0.00000000       0.00000000
Ni       0.00000000       2.55113708       4.87799100       0.00000000       0.00000000       0.00000000
Ni       0.00000000       5.12364111       2.01280696       0.00000000       0.00000000       0.00000000
Ni       1.93758787       1.41429460       1.26984123       0.00000000       0.01209810       0.01076461
Ni       1.93758787       3.70222432       3.32402267       0.00000000      -0.01209810      -0.01076461
4
Lattice="3.6029334272878177 0.0 0.0 0.0 3.603059529958737 0.0 0.0 0.0 3.603059529958737" Properties=species:S:1:pos:R:3:forces:R:3 config_id=cfg090_AlNi3_iso_expansion phase=AlNi3 config_type=iso_expansion source=QE_7.6_PBE provenance=/workspace/ni_al/data/expansion_026_100/production_gpu/chunk_02/cfg090_AlNi3_iso_expansion/attempt_001/qe.out qe_output_sha256=9a3feed3f0cb568a9c736d3e885638369f75a3e64a5cdb14b741341cd403499a canonical_input=/workspace/ni_al/data/expansion_026_100/qe_inputs/cfg090_AlNi3_iso_expansion.in canonical_input_sha256=9ea47e929747a1c4f912404b4c5f2ea0c70b4f9e5ddb5b33e417f411b72ecc03 dataset_origin=Expansion-75 source_record=Expansion-75:9a3feed3f0cb568a9c736d3e885638369f75a3e64a5cdb14b741341cd403499a original_dataset=/workspace/ni_al/data/processed/ni_al_expansion_dft_75.extxyz original_dataset_sha256=ff69c2bfed14bfcf48931949647d8f1b3c9353a89c20378c9113155940792137 energy=-14550.82712810803 stress="0.03158629494191556 -0.0 -0.0 -0.0 0.03160634793313787 -0.0 -0.0 -0.0 0.031606347933137886" pbc="T T T"
Al       0.00000000       0.00000000       0.00000000       0.00000000       0.00000000       0.00000000
Ni       0.00000000       1.80152940       1.80152904       0.00000000       0.00000000       0.00000000
Ni       1.80146671       0.00000000       1.80152904       0.00000000       0.00000000       0.00000000
Ni       1.80146671       1.80152940       0.00000000       0.00000000       0.00000000       0.00000000
5
Lattice="4.085371852170614 0.0 0.0 -2.042685926085807 3.5380341582764125 0.0 0.0 0.0 4.956940997741011" Properties=species:S:1:pos:R:3:forces:R:3 config_id=cfg063_Al3Ni2_iso_expansion phase=Al3Ni2 config_type=iso_expansion source=QE_7.6_PBE provenance=/workspace/ni_al/data/expansion_026_100/production_gpu/chunk_02/cfg063_Al3Ni2_iso_expansion/attempt_001/qe.out qe_output_sha256=e9d4b0f222c758239f9b9d19551b75bf8dfb1c42077038bed73f68ec330c22ee canonical_input=/workspace/ni_al/data/expansion_026_100/qe_inputs/cfg063_Al3Ni2_iso_expansion.in canonical_input_sha256=5b873a5ed5cd01f132ae7ab6f8be71320bd6098abaf134705ecf7593655819e9 dataset_origin=Expansion-75 source_record=Expansion-75:e9d4b0f222c758239f9b9d19551b75bf8dfb1c42077038bed73f68ec330c22ee original_dataset=/workspace/ni_al/data/processed/ni_al_expansion_dft_75.extxyz original_dataset_sha256=ff69c2bfed14bfcf48931949647d8f1b3c9353a89c20378c9113155940792137 energy=-10956.488648411627 stress="0.022686762005248398 3.2103860659602847e-15 4.172959792755335e-23 3.2103860659602847e-15 0.022686783160669136 2.4092605829831334e-23 4.172959792755335e-23 2.4092605829831334e-23 0.02430007006562958" pbc="T T T"
Al       0.00000000       0.00000000       0.00000000       0.00000000       0.00000000       0.00000000
Al      -0.00000286       2.35869108       3.20967199       0.00000000       0.00000000       0.03656982
Al       2.04268756       1.17934350       1.74726860       0.00000000      -0.00000000      -0.03656982
Ni      -0.00000286       2.35869108       0.72688284       0.00000000       0.00000000      -0.02960367
Ni       2.04268756       1.17934350       4.23005815       0.00000000       0.00000000       0.02960367
16
Lattice="4.753121949217642 0.0 0.0 0.0 6.623033902572181 0.0 0.0 0.0 7.382491105471437" Properties=species:S:1:pos:R:3:forces:R:3 config_id=cfg030_Al3Ni_uniaxial_x_compression phase=Al3Ni config_type=uniaxial_x_compression source=QE_7.6_PBE provenance=/workspace/ni_al/data/expansion_026_100/production_gpu/chunk_03/cfg030_Al3Ni_uniaxial_x_compression/attempt_001/qe.out qe_output_sha256=7c3a09dec9093523eda8a1d8b357c9b40b81b40110c46dfb970b30d243525263 canonical_input=/workspace/ni_al/data/expansion_026_100/qe_inputs/cfg030_Al3Ni_uniaxial_x_compression.in canonical_input_sha256=17e8d7c7d2c765f83a6211c966e422327c743cb0fa2ed9f986d74e27bd30c367 dataset_origin=Expansion-75 source_record=Expansion-75:7c3a09dec9093523eda8a1d8b357c9b40b81b40110c46dfb970b30d243525263 original_dataset=/workspace/ni_al/data/processed/ni_al_expansion_dft_75.extxyz original_dataset_sha256=ff69c2bfed14bfcf48931949647d8f1b3c9353a89c20378c9113155940792137 energy=-25138.142332986004 stress="-0.020024741619993482 -0.0 -0.0 -0.0 -0.0060586861920659514 -0.0 -0.0 -0.0 -0.006597887495609804" pbc="T T T"
Al       4.35397901       0.04972103       1.84562326       0.03207593       0.00613467       0.00000000
Al       1.73060838       1.13466431       3.28334421       0.03595141      -0.03152383      -0.02322294
Al       1.73060838       1.13466431       0.40790231       0.03595141      -0.03152383       0.02322294
Al       4.10717078       2.17685313       4.09914738       0.03595141       0.03152383       0.02322294
Al       0.64595260       4.44617933       3.28334566      -0.03595141      -0.03152383      -0.02322294
Al       3.02251500       5.48836815       6.97459073      -0.03595141       0.03152383      -0.02322294
Al       0.64595260       4.44617933       0.40790086      -0.03595141      -0.03152383       0.02322294
Al       3.02251500       5.48836815       4.09914835      -0.03595141       0.03152383       0.02322294
Al       4.10717078       2.17685313       6.97459170       0.03595141       0.03152383      -0.02322294
Al       2.77570439       3.36123557       1.84562326      -0.03207593       0.00613467       0.00000000
Al       0.39914437       6.57331143       5.53686978      -0.03207593      -0.00613467       0.00000000
Al       1.97741899       3.26179689       5.53686978       0.03207593      -0.00613467       0.00000000
Ni       2.10597145       5.76440149       1.84562326      -0.04505996       0.02464263       0.00000000
Ni       0.27059048       2.45288453       1.84562326       0.04505996       0.02464263       0.00000000
Ni       2.64715193       0.85863097       5.53686978       0.04505996      -0.02464263       0.00000000
Ni       4.48253289       4.17014793       5.53686978      -0.04505996      -0.02464263       0.00000000
16
Lattice="4.825504516972251 0.0 0.0 0.0 6.722379411110513 0.0 0.0 0.0 7.382491105471437" Properties=species:S:1:pos:R:3:forces:R:3 config_id=cfg031_Al3Ni_uniaxial_y_expansion phase=Al3Ni config_type=uniaxial_y_expansion source=QE_7.6_PBE provenance=/workspace/ni_al/data/expansion_026_100/production_gpu/chunk_03/cfg031_Al3Ni_uniaxial_y_expansion/attempt_001/qe.out qe_output_sha256=d6a43a91cab49b9a86d3e0e8d03d230254fb32b8845d4c4f19172fb596fd4c2d canonical_input=/workspace/ni_al/data/expansion_026_100/qe_inputs/cfg031_Al3Ni_uniaxial_y_expansion.in canonical_input_sha256=baf52fa0047ebab1f00e8eec427d723dd5b1bd53e232ba98e49a45a0b7128181 dataset_origin=Expansion-75 source_record=Expansion-75:d6a43a91cab49b9a86d3e0e8d03d230254fb32b8845d4c4f19172fb596fd4c2d original_dataset=/workspace/ni_al/data/processed/ni_al_expansion_dft_75.extxyz original_dataset_sha256=ff69c2bfed14bfcf48931949647d8f1b3c9353a89c20378c9113155940792137 energy=-25138.14349151186 stress="0.0056362493345160835 -0.0 -0.0 -0.0 0.01883797291761483 -0.0 -0.0 -0.0 0.006409870975248956" pbc="T T T"
Al       4.42028326       0.05046685       1.84562326       0.04481640       0.02070820       0.00000000
Al       1.75696282       1.15168427       3.28334421       0.01634619      -0.03705788      -0.04823909
Al       1.75696282       1.15168427       0.40790231       0.01634619      -0.03705788       0.04823909
Al       4.16971653       2.20950593       4.09914738       0.01634619       0.03705788       0.04823909
Al       0.65578944       4.51287202       3.28334566      -0.01634619      -0.03705788      -0.04823909
Al       3.06854315       5.57069367       6.97459073      -0.01634619       0.03705788      -0.04823909
Al       0.65578944       4.51287202       0.40790086      -0.01634619      -0.03705788       0.04823909
Al       3.06854315       5.57069367       4.09914835      -0.01634619       0.03705788       0.04823909
Al       4.16971653       2.20950593       6.97459170       0.01634619       0.03705788      -0.04823909
Al       2.81797400       3.41165410       1.84562326      -0.04481640       0.02070820       0.00000000
Al       0.40522271       6.67191110       5.53686978      -0.04481640      -0.02070820       0.00000000
Al       2.00753197       3.31072384       5.53686978       0.04481640      -0.02070820       0.00000000
Ni       2.13804208       5.85086751       1.84562326      -0.02709215       0.02270678       0.00000000
Ni       0.27471115       2.48967780       1.84562326       0.02709215       0.02270678       0.00000000
Ni       2.68746389       0.87151043       5.53686978       0.02709215      -0.02270678       0.00000000
Ni       4.55079482       4.23270015       5.53686978      -0.02709215      -0.02270678       0.00000000
8
Lattice="3.7623065419586723 0.0 0.0 0.0 4.906604100606273 -0.5517008690064054 0.0 -0.013622785265268922 5.011764782236874" Properties=species:S:1:pos:R:3:forces:R:3 config_id=cfg049_Al3Ni5_uniaxial_y_compression phase=Al3Ni5 config_type=uniaxial_y_compression source=QE_7.6_PBE provenance=/workspace/ni_al/data/expansion_026_100/production_gpu/chunk_03/cfg049_Al3Ni5_uniaxial_y_compression/attempt_001/qe.out qe_output_sha256=1fcee43b8a8c4c53d4b0dfdda23eddd108dd1c4f4021af9b93b56a099e0e8385 canonical_input=/workspace/ni_al/data/expansion_026_100/qe_inputs/cfg049_Al3Ni5_uniaxial_y_compression.in canonical_input_sha256=239716c986d35eed3bc39a0febe8f2df2b0a478d859251432e101c6b550b5b9a dataset_origin=Expansion-75 source_record=Expansion-75:1fcee43b8a8c4c53d4b0dfdda23eddd108dd1c4f4021af9b93b56a099e0e8385 original_dataset=/workspace/ni_al/data/processed/ni_al_expansion_dft_75.extxyz original_dataset_sha256=ff69c2bfed14bfcf48931949647d8f1b3c9353a89c20378c9113155940792137 energy=-24969.60482974261 stress="-0.012320102703127729 -0.0 -0.0 -0.0 -0.03219215395042869 0.0018375384938230566 -0.0 0.0018375384938230566 -0.006406882556157821" pbc="T T T"
Al       0.00000000       2.44649103       2.23003083       0.00000000       0.00000000       0.00000000
Al       1.88115327       1.07131199       3.78500153       0.00000000       0.04325613       0.01358964
Al       1.88115327       3.82166969       0.67506051       0.00000000      -0.04325613      -0.01358964
Ni       0.00000000       0.00000000       0.00000000       0.00000000       0.00000000       0.00000000
Ni       0.00000000       2.43967964       4.73591359       0.00000000       0.00000000       0.00000000
Ni       0.00000000       4.89979271       1.95418152       0.00000000       0.00000000       0.00000000
Ni       1.88115327       1.35250503       1.23285556       0.00000000       0.04064376       0.00820189
Ni       1.88115327       3.54047666       3.22720648       0.00000000      -0.04064376      -0.00820189
8
Lattice="3.7623065419586723 0.0 0.0 0.0 5.056043819405494 -0.5434253559717094 0.0 -0.014037692431002998 4.936588310503056" Properties=species:S:1:pos:R:3:forces:R:3 config_id=cfg050_Al3Ni5_orthorhombic_yz phase=Al3Ni5 config_type=orthorhombic_yz source=QE_7.6_PBE provenance=/workspace/ni_al/data/expansion_026_100/production_gpu/chunk_03/cfg050_Al3Ni5_orthorhombic_yz/attempt_001/qe.out qe_output_sha256=896fb37820646eb3596ba69089528f46b511cab78d24ef5f91106a61aadc4e3a canonical_input=/workspace/ni_al/data/expansion_026_100/qe_inputs/cfg050_Al3Ni5_orthorhombic_yz.in canonical_input_sha256=0e7bf2c60e4e4ef9623a0cdd91f55dbe2bfd2785f86ecaf85d0fe5fa37b3f4fc dataset_origin=Expansion-75 source_record=Expansion-75:896fb37820646eb3596ba69089528f46b511cab78d24ef5f91106a61aadc4e3a original_dataset=/workspace/ni_al/data/processed/ni_al_expansion_dft_75.extxyz original_dataset_sha256=ff69c2bfed14bfcf48931949647d8f1b3c9353a89c20378c9113155940792137 energy=-24969.59364507867 stress="7.589645307295908e-05 -0.0 -0.0 -0.0 0.021849923282334642 -0.0015701518633369081 -0.0 -0.0015701518633369081 -0.026138705830946664" pbc="T T T"
Al       0.00000000       2.52100345       2.19658037       0.00000000       0.00000000       0.00000000
Al       1.88115327       1.10394079       3.72822650       0.00000000      -0.05982251      -0.04748009
Al       1.88115327       3.93806572       0.66493460       0.00000000       0.05982251       0.04748009
Ni       0.00000000       0.00000000       0.00000000       0.00000000       0.00000000       0.00000000
Ni       0.00000000       2.51398460       4.66487489       0.00000000       0.00000000       0.00000000
Ni       0.00000000       5.04902497       1.92486880       0.00000000       0.00000000       0.00000000
Ni       1.88115327       1.39369807       1.21436273       0.00000000      -0.02075884       0.03382002
Ni       1.88115327       3.64830844       3.17879838       0.00000000       0.02075884      -0.03382002
4
Lattice="3.4602429945242705 0.0 0.0 0.0 3.4603641030291934 0.0 0.0 0.0 3.4603641030291934" Properties=species:S:1:pos:R:3:forces:R:3 config_id=cfg091_AlNi3_iso_compression phase=AlNi3 config_type=iso_compression source=QE_7.6_PBE provenance=/workspace/ni_al/data/expansion_026_100/production_gpu/chunk_03/cfg091_AlNi3_iso_compression/attempt_001/qe.out qe_output_sha256=41fbc8ca79ab21888b9f21d490ebffd453cfc1faf928686e07e6c43896de5b66 canonical_input=/workspace/ni_al/data/expansion_026_100/qe_inputs/cfg091_AlNi3_iso_compression.in canonical_input_sha256=16528aea8480c0b8537e27660b4c4a87bab0857a8df7729c5cde036a6bef2fd6 dataset_origin=Expansion-75 source_record=Expansion-75:41fbc8ca79ab21888b9f21d490ebffd453cfc1faf928686e07e6c43896de5b66 original_dataset=/workspace/ni_al/data/processed/ni_al_expansion_dft_75.extxyz original_dataset_sha256=ff69c2bfed14bfcf48931949647d8f1b3c9353a89c20378c9113155940792137 energy=-14550.613709087569 stress="-0.12824351962127228 -0.0 -0.0 -0.0 -0.12821912246224335 -0.0 -0.0 -0.0 -0.12821912246224332" pbc="T T T"
Al       0.00000000       0.00000000       0.00000000       0.00000000       0.00000000       0.00000000
Ni       0.00000000       1.73018170       1.73018136       0.00000000       0.00000000       0.00000000
Ni       1.73012150       0.00000000       1.73018136       0.00000000       0.00000000       0.00000000
Ni       1.73012150       1.73018170       0.00000000       0.00000000       0.00000000       0.00000000
5
Lattice="3.923574947134313 0.0 0.0 -1.9617874735666563 3.3979139935922182 0.0 0.0 0.0 4.760626502780831" Properties=species:S:1:pos:R:3:forces:R:3 config_id=cfg064_Al3Ni2_iso_compression phase=Al3Ni2 config_type=iso_compression source=QE_7.6_PBE provenance=/workspace/ni_al/data/expansion_026_100/production_gpu/chunk_03/cfg064_Al3Ni2_iso_compression/attempt_001/qe.out qe_output_sha256=939f92b586ea643f5ee3fd8dcd7d843581e6e4700cd19d0947daa2487ec58ed3 canonical_input=/workspace/ni_al/data/expansion_026_100/qe_inputs/cfg064_Al3Ni2_iso_compression.in canonical_input_sha256=da7abda54a09e1176f6a8fb5a1bcc543ce590ddadf6786bbdc9885f58dcfab49 dataset_origin=Expansion-75 source_record=Expansion-75:939f92b586ea643f5ee3fd8dcd7d843581e6e4700cd19d0947daa2487ec58ed3 original_dataset=/workspace/ni_al/data/processed/ni_al_expansion_dft_75.extxyz original_dataset_sha256=ff69c2bfed14bfcf48931949647d8f1b3c9353a89c20378c9113155940792137 energy=-10956.253382571484 stress="-0.09040431279124987 1.3299459795730049e-14 4.1729597927556276e-23 1.3299459795730049e-14 -0.09040439709333817 2.40926058298218e-23 4.1729597927556276e-23 2.40926058298218e-23 -0.0967595851278987" pbc="T T T"
Al       0.00000000       0.00000000       0.00000000       0.00000000       0.00000000       0.00000000
Al      -0.00000275       2.26527757       3.08255627       0.00000000       0.00000000      -0.15119335
Al       1.96178904       1.13263682       1.67806984       0.00000000       0.00000000       0.15119335
Ni      -0.00000275       2.26527757       0.69809540       0.00000000       0.00000000       0.10791353
Ni       1.96178904       1.13263682       4.06253110       0.00000000       0.00000000      -0.10791353
16
Lattice="4.897887084726859 0.0 0.0 0.0 6.523688394033855 0.0 0.0 0.0 7.382491105471437" Properties=species:S:1:pos:R:3:forces:R:3 config_id=cfg032_Al3Ni_orthorhombic_xy phase=Al3Ni config_type=orthorhombic_xy source=QE_7.6_PBE provenance=/workspace/ni_al/data/expansion_026_100/production_gpu/chunk_04/cfg032_Al3Ni_orthorhombic_xy/attempt_001/qe.out qe_output_sha256=83617d47ad83bb04e8b85b1aa5559d59cb301ac16fafe3595934362bb2d12e06 canonical_input=/workspace/ni_al/data/expansion_026_100/qe_inputs/cfg032_Al3Ni_orthorhombic_xy.in canonical_input_sha256=0db926b05f10bec22be5385ce9c4ff5e83055ce19b1afc3320d99567a750ec69 dataset_origin=Expansion-75 source_record=Expansion-75:83617d47ad83bb04e8b85b1aa5559d59cb301ac16fafe3595934362bb2d12e06 original_dataset=/workspace/ni_al/data/processed/ni_al_expansion_dft_75.extxyz original_dataset_sha256=ff69c2bfed14bfcf48931949647d8f1b3c9353a89c20378c9113155940792137 energy=-25138.130258567253 stress="0.012563028542453418 -0.0 -0.0 -0.0 -0.01409445236115378 -0.0 -0.0 -0.0 -0.0009049538205313412" pbc="T T T"
Al       4.48658751       0.04897521       1.84562326      -0.08273474      -0.03945317       0.00000000
Al       1.78331726       1.11764434       3.28334421      -0.06072370       0.07650486       0.07456794
Al       1.78331726       1.11764434       0.40790231      -0.06072370       0.07650486      -0.07456794
Al       4.23226228       2.14420033       4.09914738      -0.06072370      -0.07650486      -0.07456794
Al       0.66562628       4.37948664       3.28334566       0.06072370       0.07650486       0.07456794
Al       3.11457130       5.40604262       6.97459073       0.06072370      -0.07650486       0.07456794
Al       0.66562628       4.37948664       0.40790086       0.06072370       0.07650486      -0.07456794
Al       3.11457130       5.40604262       4.09914835       0.06072370      -0.07650486      -0.07456794
Al       4.23226228       2.14420033       6.97459170      -0.06072370      -0.07650486       0.07456794
Al       2.86024361       3.31081703       1.84562326       0.08273474      -0.03945317       0.00000000
Al       0.41130105       6.47471175       5.53686978       0.08273474       0.03945317       0.00000000
Al       2.03764495       3.21286993       5.53686978      -0.08273474       0.03945317       0.00000000
Ni       2.17011271       5.67793546       1.84562326       0.06029113      -0.05459948       0.00000000
Ni       0.27883182       2.41609126       1.84562326      -0.06029113      -0.05459948       0.00000000
Ni       2.72777585       0.84575150       5.53686978      -0.06029113       0.05459948       0.00000000
Ni       4.61905674       4.10759571       5.53686978       0.06029113       0.05459948       0.00000000
16
Lattice="4.825504516972251 0.0 0.0 -0.06623033902555184 6.623033902572181 0.0 0.0 0.0 7.382491105471437" Properties=species:S:1:pos:R:3:forces:R:3 config_id=cfg033_Al3Ni_shear_xy_negative phase=Al3Ni config_type=shear_xy_negative source=QE_7.6_PBE provenance=/workspace/ni_al/data/expansion_026_100/production_gpu/chunk_04/cfg033_Al3Ni_shear_xy_negative/attempt_001/qe.out qe_output_sha256=f33f083db82ba004db26e01df62107e02d7a1294a657876a08e66d4e3d39e7ad canonical_input=/workspace/ni_al/data/expansion_026_100/qe_inputs/cfg033_Al3Ni_shear_xy_negative.in canonical_input_sha256=52c3d6a0b44b395c08e056d0e8115d9bffa7309733182d71fc61b73a8c6ee242 dataset_origin=Expansion-75 source_record=Expansion-75:f33f083db82ba004db26e01df62107e02d7a1294a657876a08e66d4e3d39e7ad original_dataset=/workspace/ni_al/data/processed/ni_al_expansion_dft_75.extxyz original_dataset_sha256=ff69c2bfed14bfcf48931949647d8f1b3c9353a89c20378c9113155940792137 energy=-25138.17168591711 stress="7.69525278073758e-05 -0.004720719713113237 -0.0 -0.004720719713113237 0.00016496043076432348 -0.0 -0.0 -0.0 -4.248489968305342e-05" pbc="T T T"
Al       4.41978605       0.04972103       1.84562326       0.01423647      -0.01471691       0.00000000
Al       1.74561618       1.13466431       3.28334421      -0.02522861      -0.01038693      -0.01498164
Al       1.74561618       1.13466431       0.40790231      -0.02522861      -0.01038693       0.01498164
Al       4.14794800       2.17685313       4.09914738       0.02087538      -0.01495694      -0.01385403
Al       0.61132765       4.44617933       3.28334566      -0.02087538       0.01495694       0.01385403
Al       3.01365947       5.48836815       6.97459073       0.02522861       0.01038693      -0.01498164
Al       0.61132765       4.44617933       0.40790086      -0.02087538       0.01495694      -0.01385403
Al       3.01365947       5.48836815       4.09914835       0.02522861       0.01038693       0.01498164
Al       4.14794800       2.17685313       6.97459170       0.02087538      -0.01495694       0.01385403
Al       2.78436164       3.36123557       1.84562326       0.01299497       0.01389729       0.00000000
Al       0.33948960       6.57331143       5.53686978      -0.01423647       0.01471691       0.00000000
Al       1.97491400       3.26179689       5.53686978      -0.01299497      -0.01389729       0.00000000
Ni       2.08039806       5.76440149       1.84562326       0.00919888       0.00323430       0.00000000
Ni       0.25018230       2.45288453       1.84562326       0.01014653      -0.00543035       0.00000000
Ni       2.67887758       0.85863097       5.53686978      -0.00919888      -0.00323430       0.00000000
Ni       4.50909334       4.17014793       5.53686978      -0.01014653       0.00543035       0.00000000
8
Lattice="3.7623065419586723 0.0 0.0 -0.04981323960007383 4.9813239600063834 -0.5517008690064054 0.00013830238891135958 -0.013830238848135959 5.011764782236874" Properties=species:S:1:pos:R:3:forces:R:3 config_id=cfg051_Al3Ni5_shear_xy_negative phase=Al3Ni5 config_type=shear_xy_negative source=QE_7.6_PBE provenance=/workspace/ni_al/data/expansion_026_100/production_gpu/chunk_04/cfg051_Al3Ni5_shear_xy_negative/attempt_001/qe.out qe_output_sha256=d4475aebe4d5c31979068f8a5da5dd2eb067237917d5f57f1b3f004daa7ba498 canonical_input=/workspace/ni_al/data/expansion_026_100/qe_inputs/cfg051_Al3Ni5_shear_xy_negative.in canonical_input_sha256=4bded8e043362a6ae2410c49b2f3943b8861daac227a2b0998e910125329aafd dataset_origin=Expansion-75 source_record=Expansion-75:d4475aebe4d5c31979068f8a5da5dd2eb067237917d5f57f1b3f004daa7ba498 original_dataset=/workspace/ni_al/data/processed/ni_al_expansion_dft_75.extxyz original_dataset_sha256=ff69c2bfed14bfcf48931949647d8f1b3c9353a89c20378c9113155940792137 energy=-24969.624363744995 stress="-0.0004348010989033573 -0.006511721385630696 -0.0006677469023726786 -0.006511721385630696 -0.0002069187804044696 8.723648128590869e-06 -0.0006677469023726786 8.723648128590869e-06 -0.00022170037098525092" pbc="T T T"
Al      -0.02483747       2.48374724       2.23003083       0.00000000       0.00000000       0.00000000
Al       1.87027700       1.08762639       3.78500153       0.00147454      -0.00078840       0.00016028
Al       1.84235459       3.87986771       0.67506051      -0.00147454       0.00078840      -0.00016028
Ni       0.00000000       0.00000000       0.00000000       0.00000000       0.00000000       0.00000000
Ni      -0.02476832       2.47683212       4.73591359       0.00000000       0.00000000       0.00000000
Ni      -0.04974409       4.97440884       1.95418152       0.00000000       0.00000000       0.00000000
Ni       1.86742225       1.37310155       1.23285556      -0.04002403       0.00176103       0.00141813
Ni       1.84520934       3.59439255       3.22720648       0.04002403      -0.00176103      -0.00141813
8
Lattice="3.7623065419586723 0.0 0.0 0.0 4.975806951315919 -0.5517008690064054 0.0 0.03628740897374277 5.011764782236874" Properties=species:S:1:pos:R:3:forces:R:3 config_id=cfg052_Al3Ni5_shear_yz_positive phase=Al3Ni5 config_type=shear_yz_positive source=QE_7.6_PBE provenance=/workspace/ni_al/data/expansion_026_100/production_gpu/chunk_04/cfg052_Al3Ni5_shear_yz_positive/attempt_001/qe.out qe_output_sha256=84a2db407400b9841f23ffa4f1bb53a6c75ae0c581132f605e5adde21c88b90f canonical_input=/workspace/ni_al/data/expansion_026_100/qe_inputs/cfg052_Al3Ni5_shear_yz_positive.in canonical_input_sha256=e17a218ab927bec38330a30d3ec6176c6c12cd752df39bca24afd1edf842974b dataset_origin=Expansion-75 source_record=Expansion-75:84a2db407400b9841f23ffa4f1bb53a6c75ae0c581132f605e5adde21c88b90f original_dataset=/workspace/ni_al/data/processed/ni_al_expansion_dft_75.extxyz original_dataset_sha256=ff69c2bfed14bfcf48931949647d8f1b3c9353a89c20378c9113155940792137 energy=-24969.626147069765 stress="0.0006085605656340868 -0.0 -0.0 -0.0 -0.001344605878884892 0.002724658891534282 -0.0 0.002724658891534282 -0.00016423359336388034" pbc="T T T"
Al       0.00000000       2.50604755       2.23003083       0.00000000       0.00000000       0.00000000
Al       1.88115327       1.12547640       3.78500153       0.00000000      -0.00867265       0.01400947
Al       1.88115327       3.88661831       0.67506051       0.00000000       0.00867265      -0.01400947
Ni       0.00000000       0.00000000       0.00000000       0.00000000       0.00000000       0.00000000
Ni       0.00000000       2.52419126       4.73591359       0.00000000       0.00000000       0.00000000
Ni       0.00000000       4.99395066       1.95418152       0.00000000       0.00000000       0.00000000
Ni       1.88115327       1.38543010       1.23285556       0.00000000      -0.00002537      -0.00193828
Ni       1.88115327       3.62666461       3.22720648       0.00000000       0.00002537       0.00193828
5
Lattice="4.166270304688766 0.0 0.0 -2.0831351523448824 3.6080942406185104 0.0 0.0 0.0 5.0550982452211" Properties=species:S:1:pos:R:3:forces:R:3 config_id=cfg065_Al3Ni2_iso_expansion phase=Al3Ni2 config_type=iso_expansion source=QE_7.6_PBE provenance=/workspace/ni_al/data/expansion_026_100/production_gpu/chunk_04/cfg065_Al3Ni2_iso_expansion/attempt_001/qe.out qe_output_sha256=63581776c619da7bc83de3850d5bfbbcef2109fc28c879b04a89e82fac409bfc canonical_input=/workspace/ni_al/data/expansion_026_100/qe_inputs/cfg065_Al3Ni2_iso_expansion.in canonical_input_sha256=8185631ebdbb8b3b19f2a6886d9e9ad0f206c9095241c430f81cb6f6ff1ed692 dataset_origin=Expansion-75 source_record=Expansion-75:63581776c619da7bc83de3850d5bfbbcef2109fc28c879b04a89e82fac409bfc original_dataset=/workspace/ni_al/data/processed/ni_al_expansion_dft_75.extxyz original_dataset_sha256=ff69c2bfed14bfcf48931949647d8f1b3c9353a89c20378c9113155940792137 energy=-10956.302440159698 stress="0.05921949254154475 8.19270614662113e-15 2.0864798963775987e-23 8.19270614662113e-15 0.0592195477637592 1.204630291491502e-23 2.0864798963775987e-23 1.204630291491502e-23 0.06358304885487606" pbc="T T T"
Al       0.00000000       0.00000000       0.00000000      -0.00000000      -0.00000000       0.00000000
Al      -0.00000291       2.40539783       3.27322985       0.00000000       0.00000000       0.10024144
Al       2.08313682       1.20269683       1.78186798       0.00000000      -0.00000000      -0.10024144
Ni      -0.00000291       2.40539783       0.74127656       0.00000000       0.00000000      -0.07278772
Ni       2.08313682       1.20269683       4.31382168       0.00000000       0.00000000       0.07278772
5
Lattice="4.044922625911538 0.0 0.0 -2.022461312955769 3.503004117104864 0.0 0.0 0.0 4.981480309611284" Properties=species:S:1:pos:R:3:forces:R:3 config_id=cfg066_Al3Ni2_uniaxial_z_expansion phase=Al3Ni2 config_type=uniaxial_z_expansion source=QE_7.6_PBE provenance=/workspace/ni_al/data/expansion_026_100/production_gpu/chunk_04/cfg066_Al3Ni2_uniaxial_z_expansion/attempt_001/qe.out qe_output_sha256=5127090916826fb848382931514a242db5c2f35eb7ad3b621f7d96354bc0ded2 canonical_input=/workspace/ni_al/data/expansion_026_100/qe_inputs/cfg066_Al3Ni2_uniaxial_z_expansion.in canonical_input_sha256=ebb3242c186f378891287bf1891c2dfc96faeb6d1416c32078f9f063ab7aa474 dataset_origin=Expansion-75 source_record=Expansion-75:5127090916826fb848382931514a242db5c2f35eb7ad3b621f7d96354bc0ded2 original_dataset=/workspace/ni_al/data/processed/ni_al_expansion_dft_75.extxyz original_dataset_sha256=ff69c2bfed14bfcf48931949647d8f1b3c9353a89c20378c9113155940792137 energy=-10956.500899199755 stress="0.006521554114600017 -0.0 -4.111290436211972e-23 -0.0 0.006521560195955556 -2.373655746781086e-23 -4.111290436211972e-23 -2.373655746781086e-23 0.023856698003833603" pbc="T T T"
Al       0.00000000       0.00000000       0.00000000      -0.00000000       0.00000000       0.00000000
Al      -0.00000283       2.33533770       3.22556145      -0.00000000      -0.00000000       0.03238792
Al       2.02246293       1.16766683       1.75591844      -0.00000000       0.00000000      -0.03238792
Ni      -0.00000283       2.33533770       0.73048127      -0.00000000      -0.00000000       0.01166828
Ni       2.02246293       1.16766683       4.25099903       0.00000000       0.00000000      -0.01166828
2
Lattice="2.8650681545287275 0.0 0.0 0.0 2.8650681545287275 0.0 0.0 0.0 2.8650681545287275" Properties=species:S:1:pos:R:3:forces:R:3 config_id=cfg076_AlNi_iso_compression phase=AlNi config_type=iso_compression source=QE_7.6_PBE provenance=/workspace/ni_al/data/expansion_026_100/production_gpu/chunk_04/cfg076_AlNi_iso_compression/attempt_001/qe.out qe_output_sha256=306852114e035f1914aae65fef365f5530fef0ba2ceca3a56d21c34420854820 canonical_input=/workspace/ni_al/data/expansion_026_100/qe_inputs/cfg076_AlNi_iso_compression.in canonical_input_sha256=7c66b50e95ff7c4d6bdf9250c5dda24bca68d0f34c05913996e9740e9ce5e5b4 dataset_origin=Expansion-75 source_record=Expansion-75:306852114e035f1914aae65fef365f5530fef0ba2ceca3a56d21c34420854820 original_dataset=/workspace/ni_al/data/processed/ni_al_expansion_dft_75.extxyz original_dataset_sha256=ff69c2bfed14bfcf48931949647d8f1b3c9353a89c20378c9113155940792137 energy=-5209.300376184111 stress="-0.03230328224407429 -0.0 -0.0 -0.0 -0.03230328224407429 -0.0 -0.0 -0.0 -0.03230328224407429" pbc="T T T"
Al       1.43253408       1.43253408       1.43253408       0.00000000      -0.00000000       0.00000000
Ni       0.00000000       0.00000000       0.00000000       0.00000000       0.00000000       0.00000000
2
Lattice="2.9229483192666317 0.0 0.0 0.0 2.9229483192666317 0.0 0.0 0.0 2.9229483192666317" Properties=species:S:1:pos:R:3:forces:R:3 config_id=cfg077_AlNi_iso_expansion phase=AlNi config_type=iso_expansion source=QE_7.6_PBE provenance=/workspace/ni_al/data/expansion_026_100/production_gpu/chunk_04/cfg077_AlNi_iso_expansion/attempt_001/qe.out qe_output_sha256=d4686ca28124fac921db70edbe9ece201ab680b1e7862632d629a4775c88280f canonical_input=/workspace/ni_al/data/expansion_026_100/qe_inputs/cfg077_AlNi_iso_expansion.in canonical_input_sha256=f0138599606ba76a54911d00148daba5b1fcc7aff8ecbce1784c12f236481398 dataset_origin=Expansion-75 source_record=Expansion-75:d4686ca28124fac921db70edbe9ece201ab680b1e7862632d629a4775c88280f original_dataset=/workspace/ni_al/data/processed/ni_al_expansion_dft_75.extxyz original_dataset_sha256=ff69c2bfed14bfcf48931949647d8f1b3c9353a89c20378c9113155940792137 energy=-5209.301511710205 stress="0.027845032756263696 -0.0 -0.0 -0.0 0.027845032756263696 -0.0 -0.0 -0.0 0.027845032756263696" pbc="T T T"
Al       1.46147416       1.46147416       1.46147416       0.00000000       0.00000000       0.00000000
Ni       0.00000000       0.00000000       0.00000000       0.00000000       0.00000000       0.00000000
16
Lattice="4.825504516972251 0.0 0.0 0.0 6.623033902572181 0.0 0.07382491105468436 0.0 7.382491105471437" Properties=species:S:1:pos:R:3:forces:R:3 config_id=cfg034_Al3Ni_shear_xz_positive phase=Al3Ni config_type=shear_xz_positive source=QE_7.6_PBE provenance=/workspace/ni_al/data/expansion_026_100/production_gpu/chunk_05/cfg034_Al3Ni_shear_xz_positive/attempt_001/qe.out qe_output_sha256=8acca00d985229653cecb91d351b5a2a0735e87a926677db6c86165d4a0c246a canonical_input=/workspace/ni_al/data/expansion_026_100/qe_inputs/cfg034_Al3Ni_shear_xz_positive.in canonical_input_sha256=7160e6720b35d8c5602659408bc342a65521fa4ec3930a6cce006b9622ff118d dataset_origin=Expansion-75 source_record=Expansion-75:8acca00d985229653cecb91d351b5a2a0735e87a926677db6c86165d4a0c246a original_dataset=/workspace/ni_al/data/processed/ni_al_expansion_dft_75.extxyz original_dataset_sha256=ff69c2bfed14bfcf48931949647d8f1b3c9353a89c20378c9113155940792137 energy=-25138.171077501385 stress="7.84282958091255e-05 -0.0 0.0052364619689927745 -0.0 0.00014771574812527324 -0.0 0.0052364619689927745 -0.0 -5.455162013132951e-05" pbc="T T T"
Al       4.43873949       0.04972103       1.84562326      -0.00006621       0.00002093       0.00637802
Al       1.78979626       1.13466431       3.28334421       0.01087508       0.00039406      -0.00435590
Al       1.76104184       1.13466431       0.40790231      -0.01443909       0.00411867      -0.00119026
Al       4.21070800       2.17685313       4.09914738      -0.01443909      -0.00411867      -0.00119026
Al       0.68862290       4.44617933       3.28334566       0.01443909       0.00411867       0.00119026
Al       3.13828906       5.48836815       6.97459073       0.01443909      -0.00411867       0.00119026
Al       0.65986845       4.44617933       0.40790086      -0.01087508       0.00039406       0.00435590
Al       3.10953463       5.48836815       4.09914835      -0.01087508      -0.00039406       0.00435590
Al       4.23946244       2.17685313       6.97459170       0.01087508      -0.00039406      -0.00435590
Al       2.83643023       3.36123557       1.84562326       0.00006621       0.00002093      -0.00637802
Al       0.46059141       6.57331143       5.53686978       0.00006621      -0.00002093      -0.00637802
Al       2.06290067       3.26179689       5.53686978      -0.00006621      -0.00002093       0.00637802
Ni       2.15649831       5.76440149       1.84562326       0.00084430      -0.00076395      -0.00456620
Ni       0.29316738       2.45288453       1.84562326      -0.00084430      -0.00076395       0.00456620
Ni       2.74283259       0.85863097       5.53686978      -0.00084430       0.00076395       0.00456620
Ni       4.60616351       4.17014793       5.53686978       0.00084430       0.00076395      -0.00456620
16
Lattice="4.825504516972251 0.0 0.0 0.0 6.623033902572181 0.0 0.0 0.0 7.382491105471437" Properties=species:S:1:pos:R:3:forces:R:3 config_id=cfg035_Al3Ni_rattle_small phase=Al3Ni config_type=rattle_small source=QE_7.6_PBE provenance=/workspace/ni_al/data/expansion_026_100/production_gpu/chunk_05/cfg035_Al3Ni_rattle_small/attempt_001/qe.out qe_output_sha256=f1eac5751f71e427f842f4b4af74d51aec208b5fcfb460740301e1d265425cbb canonical_input=/workspace/ni_al/data/expansion_026_100/qe_inputs/cfg035_Al3Ni_rattle_small.in canonical_input_sha256=09dc342b0b2eff431b7bdbe861fffcc5838d8c9b7beff0dfac6d62c7656be9c8 dataset_origin=Expansion-75 source_record=Expansion-75:f1eac5751f71e427f842f4b4af74d51aec208b5fcfb460740301e1d265425cbb original_dataset=/workspace/ni_al/data/processed/ni_al_expansion_dft_75.extxyz original_dataset_sha256=ff69c2bfed14bfcf48931949647d8f1b3c9353a89c20378c9113155940792137 energy=-25138.16147250776 stress="-0.0013294860850821355 7.221529529837423e-05 0.00013497697956077186 7.221529529837423e-05 0.001057556401211487 0.00040780286468693465 0.00013497697956077186 0.00040780286468693465 4.749781361740631e-06" pbc="T T T"
Al       4.40855097       0.03463573       1.83849640       0.09485736       0.12104246       0.02630609
Al       1.75145523       1.12959195       3.28790077       0.03078870      -0.02617667      -0.00310676
Al       1.75433720       1.14154636       0.41703226       0.00353027      -0.02584909      -0.05548414
Al       4.16360100       2.17948439       4.11321511       0.03176565      -0.00503526      -0.07790395
Al       0.64507135       4.46656053       3.28468430       0.12849028      -0.12247667      -0.05797783
Al       3.07883266       5.49218687       6.96948149      -0.04862715       0.01392816       0.02697670
Al       0.66020973       4.44642566       0.40782472       0.02871239      -0.02119194       0.04842470
Al       3.08464678       5.46482028       4.09712442      -0.13511677       0.16646960      -0.00208373
Al       4.16482523       2.18968489       6.97070968      -0.00177478      -0.08863770       0.06222440
Al       2.81274842       3.35726307       1.83055262      -0.00144726       0.03078002       0.09211438
Al       0.42505717       6.57708010       5.53049417      -0.15405680      -0.05232306       0.05322236
Al       2.00361451       3.26466757       5.51982508       0.02278854      -0.03592295       0.06246102
Ni       2.14134953       5.77510774       1.84407190      -0.05836572      -0.14981040       0.00181985
Ni       0.27075057       2.44002853       1.86462255      -0.03091253       0.12663217      -0.13125737
Ni       2.67594271       0.85554376       5.53839834       0.13839617       0.03563303       0.00037887
Ni       4.56305467       4.16963221       5.54550950      -0.04902836       0.03293832      -0.04611459
8
Lattice="3.7623065419586723 0.0 0.0 0.0 4.9813239600063834 -0.5517008690064054 0.0 -0.013830238848135959 5.011764782236874" Properties=species:S:1:pos:R:3:forces:R:3 config_id=cfg053_Al3Ni5_rattle_small phase=Al3Ni5 config_type=rattle_small source=QE_7.6_PBE provenance=/workspace/ni_al/data/expansion_026_100/production_gpu/chunk_05/cfg053_Al3Ni5_rattle_small/attempt_001/qe.out qe_output_sha256=a71b81b90ae1e6f9178b9244e8a20125c0fec0d0e8dbd0181800ee047b5726b6 canonical_input=/workspace/ni_al/data/expansion_026_100/qe_inputs/cfg053_Al3Ni5_rattle_small.in canonical_input_sha256=f18e69a893a62b88c0cbe7d9767ce8b4620ecf05673b38b7997af6cecf957f24 dataset_origin=Expansion-75 source_record=Expansion-75:a71b81b90ae1e6f9178b9244e8a20125c0fec0d0e8dbd0181800ee047b5726b6 original_dataset=/workspace/ni_al/data/processed/ni_al_expansion_dft_75.extxyz original_dataset_sha256=ff69c2bfed14bfcf48931949647d8f1b3c9353a89c20378c9113155940792137 energy=-24969.620927373522 stress="-0.0006539904208734413 0.0004476542123336278 0.00044490752556507337 0.0004476542123336278 -0.0008566312711253417 -0.00018863016092458043 0.00044490752556507337 -0.00018863016092458043 -0.00034052201032154945" pbc="T T T"
Al       3.76211220       2.48024855       2.24181458       0.00728792       0.02304388      -0.05314472
Al       1.87993846       1.07582144       3.78888161       0.01588907       0.18249599      -0.01206548
Al       1.87958537       3.87398559       0.66746969       0.01405978       0.05389681       0.02736367
Ni       0.00268474      -0.01347632       4.99691800      -0.02626700      -0.00685629       0.19361012
Ni       3.75458562       2.49550536      -0.26889312       0.04793863      -0.04091280      -0.03251494
Ni       0.00627493      -0.00376478       2.51464506      -0.04403995      -0.03868912      -0.19119524
Ni       1.87659817       1.37156759       1.23605364       0.03633330      -0.00690858      -0.00065172
Ni       1.88744667       3.60876500       3.21506142      -0.05120175      -0.16606989       0.06859831
8
Lattice="3.7623065419586723 0.0 0.0 0.0 4.9813239600063834 -0.5517008690064054 0.0 -0.013830238848135959 5.011764782236874" Properties=species:S:1:pos:R:3:forces:R:3 config_id=cfg054_Al3Ni5_rattle_large phase=Al3Ni5 config_type=rattle_large source=QE_7.6_PBE provenance=/workspace/ni_al/data/expansion_026_100/production_gpu/chunk_05/cfg054_Al3Ni5_rattle_large/attempt_001/qe.out qe_output_sha256=e93e0f498702a25850b55d3a44f16c3a5ab62249b813407607f39969f80fcab0 canonical_input=/workspace/ni_al/data/expansion_026_100/qe_inputs/cfg054_Al3Ni5_rattle_large.in canonical_input_sha256=06d69261125dba6d190f3c1a519be30e3e0c7d9ee3dfca3d21953470b896d065 dataset_origin=Expansion-75 source_record=Expansion-75:e93e0f498702a25850b55d3a44f16c3a5ab62249b813407607f39969f80fcab0 original_dataset=/workspace/ni_al/data/processed/ni_al_expansion_dft_75.extxyz original_dataset_sha256=ff69c2bfed14bfcf48931949647d8f1b3c9353a89c20378c9113155940792137 energy=-24969.468029927444 stress="-0.0035731526552942954 -0.0032330402361969083 -0.0036086831017431136 -0.0032330402361969083 -0.012219111648149414 -0.00031345139931512157 -0.0036086831017431136 -0.00031345139931512157 -0.0031491333273663464" pbc="T T T"
Al       3.75691782       2.49750920       2.17401634      -0.00043218      -0.14551569       0.28803537
Al       1.91759735       1.07150011       3.79853720      -0.42467496       0.14627619      -0.38230141
Al       1.92670795       3.94079955       0.68642262      -0.44164592      -0.62503420      -0.00759935
Ni       3.74280286       0.05943371       0.01034545       0.36132188      -0.94988117       0.18564319
Ni       0.00057914       2.39633596       4.69351234       0.08356780       1.04838574       0.08974743
Ni       3.74942262       4.95114988       1.97876611       0.21487310       0.29068880      -0.04178691
Ni       1.89649925       1.34775780       1.21876802      -0.19740607       0.45060201       0.19509843
Ni       1.82100571       3.60549018       3.27988193       0.40439634      -0.21552169      -0.32683675
5
Lattice="4.044922625911538 0.0 0.0 -2.0574913541263182 3.503004117104864 0.0 0.0 0.0 4.907862374000466" Properties=species:S:1:pos:R:3:forces:R:3 config_id=cfg067_Al3Ni2_shear_xy_negative phase=Al3Ni2 config_type=shear_xy_negative source=QE_7.6_PBE provenance=/workspace/ni_al/data/expansion_026_100/production_gpu/chunk_05/cfg067_Al3Ni2_shear_xy_negative/attempt_001/qe.out qe_output_sha256=43cb01e46147ed3d074fb7dba9ecb795e19903d7a51b67f85ae4d4b0bd76332d canonical_input=/workspace/ni_al/data/expansion_026_100/qe_inputs/cfg067_Al3Ni2_shear_xy_negative.in canonical_input_sha256=f980bd7888fcfd7c675ae2f89fe1c6afffa621909b2a709d1c8b70e2984ddce8 dataset_origin=Expansion-75 source_record=Expansion-75:43cb01e46147ed3d074fb7dba9ecb795e19903d7a51b67f85ae4d4b0bd76332d original_dataset=/workspace/ni_al/data/processed/ni_al_expansion_dft_75.extxyz original_dataset_sha256=ff69c2bfed14bfcf48931949647d8f1b3c9353a89c20378c9113155940792137 energy=-10956.51162873996 stress="-0.00014544359194458456 -0.0053356508611040925 0.0002591305627366287 -0.0053356508611040925 -2.8894926503471923e-05 1.7445009686681873e-05 0.0002591305627366287 1.7445009686681873e-05 -0.00012687616706580167" pbc="T T T"
Al       0.00000000       0.00000000       0.00000000       0.00000000       0.00000000       0.00000000
Al      -0.02335621       2.33533770       3.17789306       0.03669534       0.00067008      -0.00255539
Al       2.01078626       1.16766683       1.72996891      -0.03669534      -0.00067008       0.00255539
Ni      -0.02335621       2.33533770       0.71968598      -0.00731514      -0.00019997      -0.00183248
Ni       2.01078626       1.16766683       4.18817639       0.00731514       0.00019997       0.00183248
5
Lattice="4.044922625911538 0.0 0.0 -2.022461312955769 3.503004117104864 0.0 0.0 0.0 4.907862374000466" Properties=species:S:1:pos:R:3:forces:R:3 config_id=cfg068_Al3Ni2_rattle_small phase=Al3Ni2 config_type=rattle_small source=QE_7.6_PBE provenance=/workspace/ni_al/data/expansion_026_100/production_gpu/chunk_05/cfg068_Al3Ni2_rattle_small/attempt_001/qe.out qe_output_sha256=86a86557e99f16d4a296703412a444edd32fdf16335100eff7023e7c62f33ef4 canonical_input=/workspace/ni_al/data/expansion_026_100/qe_inputs/cfg068_Al3Ni2_rattle_small.in canonical_input_sha256=220bec71a9d3acf264a15f7eedae7cf5e30d69bd142087abd15bfdccdb72f49b dataset_origin=Expansion-75 source_record=Expansion-75:86a86557e99f16d4a296703412a444edd32fdf16335100eff7023e7c62f33ef4 original_dataset=/workspace/ni_al/data/processed/ni_al_expansion_dft_75.extxyz original_dataset_sha256=ff69c2bfed14bfcf48931949647d8f1b3c9353a89c20378c9113155940792137 energy=-10956.505730358405 stress="-0.0017660712112203285 0.00048677303612871793 -0.0006025347103021194 0.00048677303612871793 0.0006633855367433502 0.0007018292149954492 -0.0006025347103021194 0.0007018292149954492 -0.00014922827478905458" pbc="T T T"
Al       0.00617963       0.01245171       0.00365095      -0.03340852      -0.20755644      -0.02094616
Al      -0.00763005       2.33122889       3.16916611       0.05916693       0.01868614       0.10823031
Al       2.01187645       1.18193143       1.72367147       0.05074767      -0.08060906       0.10627349
Ni      -0.00439783       2.33587862       0.72199542       0.04984805       0.04960754      -0.05939275
Ni       2.03889200       1.14451841       4.19724038      -0.12635413       0.21987183      -0.13416489
2
Lattice="2.8071879897908256 0.0 0.0 0.0 2.8071879897908256 0.0 0.0 0.0 2.8071879897908256" Properties=species:S:1:pos:R:3:forces:R:3 config_id=cfg078_AlNi_iso_compression phase=AlNi config_type=iso_compression source=QE_7.6_PBE provenance=/workspace/ni_al/data/expansion_026_100/production_gpu/chunk_05/cfg078_AlNi_iso_compression/attempt_001/qe.out qe_output_sha256=f8ded2d8f1f09ef7346c9f6190e1ad5ee1e56d7ed907d236a8278b6b87c6092d canonical_input=/workspace/ni_al/data/expansion_026_100/qe_inputs/cfg078_AlNi_iso_compression.in canonical_input_sha256=3abb7d30beb78feee89aa9c348d3a79a9e7124b69a7d4f9c4f544dfda3841bfa dataset_origin=Expansion-75 source_record=Expansion-75:f8ded2d8f1f09ef7346c9f6190e1ad5ee1e56d7ed907d236a8278b6b87c6092d original_dataset=/workspace/ni_al/data/processed/ni_al_expansion_dft_75.extxyz original_dataset_sha256=ff69c2bfed14bfcf48931949647d8f1b3c9353a89c20378c9113155940792137 energy=-5209.202794555083 stress="-0.11140945079943865 -0.0 -0.0 -0.0 -0.11140945079943865 -0.0 -0.0 -0.0 -0.11140945079943865" pbc="T T T"
Al       1.40359400       1.40359400       1.40359400       0.00000000       0.00000000       0.00000000
Ni       0.00000000       0.00000000       0.00000000       0.00000000       0.00000000       0.00000000
2
Lattice="2.9808284840045354 0.0 0.0 0.0 2.9808284840045354 0.0 0.0 0.0 2.9808284840045354" Properties=species:S:1:pos:R:3:forces:R:3 config_id=cfg079_AlNi_iso_expansion phase=AlNi config_type=iso_expansion source=QE_7.6_PBE provenance=/workspace/ni_al/data/expansion_026_100/production_gpu/chunk_05/cfg079_AlNi_iso_expansion/attempt_001/qe.out qe_output_sha256=43274457c1f4819220d416c8bbc97c4e3d3896ffcb04343ac16b4345dc9a2e4e canonical_input=/workspace/ni_al/data/expansion_026_100/qe_inputs/cfg079_AlNi_iso_expansion.in canonical_input_sha256=4ae1785706b452b57a470cb7fd9697c0232bcf4fd33d229d8f09031716a89581 dataset_origin=Expansion-75 source_record=Expansion-75:43274457c1f4819220d416c8bbc97c4e3d3896ffcb04343ac16b4345dc9a2e4e original_dataset=/workspace/ni_al/data/processed/ni_al_expansion_dft_75.extxyz original_dataset_sha256=ff69c2bfed14bfcf48931949647d8f1b3c9353a89c20378c9113155940792137 energy=-5209.223906903084 stress="0.07260417466524952 -0.0 -0.0 -0.0 0.07260417466524952 -0.0 -0.0 -0.0 0.07260417466524952" pbc="T T T"
Al       1.49041424       1.49041424       1.49041424       0.00000000      -0.00000000       0.00000000
Ni       0.00000000       0.00000000       0.00000000       0.00000000      -0.00000000       0.00000000
16
Lattice="4.825504516972251 0.0 0.0 0.0 6.623033902572181 0.0 0.0 0.0 7.382491105471437" Properties=species:S:1:pos:R:3:forces:R:3 config_id=cfg036_Al3Ni_rattle_large phase=Al3Ni config_type=rattle_large source=QE_7.6_PBE provenance=/workspace/ni_al/data/expansion_026_100/production_gpu/chunk_06/cfg036_Al3Ni_rattle_large/attempt_001/qe.out qe_output_sha256=d71dc38b11125530c92fd201be19e61a98db8909a4e6177d05f9b96c6e1a82b5 canonical_input=/workspace/ni_al/data/expansion_026_100/qe_inputs/cfg036_Al3Ni_rattle_large.in canonical_input_sha256=4cbd3dc21906604aebc0f0cea5ab6cfcf9d64c682b73a7de191df40ac4adc1dd dataset_origin=Expansion-75 source_record=Expansion-75:d71dc38b11125530c92fd201be19e61a98db8909a4e6177d05f9b96c6e1a82b5 original_dataset=/workspace/ni_al/data/processed/ni_al_expansion_dft_75.extxyz original_dataset_sha256=ff69c2bfed14bfcf48931949647d8f1b3c9353a89c20378c9113155940792137 energy=-25137.940048523098 stress="-0.0019647960657740472 0.002866775687389219 0.0003933484959605409 0.002866775687389219 -0.0033290794633330546 0.000800194848901844 0.0003933484959605409 0.000800194848901844 -0.0025941013295871823" pbc="T T T"
Al       4.39719298       0.01151977       1.95897627       0.14084981       0.36151087      -0.48427711
Al       1.75731821       1.08289435       3.26321129       0.01743301       0.49587800       0.10755028
Al       1.72393469       1.20786947       0.42987767       0.52102589      -0.64886041      -0.31847154
Al       4.16014494       2.21429174       4.05985553       0.02555162      -0.25540742       0.06477737
Al       0.63841601       4.48168166       3.26155761       0.20358047      -0.29981719       0.23930234
Al       3.01260591       5.51469848       6.97421327       0.31527607      -0.10996984       0.09327936
Al       0.62150277       4.43302047       0.38457846       0.15979083       0.22097785       0.11770574
Al       3.10953108       5.51406480       4.15546877      -0.29918262      -0.33414240      -0.20601868
Al       4.19201463       2.12304584       6.97418657      -0.31546196       0.08567036      -0.17273829
Al       2.85603968       3.37191264       1.84931074      -0.19126475       0.06578368      -0.06596232
Al       0.44731729       6.61762567       5.47474540      -0.44622331      -0.41044224       0.29484436
Al       2.01607066       3.22364153       5.51964133      -0.05264998       0.14918593       0.03818343
Ni       2.13431648       5.77207806       1.90292518      -0.02055020      -0.21375173      -0.62272818
Ni       0.32321790       2.46524293       1.79937864      -0.45208320       0.02619680       0.63341434
Ni       2.66355785       0.82745214       5.52409928       0.38918922       0.48338870       0.18958101
Ni       4.55086665       4.12322010       5.52791731       0.00471910       0.38379903       0.09155788
16
Lattice="4.704866904048569 0.0 0.0 0.0 6.457458055007304 0.0 0.0 0.0 7.197928827834721" Properties=species:S:1:pos:R:3:forces:R:3 config_id=cfg037_Al3Ni_volume_rattle_compression phase=Al3Ni config_type=volume_rattle_compression source=QE_7.6_PBE provenance=/workspace/ni_al/data/expansion_026_100/production_gpu/chunk_06/cfg037_Al3Ni_volume_rattle_compression/attempt_001/qe.out qe_output_sha256=8cc2b5a84919bf167a96cb4934eaf8af8ce5bf8c0b18cb411f6639452d6603b8 canonical_input=/workspace/ni_al/data/expansion_026_100/qe_inputs/cfg037_Al3Ni_volume_rattle_compression.in canonical_input_sha256=ee886545d2e4fd7745350117150032ab9cf771c55d4a798a6997a0d726213d8e dataset_origin=Expansion-75 source_record=Expansion-75:8cc2b5a84919bf167a96cb4934eaf8af8ce5bf8c0b18cb411f6639452d6603b8 original_dataset=/workspace/ni_al/data/processed/ni_al_expansion_dft_75.extxyz original_dataset_sha256=ff69c2bfed14bfcf48931949647d8f1b3c9353a89c20378c9113155940792137 energy=-25137.558487554972 stress="-0.06301434302104762 0.0009762055724373125 -0.0004666103699817858 0.0009762055724373125 -0.06482555525597665 -0.00027691604925181795 -0.0004666103699817858 -0.00027691604925181795 -0.06797683122723272" pbc="T T T"
Al       4.33575647       0.02188835       1.78791589      -0.22546150       0.00704808       0.09229074
Al       1.72847081       1.10050675       3.21878985      -0.17430067       0.12335044      -0.15623260
Al       1.70256577       1.14156887       0.41271567       0.32711860      -0.27770829      -0.19466212
Al       4.08569119       2.11275109       3.97277790      -0.13152728      -0.03801517       0.26708223
Al       0.64500270       4.31245510       3.21416161      -0.09092729       0.18886524      -0.10483882
Al       3.00669214       5.33878718       6.81425650      -0.34374753       0.19954317       0.21333955
Al       0.64143418       4.32925650       0.37465526       0.10082471       0.01935213       0.19580498
Al       3.00355002       5.37163777       4.02299606      -0.20829869      -0.09106653      -0.44003145
Al       4.09041848       2.10725161       6.79581565      -0.30293793       0.10313153      -0.22131290
Al       2.71655083       3.26922503       1.81303707       0.13038003       0.14470543      -0.03495936
Al       0.36614126       6.40335657       5.39862379       0.44832743       0.21493164       0.05151712
Al       1.98099423       3.21418662       5.35561228      -0.09647058      -0.25492121       0.19777808
Ni       2.06096970       5.61873185       1.79888035       0.21791646       0.04936179       0.10086269
Ni       0.21946812       2.38484201       1.76125409       0.33576152       0.07684740       0.55005240
Ni       2.63591891       0.83260014       5.42362540      -0.25413255       0.19120660      -0.14695877
Ni       4.41932174       4.10060769       5.41832739       0.26747527      -0.65663226      -0.36973175
8
Lattice="3.6682488784099556 0.0 0.0 0.0 4.856790861006198 -0.5379083472812455 0.0 -0.013484482877357562 4.886470662681177" Properties=species:S:1:pos:R:3:forces:R:3 config_id=cfg055_Al3Ni5_volume_rattle_compression phase=Al3Ni5 config_type=volume_rattle_compression source=QE_7.6_PBE provenance=/workspace/ni_al/data/expansion_026_100/production_gpu/chunk_06/cfg055_Al3Ni5_volume_rattle_compression/attempt_001/qe.out qe_output_sha256=e82afbbf5014d4991165ace425633078a7dda816cb386774e4f27ec4998d94c4 canonical_input=/workspace/ni_al/data/expansion_026_100/qe_inputs/cfg055_Al3Ni5_volume_rattle_compression.in canonical_input_sha256=aef33ade05757a2a1ec121e554c903bb90678f39329705b03b494143ae5ecd4b dataset_origin=Expansion-75 source_record=Expansion-75:e82afbbf5014d4991165ace425633078a7dda816cb386774e4f27ec4998d94c4 original_dataset=/workspace/ni_al/data/processed/ni_al_expansion_dft_75.extxyz original_dataset_sha256=ff69c2bfed14bfcf48931949647d8f1b3c9353a89c20378c9113155940792137 energy=-24969.264215197218 stress="-0.0988975154665146 0.0034121794558092926 0.0031773108252064527 0.0034121794558092926 -0.09559935091690774 -0.0010750390870967325 0.0031773108252064527 -0.0010750390870967325 -0.09789248089116391" pbc="T T T"
Al       0.01629845       2.40163996       2.16181980      -0.43353841       0.20467373       0.27687047
Al       1.85368721       1.06908573       3.68194635      -0.22731024       0.06193259       0.05616452
Al       1.85346800       3.78431634       0.61839279      -0.21626258      -0.06076256       0.56527152
Ni       0.01698038       0.00322420       0.01484832      -0.12356751       0.16296276      -0.14918541
Ni       0.00123854       2.44406693      -0.24362278       0.04807799      -0.18050569      -0.35888924
Ni       3.63074899       4.83478705       1.92427558       0.40500783       0.01321662      -0.17067621
Ni       1.78985525       1.33628819       1.19994974       0.59377974      -0.05828347       0.01051053
Ni       1.84246980       3.51330307       3.15016329      -0.04618681      -0.14323400      -0.23006618
4
Lattice="3.674278643670091 0.0 0.0 0.0 3.6744072434230084 0.0 0.0 0.0 3.6744072434230084" Properties=species:S:1:pos:R:3:forces:R:3 config_id=cfg092_AlNi3_iso_expansion phase=AlNi3 config_type=iso_expansion source=QE_7.6_PBE provenance=/workspace/ni_al/data/expansion_026_100/production_gpu/chunk_06/cfg092_AlNi3_iso_expansion/attempt_001/qe.out qe_output_sha256=891c375850c424f78e4d45d5940a2446290cf1eb9a2aebf35c9542c8d20fe173 canonical_input=/workspace/ni_al/data/expansion_026_100/qe_inputs/cfg092_AlNi3_iso_expansion.in canonical_input_sha256=6f4f567c540e32b272a285f0a89894ad0a2cb3b15563405ce52de5d7ab9c3bff dataset_origin=Expansion-75 source_record=Expansion-75:891c375850c424f78e4d45d5940a2446290cf1eb9a2aebf35c9542c8d20fe173 original_dataset=/workspace/ni_al/data/processed/ni_al_expansion_dft_75.extxyz original_dataset_sha256=ff69c2bfed14bfcf48931949647d8f1b3c9353a89c20378c9113155940792137 energy=-14550.662591798167 stress="0.08212882230102622 -0.0 -0.0 -0.0 0.08214632541231354 -0.0 -0.0 -0.0 0.08214632541231355" pbc="T T T"
Al       0.00000000       0.00000000       0.00000000       0.00000000       0.00000000       0.00000000
Ni       0.00000000       1.83720325       1.83720288       0.00000000       0.00000000       0.00000000
Ni       1.83713932       0.00000000       1.83720288       0.00000000       0.00000000       0.00000000
Ni       1.83713932       1.83720325       0.00000000       0.00000000       0.00000000       0.00000000
4
Lattice="3.5672608190976813 0.0 0.0 0.0 3.5138748881278965 0.0 0.0 0.0 3.567385673225601" Properties=species:S:1:pos:R:3:forces:R:3 config_id=cfg093_AlNi3_uniaxial_y_compression phase=AlNi3 config_type=uniaxial_y_compression source=QE_7.6_PBE provenance=/workspace/ni_al/data/expansion_026_100/production_gpu/chunk_06/cfg093_AlNi3_uniaxial_y_compression/attempt_001/qe.out qe_output_sha256=35a9690036c733b7d3f14afe0f610991a4d7ae582f6348931ae593822a30d2dc canonical_input=/workspace/ni_al/data/expansion_026_100/qe_inputs/cfg093_AlNi3_uniaxial_y_compression.in canonical_input_sha256=13b738ff4f8320507008eb90cb6ceca75b4160de183207c98abc2ada28a7eadd dataset_origin=Expansion-75 source_record=Expansion-75:35a9690036c733b7d3f14afe0f610991a4d7ae582f6348931ae593822a30d2dc original_dataset=/workspace/ni_al/data/processed/ni_al_expansion_dft_75.extxyz original_dataset_sha256=ff69c2bfed14bfcf48931949647d8f1b3c9353a89c20378c9113155940792137 energy=-14550.840666412181 stress="-0.01498172544761712 -0.0 -0.0 -0.0 -0.024024160676505025 -0.0 -0.0 -0.0 -0.014957809467225523" pbc="T T T"
Al       0.00000000       0.00000000       0.00000000       0.00000000       0.00000000       0.00000000
Ni       0.00000000       1.75693709       1.78369212       0.00000000       0.00000000       0.00000000
Ni       1.78363041       0.00000000       1.78369212       0.00000000       0.00000000       0.00000000
Ni       1.78363041       1.75693709       0.00000000       0.00000000       0.00000000       0.00000000
5
Lattice="4.044922625911538 0.0 0.0 -2.022461312955769 3.503004117104864 0.0 0.0 0.0 4.907862374000466" Properties=species:S:1:pos:R:3:forces:R:3 config_id=cfg069_Al3Ni2_rattle_large phase=Al3Ni2 config_type=rattle_large source=QE_7.6_PBE provenance=/workspace/ni_al/data/expansion_026_100/production_gpu/chunk_06/cfg069_Al3Ni2_rattle_large/attempt_001/qe.out qe_output_sha256=b866cc17bbdb99e7df16fc84b5260e1fe1f317ac81371c060e2fc7d3e5e77e17 canonical_input=/workspace/ni_al/data/expansion_026_100/qe_inputs/cfg069_Al3Ni2_rattle_large.in canonical_input_sha256=c303c18571c0476e4c2579001da5a3b3015a701219d8e5bdcb70d712d2acd832 dataset_origin=Expansion-75 source_record=Expansion-75:b866cc17bbdb99e7df16fc84b5260e1fe1f317ac81371c060e2fc7d3e5e77e17 original_dataset=/workspace/ni_al/data/processed/ni_al_expansion_dft_75.extxyz original_dataset_sha256=ff69c2bfed14bfcf48931949647d8f1b3c9353a89c20378c9113155940792137 energy=-10956.440261840184 stress="-0.006815121124718309 0.0008256284630125974 0.0012427648734216167 0.0008256284630125974 0.002069359119725857 0.0017973751647341904 0.0012427648734216167 0.0017973751647341904 -0.005856711772885893" pbc="T T T"
Al       1.99557329       3.48605568       0.00141076       0.30600172       0.29965787      -0.05263465
Al       0.02685620       2.28765598       3.17083076      -0.28619025       0.33578456       0.21931567
Al       2.02934447       1.20931682       1.68120783       0.08091946      -0.32693203       0.63500600
Ni       0.03725108       2.34422155       0.76553568      -0.44741907      -0.03146270      -0.54571184
Ni       1.97835646       1.18176314       4.19673930       0.34668814      -0.27704770      -0.25597517
5
Lattice="3.9437995602633498 0.0 0.0 -1.971899780132175 3.415429014176993 0.0 0.0 0.0 4.785165814651104" Properties=species:S:1:pos:R:3:forces:R:3 config_id=cfg070_Al3Ni2_volume_rattle_compression phase=Al3Ni2 config_type=volume_rattle_compression source=QE_7.6_PBE provenance=/workspace/ni_al/data/expansion_026_100/production_gpu/chunk_06/cfg070_Al3Ni2_volume_rattle_compression/attempt_001/qe.out qe_output_sha256=a0385663d84d301a5c0f8db70c4ccc939602075150009e8d7c59a2c560b0f3a3 canonical_input=/workspace/ni_al/data/expansion_026_100/qe_inputs/cfg070_Al3Ni2_volume_rattle_compression.in canonical_input_sha256=a8a9b1337b97fdcb811563ec501951c28d56b59b7c6a1cf295a09164e97806fc dataset_origin=Expansion-75 source_record=Expansion-75:a0385663d84d301a5c0f8db70c4ccc939602075150009e8d7c59a2c560b0f3a3 original_dataset=/workspace/ni_al/data/processed/ni_al_expansion_dft_75.extxyz original_dataset_sha256=ff69c2bfed14bfcf48931949647d8f1b3c9353a89c20378c9113155940792137 energy=-10956.318601925355 stress="-0.07414598386909216 0.0007057085970272277 -0.00033829023036039134 0.0007057085970272277 -0.07258840579276145 -0.0010001057480424403 -0.00033829023036039134 -0.0010001057480424403 -0.0783789216826426" pbc="T T T"
Al      -0.00623558       0.03286207       0.00656849       0.15119070      -0.49947800      -0.04008018
Al      -0.00086190       2.24867855       3.09673639       0.01035651       0.28327015      -0.11474043
Al       1.96272887       1.12692489       1.68662872       0.07971795       0.02943981       0.09894171
Ni       0.00613909       2.26422403       0.70136784      -0.10072541       0.31580770       0.08109247
Ni       1.98202671       1.15816928       4.07902978      -0.14053975      -0.12903966      -0.02521357
16
Lattice="4.825504516972251 0.0 0.0 0.0 6.623033902572181 0.0 0.0 0.14764982210936867 7.382491105471437" Properties=species:S:1:pos:R:3:forces:R:3 config_id=cfg038_Al3Ni_shear_rattle_yz phase=Al3Ni config_type=shear_rattle_yz source=QE_7.6_PBE provenance=/workspace/ni_al/data/expansion_026_100/production_gpu/chunk_07/cfg038_Al3Ni_shear_rattle_yz/attempt_001/qe.out qe_output_sha256=7732d6f9245150ab17a8c08d0b7297c508fc5c517b3f952b68ae60b0f461b233 canonical_input=/workspace/ni_al/data/expansion_026_100/qe_inputs/cfg038_Al3Ni_shear_rattle_yz.in canonical_input_sha256=3404bb20195a23f9c96c74a776675bc08a9a9dd82e0a02b7ab46ae06360b820a dataset_origin=Expansion-75 source_record=Expansion-75:7732d6f9245150ab17a8c08d0b7297c508fc5c517b3f952b68ae60b0f461b233 original_dataset=/workspace/ni_al/data/processed/ni_al_expansion_dft_75.extxyz original_dataset_sha256=ff69c2bfed14bfcf48931949647d8f1b3c9353a89c20378c9113155940792137 energy=-25138.069153137694 stress="-0.0003945832469845127 -8.858546571100063e-05 -0.0008106803008036845 -8.858546571100063e-05 0.0005031523453412714 0.009167365650055173 -0.0008106803008036845 0.009167365650055173 -0.0026656318794556185" pbc="T T T"
Al       4.42938015       0.07168974       1.88060571       0.03146050       0.12021725      -0.15385482
Al       1.78006591       1.25162502       3.32167427      -0.03620772      -0.19288596      -0.32973740
Al       1.73793558       1.14680393       0.37972687       0.18758382      -0.16520929       0.06687990
Al       4.19206349       2.29830810       4.09837538      -0.12012016      -0.20464667      -0.05699852
Al       0.65879865       4.54681371       3.28274511      -0.08873904      -0.25783617      -0.03274561
Al       3.07574853       5.59941891       7.00237749      -0.07857750       0.16349629      -0.13103718
Al       0.63789994       4.44061921       0.35830339       0.28480462       0.22565003       0.36659431
Al       3.03955650       5.57031014       4.10138061       0.10467236      -0.02662895       0.03809716
Al       4.17677745       2.33195718       7.00737958      -0.25495020      -0.35923699      -0.26122608
Al       2.82104599       3.40435801       1.83376241      -0.00314970      -0.04915567      -0.03807020
Al       0.38083315       6.66017866       5.50467148       0.12664419       0.13625169       0.13306891
Al       1.99733608       3.37485101       5.57169141       0.05575505      -0.08896898      -0.08449315
Ni       2.14803937       5.79704933       1.84269914      -0.17914908       0.11099843      -0.00645050
Ni       0.29807635       2.47894859       1.81655789      -0.07409188       0.13368492       0.38862591
Ni       2.71841151       0.95782437       5.53058629      -0.11446034       0.03543171       0.15869937
Ni       4.51207907       4.23470259       5.52740628       0.15852510       0.41883835      -0.05735210
4
Lattice="3.5672608190976813 0.0 0.0 -0.03567385673213601 3.567385673225601 0.0 0.0 0.0 3.567385673225601" Properties=species:S:1:pos:R:3:forces:R:3 config_id=cfg094_AlNi3_shear_xy_negative phase=AlNi3 config_type=shear_xy_negative source=QE_7.6_PBE provenance=/workspace/ni_al/data/expansion_026_100/production_gpu/chunk_07/cfg094_AlNi3_shear_xy_negative/attempt_001/qe.out qe_output_sha256=a118a5399e5f1499bc8a57aaf398c5b9cdf48930930bda7da0741a59135bc1e5 canonical_input=/workspace/ni_al/data/expansion_026_100/qe_inputs/cfg094_AlNi3_shear_xy_negative.in canonical_input_sha256=8681d8aeb6c32f11c9dbe82ff5f4982216fe0651bdd5e997c537616ab83bc89b dataset_origin=Expansion-75 source_record=Expansion-75:a118a5399e5f1499bc8a57aaf398c5b9cdf48930930bda7da0741a59135bc1e5 original_dataset=/workspace/ni_al/data/processed/ni_al_expansion_dft_75.extxyz original_dataset_sha256=ff69c2bfed14bfcf48931949647d8f1b3c9353a89c20378c9113155940792137 energy=-14550.847121565163 stress="-0.00021097787257463011 -0.008260868868780556 -0.0 -0.008260868868780556 -0.0003251280501759854 -0.0 -0.0 -0.0 -5.633667284530214e-05" pbc="T T T"
Al       0.00000000       0.00000000       0.00000000       0.00000000       0.00000000       0.00000000
Ni      -0.01783692       1.78369248       1.78369212       0.00000000       0.00000000       0.00000000
Ni       1.78363041       0.00000000       1.78369212       0.00000000       0.00000000       0.00000000
Ni       1.76579348       1.78369248       0.00000000       0.00000000       0.00000000       0.00000000
4
Lattice="3.5672608190976813 0.0 0.0 0.0 3.567385673225601 0.0 0.0 0.0 3.567385673225601" Properties=species:S:1:pos:R:3:forces:R:3 config_id=cfg095_AlNi3_rattle_small phase=AlNi3 config_type=rattle_small source=QE_7.6_PBE provenance=/workspace/ni_al/data/expansion_026_100/production_gpu/chunk_07/cfg095_AlNi3_rattle_small/attempt_001/qe.out qe_output_sha256=eb767dee8d74be1d787d2648f6cdea785a0a71702217db1bc2b9e4fee1d3d0cf canonical_input=/workspace/ni_al/data/expansion_026_100/qe_inputs/cfg095_AlNi3_rattle_small.in canonical_input_sha256=eac4cf201441ee4df749383fd9d68744790652423c207e7123019053bc3011b2 dataset_origin=Expansion-75 source_record=Expansion-75:eb767dee8d74be1d787d2648f6cdea785a0a71702217db1bc2b9e4fee1d3d0cf original_dataset=/workspace/ni_al/data/processed/ni_al_expansion_dft_75.extxyz original_dataset_sha256=ff69c2bfed14bfcf48931949647d8f1b3c9353a89c20378c9113155940792137 energy=-14550.842812565339 stress="-0.0006485987069730583 8.424818445038038e-05 -4.95481079699481e-05 8.424818445038038e-05 -0.0004435104530834642 -0.0001856986054148484 -4.95481079699481e-05 -0.0001856986054148484 -0.0007716136595890163" pbc="T T T"
Al       0.00943116       0.00427714       0.01894694      -0.08610941      -0.07416189      -0.12954768
Ni       3.56181801       1.77798347       1.78650353       0.02553316       0.09033140      -0.04138277
Ni       1.76796879       0.00569177       1.78288397       0.14998398      -0.09376384      -0.00919479
Ni       1.79530367       1.77943257       3.54643547      -0.08940774       0.07759433       0.18012524
4
Lattice="3.5672608190976813 0.0 0.0 0.0 3.567385673225601 0.0 0.0 0.0 3.567385673225601" Properties=species:S:1:pos:R:3:forces:R:3 config_id=cfg096_AlNi3_rattle_large phase=AlNi3 config_type=rattle_large source=QE_7.6_PBE provenance=/workspace/ni_al/data/expansion_026_100/production_gpu/chunk_08/cfg096_AlNi3_rattle_large/attempt_001/qe.out qe_output_sha256=85f52160851f7cd707867929a28b79a260e2a4795e61208bd4dd87393ccfcb10 canonical_input=/workspace/ni_al/data/expansion_026_100/qe_inputs/cfg096_AlNi3_rattle_large.in canonical_input_sha256=0e87ebf4ad8a5bbd24f731236b7b14b0288dd5319045e4b19bfe53389f76dd74 dataset_origin=Expansion-75 source_record=Expansion-75:85f52160851f7cd707867929a28b79a260e2a4795e61208bd4dd87393ccfcb10 original_dataset=/workspace/ni_al/data/processed/ni_al_expansion_dft_75.extxyz original_dataset_sha256=ff69c2bfed14bfcf48931949647d8f1b3c9353a89c20378c9113155940792137 energy=-14550.808372471454 stress="-0.004048469123697322 -0.0013479319160305111 0.0008065491728203321 -0.0013479319160305111 -0.0028775466299864093 0.00011200884780280908 0.0008065491728203321 0.00011200884780280908 -0.002295992070613358" pbc="T T T"
Al       0.01496293       0.03951283       3.53982509      -0.23184289      -0.43825524       0.27585889
Ni       0.01247660       1.80637700       1.79358134      -0.23290672      -0.07167362      -0.14808103
Ni       1.75392751       3.56223200       1.79112187       0.37222263      -0.12044670      -0.12793543
Ni       1.78589378       1.72664880       0.01024161       0.09252697       0.63037556       0.00015756
2
Lattice="2.937418360450358 0.0 0.0 0.0 2.89400823689718 0.0 0.0 0.0 2.89400823689718" Properties=species:S:1:pos:R:3:forces:R:3 config_id=cfg080_AlNi_uniaxial_x_expansion phase=AlNi config_type=uniaxial_x_expansion source=QE_7.6_PBE provenance=/workspace/ni_al/data/expansion_026_100/production_gpu/chunk_08/cfg080_AlNi_uniaxial_x_expansion/attempt_001/qe.out qe_output_sha256=fb794e8beced9ea27e39f186303f6c880e9afbbc4c34e11ff82c3b374321a6c0 canonical_input=/workspace/ni_al/data/expansion_026_100/qe_inputs/cfg080_AlNi_uniaxial_x_expansion.in canonical_input_sha256=c4d32edd7a731afd9fa0415795c14cf4c629825c8a4e793099025939aaa6aaf9 dataset_origin=Expansion-75 source_record=Expansion-75:fb794e8beced9ea27e39f186303f6c880e9afbbc4c34e11ff82c3b374321a6c0 original_dataset=/workspace/ni_al/data/processed/ni_al_expansion_dft_75.extxyz original_dataset_sha256=ff69c2bfed14bfcf48931949647d8f1b3c9353a89c20378c9113155940792137 energy=-5209.308366975704 stress="0.018971615733388333 -0.0 -0.0 -0.0 0.011862541287617075 -0.0 -0.0 -0.0 0.011862541287617075" pbc="T T T"
Al       1.46870918       1.44700412       1.44700412       0.00000000       0.00000000       0.00000000
Ni       0.00000000       0.00000000       0.00000000       0.00000000       0.00000000       0.00000000
2
Lattice="2.89400823689718 0.0 0.0 -0.028940082369451798 2.89400823689718 0.0 0.0 0.0 2.89400823689718" Properties=species:S:1:pos:R:3:forces:R:3 config_id=cfg081_AlNi_shear_xy_negative phase=AlNi config_type=shear_xy_negative source=QE_7.6_PBE provenance=/workspace/ni_al/data/expansion_026_100/production_gpu/chunk_08/cfg081_AlNi_shear_xy_negative/attempt_001/qe.out qe_output_sha256=03ef2b56bae196fd0ecaf6e60dc641a5cb646396efde5aa3165bfb8748928b44 canonical_input=/workspace/ni_al/data/expansion_026_100/qe_inputs/cfg081_AlNi_shear_xy_negative.in canonical_input_sha256=8bf7a3953d98cf142ec6a52371408951c8e0490c12afcd2c178ba54e5e57b69c dataset_origin=Expansion-75 source_record=Expansion-75:03ef2b56bae196fd0ecaf6e60dc641a5cb646396efde5aa3165bfb8748928b44 original_dataset=/workspace/ni_al/data/processed/ni_al_expansion_dft_75.extxyz original_dataset_sha256=ff69c2bfed14bfcf48931949647d8f1b3c9353a89c20378c9113155940792137 energy=-5209.310948256447 stress="-0.0001317339099285582 -0.0072214086027133206 -0.0 -0.0072214086027133206 -0.0002472798110194023 -0.0 -0.0 -0.0 -0.00021056766298037903" pbc="T T T"
Al       1.43253408       1.44700412       1.44700412       0.00000000       0.00000000       0.00000000
Ni       0.00000000       0.00000000       0.00000000       0.00000000       0.00000000       0.00000000
2
Lattice="2.89400823689718 0.0 0.0 0.0 2.89400823689718 0.0 0.0 0.0 2.89400823689718" Properties=species:S:1:pos:R:3:forces:R:3 config_id=cfg082_AlNi_rattle_small phase=AlNi config_type=rattle_small source=QE_7.6_PBE provenance=/workspace/ni_al/data/expansion_026_100/production_gpu/chunk_08/cfg082_AlNi_rattle_small/attempt_001/qe.out qe_output_sha256=4340988fbb90e74f1f809a7a5689b8529fac355e8171a06978443abec26a0cf5 canonical_input=/workspace/ni_al/data/expansion_026_100/qe_inputs/cfg082_AlNi_rattle_small.in canonical_input_sha256=2bfa058bd8fb8b74c60f77f264fd623562fb043ba37f8f78fb5824dd2ac9eee2 dataset_origin=Expansion-75 source_record=Expansion-75:4340988fbb90e74f1f809a7a5689b8529fac355e8171a06978443abec26a0cf5 original_dataset=/workspace/ni_al/data/processed/ni_al_expansion_dft_75.extxyz original_dataset_sha256=ff69c2bfed14bfcf48931949647d8f1b3c9353a89c20378c9113155940792137 energy=-5209.3083329284345 stress="-0.0005975822983237855 -0.00021780624281106923 -0.00010376576962620346 -0.00021780624281106923 -0.0003477142067175054 -0.0003914381450007924 -0.00010376576962620346 -0.0003914381450007924 -0.0005555437779153864" pbc="T T T"
Al       1.44294680       1.43164824       1.43970955       0.04650607       0.17549117       0.08357118
Ni       0.00405732       0.01535588       0.00729457      -0.04650607      -0.17549117      -0.08357118
2
Lattice="2.89400823689718 0.0 0.0 0.0 2.89400823689718 0.0 0.0 0.0 2.89400823689718" Properties=species:S:1:pos:R:3:forces:R:3 config_id=cfg083_AlNi_rattle_large phase=AlNi config_type=rattle_large source=QE_7.6_PBE provenance=/workspace/ni_al/data/expansion_026_100/production_gpu/chunk_09/cfg083_AlNi_rattle_large/attempt_001/qe.out qe_output_sha256=a01c2b7af25d3e6db8db3ca24661f0d9bea40bf9214aec4051dcbecb8b29759c canonical_input=/workspace/ni_al/data/expansion_026_100/qe_inputs/cfg083_AlNi_rattle_large.in canonical_input_sha256=5afe1f7431e95196094dcbdd00d2a650099fa32b3416d1d34949d2c7ad5c7b8d dataset_origin=Expansion-75 source_record=Expansion-75:a01c2b7af25d3e6db8db3ca24661f0d9bea40bf9214aec4051dcbecb8b29759c original_dataset=/workspace/ni_al/data/processed/ni_al_expansion_dft_75.extxyz original_dataset_sha256=ff69c2bfed14bfcf48931949647d8f1b3c9353a89c20378c9113155940792137 energy=-5209.280997738633 stress="-0.004774320717502981 -0.0016912412128012129 -0.0031700366153001353 -0.0016912412128012129 -0.004774320717502981 -0.0031700366153001353 -0.0031700366153001353 -0.0031700366153001353 -0.0033203413286562295" pbc="T T T"
Al       1.46876403       1.46875208       1.48857131      -0.25591247      -0.25591247      -0.48072573
Ni       2.87224833       2.87226028       2.85244105       0.25591247       0.25591247       0.48072573
2
Lattice="2.8216580309745507 0.0 0.0 0.0 2.8216580309745507 0.0 0.0 0.0 2.8216580309745507" Properties=species:S:1:pos:R:3:forces:R:3 config_id=cfg084_AlNi_volume_rattle_compression phase=AlNi config_type=volume_rattle_compression source=QE_7.6_PBE provenance=/workspace/ni_al/data/expansion_026_100/production_gpu/chunk_09/cfg084_AlNi_volume_rattle_compression/attempt_001/qe.out qe_output_sha256=ea2acbdebf2b6b61f45452833ba2e43cf2d46e28675493caeda07212e051a114 canonical_input=/workspace/ni_al/data/expansion_026_100/qe_inputs/cfg084_AlNi_volume_rattle_compression.in canonical_input_sha256=c15abba6b83cec2bdc7d9088ec288e471734de0ec95f50479e7edf37dd4617e8 dataset_origin=Expansion-75 source_record=Expansion-75:ea2acbdebf2b6b61f45452833ba2e43cf2d46e28675493caeda07212e051a114 original_dataset=/workspace/ni_al/data/processed/ni_al_expansion_dft_75.extxyz original_dataset_sha256=ff69c2bfed14bfcf48931949647d8f1b3c9353a89c20378c9113155940792137 energy=-5209.2271780224055 stress="-0.09102863429166556 0.0004389419309703866 -0.00013136384069522254 0.0004389419309703866 -0.0899575709477649 0.0008024889128087241 -0.00013136384069522254 0.0008024889128087241 -0.090959772663144" pbc="T T T"
Al       1.40686785       1.43523205       1.40358302       0.06096547      -0.37281745       0.11147175
Ni       0.00396117       2.79725500       0.00724599      -0.06096547       0.37281745      -0.11147175
16
Lattice="4.6324843362939605 0.0 0.0 0.0 6.358112546468973 0.0 0.0 0.0 7.087191461252698" Properties=species:S:1:pos:R:3:forces:R:3 config_id=cfg101_Al3Ni_iso_compression phase=Al3Ni config_type=iso_compression target_role=TRAIN strain_type=isotropic strain_value=-0.04 rattle_sigma_A=0 random_seed=NONE source=QE_7.6_PBE source_structure=Al3Ni_relaxed design_round=v1_cfg101-108 provenance=/workspace/ni_al/data/al3ni_remediation_v1/production_dft/cfg101_Al3Ni_iso_compression/attempt_001/qe.out qe_output_sha256=b9226b79a05435b33d5f60efb8aee92c23927309a65353e3947568b419fbbd4f canonical_input=/workspace/ni_al/data/al3ni_remediation_v1/qe_inputs/cfg101_Al3Ni_iso_compression.in canonical_input_sha256=498e071e276b9a62b9e4b3096a76a7339e2bce3cc02d4730f8fa6dd1d9d02560 energy=-25136.78698116325 stress="-0.1106148431349334 -0.0 -0.0 -0.0 -0.11353126277862602 -0.0 -0.0 -0.0 -0.11734075633386548" pbc="T T T"
Al       4.24347193       0.04773219       1.77179833      -0.03143644       0.05060013       0.00000000
Al       1.68668431       1.08927774       3.15201044       0.04113735       0.07822791       0.01476075
Al       1.68668431       1.08927774       0.39158622       0.04113735       0.07822791      -0.01476075
Al       4.00292787       2.08977900       3.93518148       0.04113735      -0.07822791      -0.01476075
Al       0.62955786       4.26833215       3.15201183      -0.04113735       0.07822791       0.01476075
Al       2.94580142       5.26883342       6.69560710      -0.04113735      -0.07822791       0.01476075
Al       0.62955786       4.26833215       0.39158483      -0.04113735       0.07822791      -0.01476075
Al       2.94580142       5.26883342       3.93518241      -0.04113735      -0.07822791      -0.01476075
Al       4.00292787       2.08977900       6.69560803       0.04113735      -0.07822791       0.01476075
Al       2.70525504       3.22678615       1.77179833       0.03143644       0.05060013       0.00000000
Al       0.38901380       6.31037897       5.31539499       0.03143644      -0.05060013       0.00000000
Al       1.92723069       3.13132501       5.31539499      -0.03143644      -0.05060013       0.00000000
Ni       2.05252040       5.53382543       1.77179833       0.02748626       0.05075561       0.00000000
Ni       0.26372270       2.35476915       1.77179833      -0.02748626       0.05075561       0.00000000
Ni       2.57996533       0.82428573       5.31539499      -0.02748626      -0.05075561       0.00000000
Ni       4.36876302       4.00334201       5.31539499       0.02748626      -0.05075561       0.00000000
16
Lattice="4.728994426633105 0.0 0.0 0.0 6.490573224520079 0.0 0.0 0.0 7.234841283362067" Properties=species:S:1:pos:R:3:forces:R:3 config_id=cfg102_Al3Ni_iso_compression phase=Al3Ni config_type=iso_compression target_role=TRAIN strain_type=isotropic strain_value=-0.02 rattle_sigma_A=0 random_seed=NONE source=QE_7.6_PBE source_structure=Al3Ni_relaxed design_round=v1_cfg101-108 provenance=/workspace/ni_al/data/al3ni_remediation_v1/production_dft/cfg102_Al3Ni_iso_compression/attempt_001/qe.out qe_output_sha256=d6ab560d917e9b66f6d25ce62e5b31c66426bfb241085e887ff688be3b22fa4c canonical_input=/workspace/ni_al/data/al3ni_remediation_v1/qe_inputs/cfg102_Al3Ni_iso_compression.in canonical_input_sha256=bf38b8aa2d2f0d80b7ca716ab8fb663cd181284a1a5efe59f0bb32c096b83782 energy=-25137.852923354832 stress="-0.04779436731565564 -0.0 -0.0 -0.0 -0.049146796911615075 -0.0 -0.0 -0.0 -0.05080927456005347" pbc="T T T"
Al       4.33187759       0.04872661       1.80871079      -0.01257624       0.02309814       0.00000000
Al       1.72182356       1.11197102       3.21767732       0.01677039       0.03553906       0.00558589
Al       1.72182356       1.11197102       0.39974426       0.01677039       0.03553906      -0.00558589
Al       4.08632220       2.13331607       4.01716443       0.01677039      -0.03553906      -0.00558589
Al       0.64267365       4.35725574       3.21767874      -0.01677039       0.03553906       0.00558589
Al       3.00717229       5.37860078       6.83509891      -0.01677039      -0.03553906       0.00558589
Al       0.64267365       4.35725574       0.39974284      -0.01677039       0.03553906      -0.00558589
Al       3.00717229       5.37860078       4.01716538      -0.01677039      -0.03553906      -0.00558589
Al       4.08632220       2.13331607       6.83509986       0.01677039      -0.03553906       0.00558589
Al       2.76161452       3.29401086       1.80871079       0.01257624       0.02309814       0.00000000
Al       0.39711826       6.44184520       5.42613238       0.01257624      -0.02309814       0.00000000
Al       1.96738133       3.19656095       5.42613238      -0.01257624      -0.02309814       0.00000000
Ni       2.09528124       5.64911346       1.80871079       0.01159294       0.02165518       0.00000000
Ni       0.26921693       2.40382684       1.80871079      -0.01159294       0.02165518       0.00000000
Ni       2.63371461       0.84145835       5.42613238      -0.01159294      -0.02165518       0.00000000
Ni       4.45977892       4.08674497       5.42613238       0.01159294      -0.02165518       0.00000000
16
Lattice="4.922014607312396 0.0 0.0 0.0 6.755494580623288 0.0 0.0 0.0 7.530140927580801" Properties=species:S:1:pos:R:3:forces:R:3 config_id=cfg103_Al3Ni_iso_expansion phase=Al3Ni config_type=iso_expansion target_role=TRAIN strain_type=isotropic strain_value=0.02 rattle_sigma_A=0 random_seed=NONE source=QE_7.6_PBE source_structure=Al3Ni_relaxed design_round=v1_cfg101-108 provenance=/workspace/ni_al/data/al3ni_remediation_v1/production_dft/cfg103_Al3Ni_iso_expansion/attempt_001/qe.out qe_output_sha256=1135adaf3cfd3decfa27b6018525d142726f4823985776ffb055abaf53c73046 canonical_input=/workspace/ni_al/data/al3ni_remediation_v1/qe_inputs/cfg103_Al3Ni_iso_expansion.in canonical_input_sha256=18c2a4828828c3c0c105d7555705d96b2cc70cdee5e84f162b049b9ad78880d9 energy=-25137.893678158136 stress="0.03601188980218816 -0.0 -0.0 -0.0 0.03739347387316102 -0.0 -0.0 -0.0 0.03842481654099541" pbc="T T T"
Al       4.50868892       0.05071545       1.88253572       0.00883355      -0.01883170       0.00000000
Al       1.79210208       1.15735760       3.34901109      -0.01717818      -0.02311574      -0.00683718
Al       1.79210208       1.15735760       0.41606036      -0.01717818      -0.02311574       0.00683718
Al       4.25311086       2.22039019       4.18113032      -0.01717818       0.02311574       0.00683718
Al       0.66890523       4.53510291       3.34901257       0.01717818      -0.02311574      -0.00683718
Al       3.12991401       5.59813551       7.11408254       0.01717818       0.02311574      -0.00683718
Al       0.66890523       4.53510291       0.41605888       0.01717818      -0.02311574       0.00683718
Al       3.12991401       5.59813551       4.18113131       0.01717818       0.02311574       0.00683718
Al       4.25311086       2.22039019       7.11408353      -0.01717818       0.02311574      -0.00683718
Al       2.87433348       3.42846028       1.88253572      -0.00883355      -0.01883170       0.00000000
Al       0.41332716       6.70477765       5.64760717      -0.00883355       0.01883170       0.00000000
Al       2.04768261       3.32703283       5.64760717       0.00883355       0.01883170       0.00000000
Ni       2.18080292       5.87968952       1.88253572      -0.00692372      -0.01877889       0.00000000
Ni       0.28020537       2.50194222       1.88253572       0.00692372      -0.01877889       0.00000000
Ni       2.74121317       0.87580359       5.64760717       0.00692372       0.01877889       0.00000000
Ni       4.64181071       4.25355089       5.64760717      -0.00692372       0.01877889       0.00000000
16
Lattice="4.728994426633105 0.0 0.0 0.0 6.490573224520079 0.0 0.0 0.0 7.234841283362067" Properties=species:S:1:pos:R:3:forces:R:3 config_id=cfg104_Al3Ni_volume_rattle_compression phase=Al3Ni config_type=volume_rattle_compression target_role=TRAIN strain_type=isotropic strain_value=-0.02 rattle_sigma_A=0.015 random_seed=20261104 source=QE_7.6_PBE source_structure=Al3Ni_relaxed design_round=v1_cfg101-108 provenance=/workspace/ni_al/data/al3ni_remediation_v1/production_dft/cfg104_Al3Ni_volume_rattle_compression/attempt_001/qe.out qe_output_sha256=b68da2f8c4f711c570394be3694dfd883dabca6a9df5f38a3218f19616e3555e canonical_input=/workspace/ni_al/data/al3ni_remediation_v1/qe_inputs/cfg104_Al3Ni_volume_rattle_compression.in canonical_input_sha256=46356e6f9ab4e88d2d204f689a91db128eb8d919316b68f3546e3796cbf3a54b energy=-25137.804284486054 stress="-0.04891150299813262 0.000595223495831893 0.0004237810864444241 0.000595223495831893 -0.0489823422402747 -0.001128580269006958 0.0004237810864444241 -0.001128580269006958 -0.05111061332716612" pbc="T T T"
Al       4.34619042       0.07077376       1.80693924      -0.20251447      -0.14238475      -0.05501899
Al       1.69295762       1.09040843       3.20716026       0.21562529       0.19449610       0.13155416
Al       1.73379883       1.10407682       0.41856502      -0.02036890       0.18338718      -0.24251356
Al       4.08984371       2.12025550       4.02085695      -0.01778801       0.06700926      -0.01372140
Al       0.61735198       4.35635266       3.22085163       0.19402716       0.13992412      -0.11416236
Al       3.00590712       5.35517195       6.84998744       0.02338060       0.18579760      -0.27016269
Al       0.63970242       4.37448163       0.37893656       0.05987494      -0.11538118       0.30741176
Al       2.99492300       5.39278138       4.00180224       0.09884794      -0.14716514       0.17501513
Al       4.08559241       2.11603941       6.82865389       0.15590219       0.08648817       0.10345028
Al       2.77718718       3.28708601       1.81749436      -0.25551182       0.15963659      -0.01526758
Al       0.41010070       6.42644074       5.44123619      -0.02997749       0.07206676      -0.04410909
Al       1.96292397       3.19971504       5.43937720       0.05760857      -0.04237822      -0.10817289
Ni       2.10366421       5.65763072       1.78262582      -0.07096020      -0.18380911       0.33795360
Ni       0.25804055       2.42038045       1.81306814       0.18702869      -0.05690784      -0.11089551
Ni       2.64273984       0.86224041       5.40748070      -0.18065735      -0.33069693       0.21978689
Ni       4.47104282       4.09073954       5.44370881      -0.21451716      -0.07008260      -0.30114777
16
Lattice="4.922014607312396 0.0 0.0 0.0 6.755494580623288 0.0 0.0 0.0 7.530140927580801" Properties=species:S:1:pos:R:3:forces:R:3 config_id=cfg105_Al3Ni_volume_rattle_expansion phase=Al3Ni config_type=volume_rattle_expansion target_role=TRAIN strain_type=isotropic strain_value=0.02 rattle_sigma_A=0.015 random_seed=20261105 source=QE_7.6_PBE source_structure=Al3Ni_relaxed design_round=v1_cfg101-108 provenance=/workspace/ni_al/data/al3ni_remediation_v1/production_dft/cfg105_Al3Ni_volume_rattle_expansion/attempt_001/qe.out qe_output_sha256=a24f0fe2d37ab54d267781ec2b25df6aa8256118dc274bc1ce7bba76690f9c69 canonical_input=/workspace/ni_al/data/al3ni_remediation_v1/qe_inputs/cfg105_Al3Ni_volume_rattle_expansion.in canonical_input_sha256=a58dee5262de4b7ac99c72850df85dabebfb50c88bdf0cf0b7bbe1c416703e7c energy=-25137.842503196614 stress="0.03394421790376644 0.0010491889673936946 0.00014823057264710013 0.0010491889673936946 0.038640188031540804 -0.0005481079639695494 0.00014823057264710013 -0.0005481079639695494 0.03753226623734709" pbc="T T T"
Al       4.50593930       0.04291961       1.87025276       0.03392078       0.01531144       0.06681236
Al       1.80101508       1.17375710       3.35631205      -0.01254352      -0.10525589      -0.12426298
Al       1.77879532       1.13127922       0.38446261      -0.11849785       0.10224087       0.29535104
Al       4.28052177       2.22362381       4.16544675      -0.24150007      -0.02414058       0.25424164
Al       0.67059964       4.55136452       3.37441602       0.13171841      -0.07289700      -0.20396455
Al       3.14455926       5.59884940       7.11305891      -0.08484497      -0.00535996       0.07425450
Al       0.66912251       4.55258551       0.38878824       0.06730862      -0.13050890       0.20086492
Al       3.15411299       5.60141248       4.19925641      -0.21903860       0.07251013      -0.20013349
Al       4.23472212       2.21736960       7.11833411       0.06023725       0.04924531      -0.03785533
Al       2.89620811       3.43720466       1.87067502      -0.20908449       0.00107507       0.02648753
Al       0.41356894       6.69243332       5.64966023       0.00674755       0.13796120      -0.02913208
Al       2.04010217       3.31039636       5.67014305       0.03410243       0.06427280      -0.08316909
Ni       2.17552258       5.86609827       1.88831054       0.00743735       0.07808952      -0.00152923
Ni       0.25023713       2.51121406       1.89961558       0.30411216      -0.09254834      -0.23901162
Ni       2.72573880       0.84700647       5.65613647       0.16745993       0.27710077      -0.13204888
Ni       4.63536297       4.28643045       5.63627345       0.07246501      -0.36709643       0.13309525
16
Lattice="4.825504516972251 0.0 0.0 0.0 6.623033902572181 0.0 0.0 0.0 7.382491105471437" Properties=species:S:1:pos:R:3:forces:R:3 config_id=cfg106_Al3Ni_rattle_020 phase=Al3Ni config_type=rattle_020 target_role=TRAIN strain_type=none strain_value=0 rattle_sigma_A=0.02 random_seed=20261106 source=QE_7.6_PBE source_structure=Al3Ni_relaxed design_round=v1_cfg101-108 provenance=/workspace/ni_al/data/al3ni_remediation_v1/production_dft/cfg106_Al3Ni_rattle_020/attempt_001/qe.out qe_output_sha256=3703cbce744bc423533c3537b03214ea2fcfad02995070d4c97adcdcbd258e78 canonical_input=/workspace/ni_al/data/al3ni_remediation_v1/qe_inputs/cfg106_Al3Ni_rattle_020.in canonical_input_sha256=852c7538f5dd8c4192b944a5ecb9c5705e8d8b7d99135b37a0ce29ee9333fac4 energy=-25138.11457069661 stress="-0.00041934054503884563 -0.0005038984810788609 -0.000425268753372954 -0.0005038984810788609 -0.0002555176320082946 -0.0011017921753104782 -0.000425268753372954 -0.0011017921753104782 -0.0007870269636921391" pbc="T T T"
Al       4.45370001       0.07421633       1.84211920      -0.25672141      -0.23188549       0.02479167
Al       1.78857196       1.13029398       3.28218825      -0.15823452       0.12622155      -0.05577010
Al       1.77051173       1.14881978       0.36813271      -0.25936065       0.01262097       0.37228969
Al       4.17196245       2.16037660       4.10753645       0.07597964       0.07204659      -0.06408170
Al       0.66525291       4.44865454       3.27905980      -0.17886256      -0.04823373       0.06707910
Al       3.08482499       5.47330234       7.00705897      -0.04422330       0.04463711      -0.21705623
Al       0.65129313       4.44393303       0.38193283       0.04687462      -0.08591045       0.14519617
Al       3.05064685       5.50832022       4.11393054       0.13822882      -0.18444673      -0.05472915
Al       4.14685655       2.16298573       6.98694341       0.23433073       0.12376616       0.07959113
Al       2.83014066       3.37940947       1.83775002      -0.04368882      -0.05499626       0.04913922
Al       0.38774535       6.58674382       5.52855066       0.05168820      -0.15755001       0.02862933
Al       1.99705140       3.24923383       5.53928403       0.05819802       0.09421991      -0.04428706
Ni       2.09264053       5.77294565       1.83357471       0.38289119       0.04909845       0.10217090
Ni       0.28031981       2.44425057       1.87708144       0.05010320       0.12040761      -0.32462357
Ni       2.68232511       0.87056582       5.55154691       0.02393314      -0.25167035      -0.19512591
Ni       4.55020429       4.13020793       5.52325339      -0.12113633       0.37167466       0.08678651
16
Lattice="5.0474777247529845 0.0 0.0 0.0 6.927693462089924 0.0 0.0 0.0 7.7220856963227815" Properties=species:S:1:pos:R:3:forces:R:3 config_id=cfg111_Al3Ni_iso_expansion phase=Al3Ni config_type=iso_expansion target_role=TRAIN strain_type=isotropic strain_value=0.046 rattle_sigma_A=0.0 random_seed=NONE source=QE_7.6_PBE source_structure=Al3Ni_relaxed design_round=round2_cfg111-115 provenance=/workspace/ni_al/data/al3ni_remediation_v1/round2_production_dft/cfg111_Al3Ni_iso_expansion/attempt_001/qe.out qe_output_sha256=bdaca399293e6310e9f4cee3ff3280c9438110d4cc5ef5b2363e026e454e137b canonical_input=/workspace/ni_al/data/al3ni_remediation_v1/round2_qe_inputs/cfg111_Al3Ni_iso_expansion.in canonical_input_sha256=a1eedbbda6a571124f2df923d67fa4a22ac5dbe73782e26b99f524d4a8ca4fd4 energy=-25136.80326359608 stress="0.06870074315239487 -0.0 -0.0 -0.0 0.07147683074787389 -0.0 -0.0 -0.0 0.07353257616847635" pbc="T T T"
Al       4.62361629       0.05200820       1.93052193       0.01413944      -0.03580022       0.00000000
Al       1.83778311       1.18685887       3.43437804      -0.03055929      -0.04770032      -0.01395465
Al       1.83778311       1.18685887       0.42666582      -0.03055929      -0.04770032       0.01395465
Al       4.36152349       2.27698837       4.28770816      -0.03055929       0.04770032       0.01395465
Al       0.68595575       4.65070358       3.43437956       0.03055929      -0.04770032      -0.01395465
Al       3.20969613       5.74083308       7.29542190       0.03055929       0.04770032      -0.01395465
Al       0.68595575       4.65070358       0.42666430       0.03055929      -0.04770032       0.01395465
Al       3.20969613       5.74083308       4.28770917       0.03055929       0.04770032       0.01395465
Al       4.36152349       2.27698837       7.29542291      -0.03055929       0.04770032      -0.01395465
Al       2.94760080       3.51585240       1.93052193      -0.01413944      -0.03580022       0.00000000
Al       0.42386295       6.87568375       5.79156579      -0.01413944       0.03580022       0.00000000
Al       2.09987844       3.41183954       5.79156579       0.01413944       0.03580022       0.00000000
Ni       2.23639201       6.02956395       1.93052193      -0.01230178      -0.03396066       0.00000000
Ni       0.28734786       2.56571722       1.93052193       0.01230178      -0.03396066       0.00000000
Ni       2.81108723       0.89812799       5.79156579       0.01230178       0.03396066       0.00000000
Ni       4.76013138       4.36197473       5.79156579      -0.01230178       0.03396066       0.00000000
16
Lattice="5.0474777247529845 0.0 0.0 0.0 6.927693462089924 0.0 0.0 0.0 7.7220856963227815" Properties=species:S:1:pos:R:3:forces:R:3 config_id=cfg112_Al3Ni_volume_rattle_expansion phase=Al3Ni config_type=volume_rattle_expansion target_role=TRAIN strain_type=isotropic strain_value=0.046 rattle_sigma_A=0.015 random_seed=20261112 source=QE_7.6_PBE source_structure=Al3Ni_relaxed design_round=round2_cfg111-115 provenance=/workspace/ni_al/data/al3ni_remediation_v1/round2_production_dft/cfg112_Al3Ni_volume_rattle_expansion/attempt_001/qe.out qe_output_sha256=4d8158c033348134e155cea81a24c6d3ab47a0f9475f52d2a576cf7728e8fd5f canonical_input=/workspace/ni_al/data/al3ni_remediation_v1/round2_qe_inputs/cfg112_Al3Ni_volume_rattle_expansion.in canonical_input_sha256=0f55edba5ee45a2444c3bda1da036e181663c7258240e2e31133d3753fde310a energy=-25136.789262864713 stress="0.0688647045586234 0.0005936816338106077 -0.00010572484088155858 0.0005936816338106077 0.07103495218032217 -0.00013982837636009157 -0.00010572484088155858 -0.00013982837636009157 0.0732541171355738" pbc="T T T"
Al       4.64091981       0.03355409       1.92282006      -0.05034503       0.01095601       0.00521081
Al       1.81470803       1.16189096       3.44872215       0.03843829       0.07002170      -0.08022797
Al       1.82929174       1.18753150       0.43549050       0.05570563      -0.05577693      -0.01580040
Al       4.38102905       2.28280257       4.29271732      -0.14971932       0.00765345       0.01877159
Al       0.67792897       4.65459537       3.43548105       0.05637981      -0.03109697      -0.02803450
Al       3.21614342       5.74548757       7.28890343      -0.01334710       0.04448013      -0.01674980
Al       0.66303773       4.64953587       0.41692331       0.15088670      -0.01445661       0.06185318
Al       3.20435952       5.76588699       4.27794571       0.11470301      -0.06475813       0.07888616
Al       4.38362081       2.26342424       7.31252104      -0.15810282       0.05423859      -0.11186349
Al       2.93126994       3.51583425       1.92973356      -0.00154839      -0.03990114       0.00774211
Al       0.43443526       6.88043244       5.78564680      -0.05279498       0.00432479       0.02891795
Al       2.09669100       3.41286064       5.79300028       0.08782045       0.01076615      -0.00481097
Ni       2.23378147       6.03294410       1.92614364      -0.04205276      -0.06191376      -0.00801234
Ni       0.27575279       2.58052328       1.93336150       0.06476965      -0.10757540       0.02436972
Ni       2.81780941       0.90253338       5.79039057       0.02211866       0.05220877       0.03288072
Ni       4.77905497       4.35169835       5.78689981      -0.12291183       0.12082935       0.00686722
16
Lattice="5.095732769923057 0.0 0.0 0.0 6.993923801116475 0.0 0.0 0.0 7.795910607377464" Properties=species:S:1:pos:R:3:forces:R:3 config_id=cfg113_Al3Ni_iso_expansion phase=Al3Ni config_type=iso_expansion target_role=TRAIN strain_type=isotropic strain_value=0.056 rattle_sigma_A=0.0 random_seed=NONE source=QE_7.6_PBE source_structure=Al3Ni_relaxed design_round=round2_cfg111-115 provenance=/workspace/ni_al/data/al3ni_remediation_v1/round2_production_dft/cfg113_Al3Ni_iso_expansion/attempt_001/qe.out qe_output_sha256=cee554e6cd6a6ea8739366f399b5876d6b7422bb30cd0e2ee5fdcf3ab6bccde7 canonical_input=/workspace/ni_al/data/al3ni_remediation_v1/round2_qe_inputs/cfg113_Al3Ni_iso_expansion.in canonical_input_sha256=347b1e387c2c3bda0a71a13b6640a7017c54aa6d719d6a66fcee0cf134e7f028 energy=-25136.208046426647 stress="0.07789581973251944 -0.0 -0.0 -0.0 0.08109761008917554 -0.0 -0.0 -0.0 0.08345613992333485" pbc="T T T"
Al       4.66781912       0.05250541       1.94897816       0.01488077      -0.04007542       0.00000000
Al       1.85535274       1.19820551       3.46721148      -0.03420588      -0.05514491      -0.01693266
Al       1.85535274       1.19820551       0.43074484      -0.03420588      -0.05514491       0.01693266
Al       4.40322065       2.29875690       4.32869963      -0.03420588       0.05514491       0.01693266
Al       0.69251365       4.69516537       3.46721301       0.03420588      -0.05514491      -0.01693266
Al       3.24038156       5.79571676       7.36516781       0.03420588       0.05514491      -0.01693266
Al       0.69251365       4.69516537       0.43074331       0.03420588      -0.05514491       0.01693266
Al       3.24038156       5.79571676       4.32870065       0.03420588       0.05514491       0.01693266
Al       4.40322065       2.29875690       7.36516883      -0.03420588       0.05514491      -0.01693266
Al       2.97578054       3.54946476       1.94897816      -0.01488077      -0.04007542       0.00000000
Al       0.42791518       6.94141687       5.84693448      -0.01488077       0.04007542       0.00000000
Al       2.11995376       3.44445751       5.84693448       0.01488077       0.04007542       0.00000000
Ni       2.25777244       6.08720797       1.94897816      -0.01338257      -0.03776509       0.00000000
Ni       0.29009497       2.59024606       1.94897816       0.01338257      -0.03776509       0.00000000
Ni       2.83796187       0.90671430       5.84693448       0.01338257       0.03776509       0.00000000
Ni       4.80563933       4.40367621       5.84693448      -0.01338257       0.03776509       0.00000000
16
Lattice="5.095732769923057 0.0 0.0 0.0 6.993923801116475 0.0 0.0 0.0 7.795910607377464" Properties=species:S:1:pos:R:3:forces:R:3 config_id=cfg114_Al3Ni_volume_rattle_expansion phase=Al3Ni config_type=volume_rattle_expansion target_role=TRAIN strain_type=isotropic strain_value=0.056 rattle_sigma_A=0.015 random_seed=20261114 source=QE_7.6_PBE source_structure=Al3Ni_relaxed design_round=round2_cfg111-115 provenance=/workspace/ni_al/data/al3ni_remediation_v1/round2_production_dft/cfg114_Al3Ni_volume_rattle_expansion/attempt_001/qe.out qe_output_sha256=29941f47c758f7f57e26228e916c81e4c82f45522a29cc1f0a37aed198a267a1 canonical_input=/workspace/ni_al/data/al3ni_remediation_v1/round2_qe_inputs/cfg114_Al3Ni_volume_rattle_expansion.in canonical_input_sha256=6fd65fe8936b4f7c209fa1457c5b6fa44fa2c4b3628ca9757248856e5cf1d921 energy=-25136.17840575565 stress="0.07712022841015373 0.00010103280446315235 -0.00039069374674141123 0.00010103280446315235 0.08130137378593494 -1.4655748373037102e-05 -0.00039069374674141123 -1.4655748373037102e-05 0.08276448665705584" pbc="T T T"
Al       4.65478436       0.06161245       1.94698509       0.04391152      -0.05961675      -0.00403814
Al       1.86811426       1.17000935       3.45613030      -0.10855735       0.05893339       0.00983618
Al       1.84710873       1.19983922       0.43034113       0.02404636      -0.07777296       0.00571156
Al       4.39641212       2.29561504       4.33008382       0.01743136       0.06736744       0.00165936
Al       0.71343310       4.66729512       3.46837256      -0.05637968       0.02099699       0.00569996
Al       3.24474896       5.75286016       7.38056468      -0.02356079       0.21764207      -0.12278597
Al       0.67742490       4.72311471       0.41764162       0.09455087      -0.14221855       0.08851660
Al       3.22939258       5.80455247       4.30162503       0.14462927      -0.01039054       0.15802964
Al       4.41353263       2.30522965       7.36510021      -0.04842461       0.06427166       0.03456898
Al       2.98034091       3.55842023       1.95651907      -0.00947999      -0.09828156      -0.03922304
Al       0.42889388       6.94947978       5.85063551      -0.03494844       0.02506951      -0.01205926
Al       2.11383019       3.43838621       5.86183501      -0.00064429       0.10279670      -0.02509074
Ni       2.26146860       6.07749570       1.91062693      -0.03883858       0.00539453       0.19434836
Ni       0.30389994       2.58961342       1.95424371      -0.03283581      -0.04691867      -0.01312981
Ni       2.83850803       0.95734050       5.87200253       0.00676945      -0.22967193      -0.14052633
Ni       4.79398123       4.40051418       5.86459294       0.02233072       0.10239869      -0.14151733
5
Lattice="3.9357097150115354 0.0 0.0 -1.9678548575057677 3.408423005943483 0.0 0.0 0.0 4.907862374000466" Properties=species:S:1:pos:R:3:forces:R:3 config_id=cfg117_Al3Ni2_biaxial_xy_compression phase=Al3Ni2 config_type=biaxial_xy_compression target_role=TRAIN gap_ref=A1/cfg073 source=QE_7.6_PBE provenance=/workspace/ni_al/data/al3ni_remediation_v1/round3_production_dft/pod01/cfg117_Al3Ni2_biaxial_xy_compression/attempt_001/qe.out qe_output_sha256=58c19f21f6d4c3046202a54ece0a4b6ad4a23f8a8bea6a22b09963bc86a2e89e canonical_input=/workspace/ni_al/data/al3ni_remediation_v1/round3_structures/pod_01/cfg117_Al3Ni2_biaxial_xy_compression.in canonical_input_sha256=0d1d5795311041695a9d898c387b6c739860557bb8cb98eaa69f8c652a662db8 energy=-10956.4043563814 stress="-0.06183759674980148 -0.0 -0.0 -0.0 -0.06183765441339181 -0.0 -0.0 -0.0 -0.0281687548248285" pbc="T T T"
Al       0.00000000       0.00000000       0.00000000      -0.00000000       0.00000000       0.00000000
Al      -0.00000275       2.27228358       3.17789306       0.00000000       0.00000000      -0.06187642
Al       1.96785643       1.13613982       1.72996891       0.00000000      -0.00000000       0.06187642
Ni      -0.00000275       2.27228358       0.71968598       0.00000000       0.00000000       0.11757478
Ni       1.96785643       1.13613982       4.18817639       0.00000000       0.00000000      -0.11757478
4
Lattice="3.4959156027154075 0.0 0.0 0.0 3.4960379597613294 0.0 0.0 0.0 3.4960379597613294" Properties=species:S:1:pos:R:3:forces:R:3 config_id=cfg118_AlNi3_volume_rattle_compression phase=AlNi3 config_type=volume_rattle_compression target_role=TRAIN gap_ref=A2/cfg098 source=QE_7.6_PBE provenance=/workspace/ni_al/data/al3ni_remediation_v1/round3_production_dft/pod01/cfg118_AlNi3_volume_rattle_compression/attempt_001/qe.out qe_output_sha256=34b387f2279520e4f6d6bffd3d2020d3d785781eb9f5cd00fec6f5b0aeaba338 canonical_input=/workspace/ni_al/data/al3ni_remediation_v1/round3_structures/pod_02/cfg118_AlNi3_volume_rattle_compression.in canonical_input_sha256=8655830c2475a79ac26a2396c46f369034ca2b47927dfabc8967e8d2c79c0e93 energy=-14550.728439125962 stress="-0.08078137096275277 -8.839732611735499e-05 -0.0011034139089540268 -8.839732611735499e-05 -0.07998615826482786 0.00012731725969607118 -0.0011034139089540268 0.00012731725969607118 -0.08171307512097468" pbc="T T T"
Al       3.46563485       3.49556390       3.49533687       0.25646531       0.04065795       0.10025217
Ni       0.03320561       1.75425713       1.74793990      -0.36126028      -0.10418885      -0.09311948
Ni       1.76657329       3.49005753       1.76451552      -0.16752294       0.10235991      -0.27362328
Ni       1.72641746       1.74823462       3.48032018       0.27231791      -0.03882900       0.26649058
4
Lattice="3.4424066904287023 0.0 0.0 0.0 3.442527174662625 0.0 0.0 0.0 3.442527174662625" Properties=species:S:1:pos:R:3:forces:R:3 config_id=cfg119_AlNi3_volume_rattle_compression phase=AlNi3 config_type=volume_rattle_compression target_role=TRAIN gap_ref=A2/cfg098 source=QE_7.6_PBE provenance=/workspace/ni_al/data/al3ni_remediation_v1/round3_production_dft/pod01/cfg119_AlNi3_volume_rattle_compression/attempt_001/qe.out qe_output_sha256=abd7b04bccb2add834088d5666c877756f355b08eadf6b08df253dc574b6f369 canonical_input=/workspace/ni_al/data/al3ni_remediation_v1/round3_structures/pod_03/cfg119_AlNi3_volume_rattle_compression.in canonical_input_sha256=dda75168fcf643525ff6ba6a88f53cdbd738aa50b1a0e8f429783c3718d25b4b energy=-14550.494535177022 stress="-0.1572234751169545 -0.0011195354774760499 -0.0003318849548335357 -0.0011195354774760499 -0.1576556039809807 0.00016524046171979845 -0.0003318849548335357 0.00016524046171979845 -0.15775612317054313" pbc="T T T"
Al       3.42438015       0.01052959       3.44157898       0.39163260      -0.20557550       0.14048416
Ni       3.43068243       1.70364360       1.72957514       0.37326801       0.31664989      -0.23756328
Ni       1.76007501       0.00350836       1.73190434      -0.69084916      -0.15330532      -0.26805198
Ni       1.71208248       1.72484494       3.42452168      -0.07405145       0.04223093       0.36513110
8
Lattice="3.8526018989658004 0.0 0.0 0.0 4.9813239600063834 -0.5517008690064054 0.0 -0.013830238848135959 5.011764782236874" Properties=species:S:1:pos:R:3:forces:R:3 config_id=cfg121_Al3Ni5_uniaxial_x_expansion phase=Al3Ni5 config_type=uniaxial_x_expansion target_role=TRAIN gap_ref=A3/cfg056 source=QE_7.6_PBE provenance=/workspace/ni_al/data/al3ni_remediation_v1/round3_production_dft/pod01/cfg121_Al3Ni5_uniaxial_x_expansion/attempt_001/qe.out qe_output_sha256=ea19bf9119810a86725ae8db5cdc5474bf15bbca14f815007778269bdfc0087a canonical_input=/workspace/ni_al/data/al3ni_remediation_v1/round3_structures/pod_04/cfg121_Al3Ni5_uniaxial_x_expansion.in canonical_input_sha256=251e5b324435a440022f701314f984f775d88a3febc3535b3ca6ffcda3dedbe5 energy=-24969.584563760407 stress="0.03798366573865772 -0.0 -0.0 -0.0 0.016567255185596964 0.0024144411449328385 -0.0 0.0024144411449328385 0.01604628435611639" pbc="T T T"
Al       0.00000000       2.48374724       2.23003083       0.00000000       0.00000000       0.00000000
Al       1.92630095       1.08762639       3.78500153       0.00000000      -0.01717006       0.01913415
Al       1.92630095       3.87986771       0.67506051       0.00000000       0.01717006      -0.01913415
Ni       0.00000000       0.00000000       0.00000000       0.00000000       0.00000000       0.00000000
Ni       0.00000000       2.47683212       4.73591359       0.00000000       0.00000000       0.00000000
Ni       0.00000000       4.97440884       1.95418152       0.00000000       0.00000000       0.00000000
Ni       1.92630095       1.37310155       1.23285556       0.00000000       0.07193818       0.06451408
Ni       1.92630095       3.59439255       3.22720648       0.00000000      -0.07193818      -0.06451408
16
Lattice="4.912363598278581 0.0 0.0 0.0 6.742248512818778 0.0 0.0 0.0 7.382491105471437" Properties=species:S:1:pos:R:3:forces:R:3 config_id=cfg123_Al3Ni_biaxial_xy_expansion phase=Al3Ni config_type=biaxial_xy_expansion target_role=TRAIN gap_ref=B1/cfg039 source=QE_7.6_PBE provenance=/workspace/ni_al/data/al3ni_remediation_v1/round3_production_dft/pod01/cfg123_Al3Ni_biaxial_xy_expansion/attempt_001/qe.out qe_output_sha256=cb02865c12ec0328dbdc79f4733f20c4b821aa437890d2234bc3ac9fa9ac9882 canonical_input=/workspace/ni_al/data/al3ni_remediation_v1/round3_structures/pod_05/cfg123_Al3Ni_biaxial_xy_expansion.in canonical_input_sha256=a09c3815a39f63d05d018bfb918f513398c428538fc5b25b17270392c29e9d4e energy=-25138.056346480626 stress="0.026511839751316785 -0.0 -0.0 -0.0 0.02789088360817013 -0.0 -0.0 -0.0 0.014809307930452516" pbc="T T T"
Al       4.49984836       0.05061601       1.84562326       0.02178851       0.02761693       0.00000000
Al       1.78858815       1.15508827       3.28334421      -0.01931696      -0.01194195      -0.03638671
Al       1.78858815       1.15508827       0.40790231      -0.01931696      -0.01194195       0.03638671
Al       4.24477142       2.21603648       4.09914738      -0.01931696       0.01194195       0.03638671
Al       0.66759365       4.52621056       3.28334566       0.01931696      -0.01194195      -0.03638671
Al       3.12377692       5.58715877       6.97459073       0.01931696       0.01194195      -0.03638671
Al       0.66759365       4.52621056       0.40790086       0.01931696      -0.01194195       0.03638671
Al       3.12377692       5.58715877       4.09914835       0.01931696       0.01194195       0.03638671
Al       4.24477142       2.21603648       6.97459170      -0.01931696       0.01194195      -0.03638671
Al       2.86869753       3.42173781       1.84562326      -0.02178851       0.02761693       0.00000000
Al       0.41251672       6.69163103       5.53686978      -0.02178851      -0.02761693       0.00000000
Al       2.04366754       3.32050923       5.53686978       0.02178851      -0.02761693       0.00000000
Ni       2.17652684       5.86816071       1.84562326       0.01508425      -0.00536471       0.00000000
Ni       0.27965595       2.49703645       1.84562326      -0.01508425      -0.00536471       0.00000000
Ni       2.73583824       0.87408633       5.53686978      -0.01508425       0.00536471       0.00000000
Ni       4.63270912       4.24521059       5.53686978       0.01508425       0.00536471       0.00000000
2
Lattice="2.81587001450126 0.0 0.0 0.0 2.89400823689718 0.0 0.0 0.0 2.81587001450126" Properties=species:S:1:pos:R:3:forces:R:3 config_id=cfg125_AlNi_biaxial_xz_compression phase=AlNi config_type=biaxial_xz_compression target_role=TRAIN gap_ref=B2/cfg087 source=QE_7.6_PBE provenance=/workspace/ni_al/data/al3ni_remediation_v1/round3_production_dft/pod02/cfg125_AlNi_biaxial_xz_compression/attempt_001/qe.out qe_output_sha256=f309e47cd1c1620a415fd97dba01743ebaba84632179cff92ea1a1260006be6f canonical_input=/workspace/ni_al/data/al3ni_remediation_v1/round3_structures/pod_06/cfg125_AlNi_biaxial_xz_compression.in canonical_input_sha256=71e530d6fb8241096df6e7751072f4c232ce7beb9137e939c3e9b120aebcd5af energy=-5209.270143110544 stress="-0.06712943685036128 -0.0 -0.0 -0.0 -0.051847783666641854 -0.0 -0.0 -0.0 -0.06712943685036128" pbc="T T T"
Al       1.40793501       1.44700412       1.40793501       0.00000000       0.00000000       0.00000000
Ni       0.00000000       0.00000000       0.00000000       0.00000000       0.00000000       0.00000000
5
Lattice="4.044922625911538 0.0 0.0 -2.022461312955769 3.503004117104864 0.0 0.0 0.13251228409807056 4.907862374000466" Properties=species:S:1:pos:R:3:forces:R:3 config_id=cfg127_Al3Ni2_shear_rattle_yz_positive phase=Al3Ni2 config_type=shear_rattle_yz_positive target_role=TRAIN gap_ref=C1a/cfg072 source=QE_7.6_PBE provenance=/workspace/ni_al/data/al3ni_remediation_v1/round3_production_dft/pod02/cfg127_Al3Ni2_shear_rattle_yz_positive/attempt_001/qe.out qe_output_sha256=cc79d02a2bd3615825f75fedd02c870bd66bf7b2b37f3cee1afaaa8ceb1dba58 canonical_input=/workspace/ni_al/data/al3ni_remediation_v1/round3_structures/pod_07/cfg127_Al3Ni2_shear_rattle_yz_positive.in canonical_input_sha256=3f4ed05440b352033b9feb073629fc0de1c3ecdc12f6edb4f79ba92f4e499d9a energy=-10956.474808373505 stress="-0.0034896280840526228 0.002337669439273842 -0.001166413926061529 0.002337669439273842 0.0006143122743312929 0.015177511542798812 -0.001166413926061529 0.015177511542798812 -0.002738996855083179" pbc="T T T"
Al       4.01336300       0.14853688       4.88653884       0.39764401      -0.21195539       0.12657162
Al       0.03295616       2.40344511       3.21111999      -0.22805535       0.17974275      -0.37287510
Al       2.01719601       1.21672109       1.70971788       0.04207148      -0.06494422       0.25008087
Ni      -0.00333599       2.35167186       0.73671015      -0.09213730       0.04959771      -0.06359474
Ni       2.02966364       1.28317096       4.17949984      -0.11952283       0.04755915       0.05981736
8
Lattice="3.7623065419586723 0.0 0.0 -0.014895923463452948 4.9813239600063834 -0.5517008690064054 0.13531764912027264 -0.013830238848135959 5.011764782236874" Properties=species:S:1:pos:R:3:forces:R:3 config_id=cfg129_Al3Ni5_shear_rattle_xz_positive phase=Al3Ni5 config_type=shear_rattle_xz_positive target_role=TRAIN gap_ref=C1b/cfg057 source=QE_7.6_PBE provenance=/workspace/ni_al/data/al3ni_remediation_v1/round3_production_dft/pod02/cfg129_Al3Ni5_shear_rattle_xz_positive/attempt_001/qe.out qe_output_sha256=1ba8e1d8af27b7c9ccce5564222438ad4ebcf4d4127e6430831e3e618e970150 canonical_input=/workspace/ni_al/data/al3ni_remediation_v1/round3_structures/pod_08/cfg129_Al3Ni5_shear_rattle_xz_positive.in canonical_input_sha256=a1f71dba3ff16d96540fafec80e90046282b5adb972ee3fdd35d3a6891f36326 energy=-24969.553184717857 stress="-0.0033859569607076205 0.0014935701936896978 0.017260218569535645 0.0014935701936896978 -0.0018626307094721207 0.00039387933382564896 0.017260218569535645 0.00039387933382564896 -0.0020473040341777568" pbc="T T T"
Al       3.80394776       2.49398733       2.24418311       0.34675781       0.13187283      -0.20686272
Al       2.01944852       1.06671180       3.75169260      -0.41723422       0.02666984       0.31082195
Al       1.88509994       3.88264993       0.68226953       0.06084788      -0.07804553       0.00941866
Ni       3.73256726       4.96488697      -0.49628679       0.20438530       0.08772311      -0.65307968
Ni       3.88968229       2.45152465       4.72545653       0.07894808       0.03327613       0.08033316
Ni       3.82615250       0.03632528       2.48020852       0.11481104      -0.29545351       0.45533794
Ni       1.92955565       1.38962432       1.21885850      -0.16215700      -0.01222132      -0.00451414
Ni       1.96907207       3.58426612       3.23386801      -0.22635889       0.10617844       0.00854483
2
Lattice="2.89400823689718 0.0 0.0 0.0 2.89400823689718 0.0 0.07813822239591983 0.0 2.89400823689718" Properties=species:S:1:pos:R:3:forces:R:3 config_id=cfg131_AlNi_shear_rattle_xz_positive phase=AlNi config_type=shear_rattle_xz_positive target_role=TRAIN gap_ref=C1c/cfg086 source=QE_7.6_PBE provenance=/workspace/ni_al/data/al3ni_remediation_v1/round3_production_dft/pod02/cfg131_AlNi_shear_rattle_xz_positive/attempt_001/qe.out qe_output_sha256=cfef5ec9ab3868965fd5fb386ea616c722af3b4bcd2a6de2822a8c1057e11efe canonical_input=/workspace/ni_al/data/al3ni_remediation_v1/round3_structures/pod_09/cfg131_AlNi_shear_rattle_xz_positive.in canonical_input_sha256=9a0be9ceef5084ed0a5d35205d0d092c5d974ca94e230f12b60d88803cf2aed6 energy=-5209.29933004432 stress="-0.001331197465634478 3.43851697429884e-05 0.019605977681682454 3.43851697429884e-05 -0.0014168268268730897 -0.0006985565015215581 0.019605977681682454 -0.0006985565015215581 -0.0020753205918148544" pbc="T T T"
Al       1.48559015       1.42598785       1.43747373      -0.00835919       0.24143363       0.10931663
Ni       0.00048308       0.02101627       0.00953038       0.00835919      -0.24143363      -0.10931663
2
Lattice="2.89400823689718 0.0 0.0 0.0 2.89400823689718 0.0 0.0 -0.1302303706605331 2.89400823689718" Properties=species:S:1:pos:R:3:forces:R:3 config_id=cfg133_AlNi_shear_rattle_yz_negative phase=AlNi config_type=shear_rattle_yz_negative target_role=TRAIN gap_ref="C1c/cfg088 (revised: -0.029->-0.045 to clear gate b)" source=QE_7.6_PBE provenance=/workspace/ni_al/data/al3ni_remediation_v1/round3_production_dft/pod02/cfg133_AlNi_shear_rattle_yz_negative/attempt_001/qe.out qe_output_sha256=056841c2acbd79f227215e6099ffdeac7c942c7c042be5831f718012ad0deb07 canonical_input=/workspace/ni_al/data/al3ni_remediation_v1/round3_structures/pod_10/cfg133_AlNi_shear_rattle_yz_negative.in canonical_input_sha256=0e84727bfc9b1d03a32271befad6059730116fe8e15211effa7d5d7795a85b98 energy=-5209.292751155334 stress="-0.0022522233872699247 -8.255657900727137e-05 -0.0001239368969444205 -8.255657900727137e-05 -0.0004785084963801557 -0.03276431403489837 -0.0001239368969444205 -0.03276431403489837 -0.00280341219092257" pbc="T T T"
Al       1.45109737       1.38639212       1.45483057      -0.04744120      -0.07009729      -0.10155032
Ni       2.88991499       2.75927468       2.88618179       0.04744120       0.07009729       0.10155032
4
Lattice="3.5672608190976813 0.0 0.0 0.0 3.567385673225601 0.0 -0.10345418452369444 0.0 3.567385673225601" Properties=species:S:1:pos:R:3:forces:R:3 config_id=cfg135_AlNi3_shear_rattle_xz_negative phase=AlNi3 config_type=shear_rattle_xz_negative target_role=TRAIN gap_ref=C1d/cfg100 source=QE_7.6_PBE provenance=/workspace/ni_al/data/al3ni_remediation_v1/round3_production_dft/pod01/cfg135_AlNi3_shear_rattle_xz_negative/attempt_001/qe.out qe_output_sha256=75b5f615870ab0b24f7ede77d93e12d330c111459df1dd62f3467e867a27cf93 canonical_input=/workspace/ni_al/data/al3ni_remediation_v1/round3_structures/pod_01/cfg135_AlNi3_shear_rattle_xz_negative.in canonical_input_sha256=b7f69364c4c3eebbab71919d1aba936fb77f6e1b8d2c6abcb59ab440fe597eb3 energy=-14550.784758436357 stress="-0.004002092817913155 0.0012273574406448074 -0.025746425513268313 0.0012273574406448074 -0.003239654956522584 -0.0016790640735980219 -0.025746425513268313 -0.0016790640735980219 -0.006389975853258853" pbc="T T T"
Al       0.01414892       0.01737782       0.03940953      -0.16503273      -0.32860288      -0.47591040
Ni       3.50961284       1.76615508       1.74788534       0.03226415       0.34523883       0.47128044
Ni       1.69285671       0.02830568       1.78734611       0.40380090      -0.44726434       0.13167787
Ni       1.71099484       1.75554638       3.56012892      -0.27103231       0.43062839      -0.12704791
5
Lattice="4.14200076893332 0.0 0.0 -2.0710003844666605 3.4189320182947474 0.0 0.0 0.0 4.907862374000466" Properties=species:S:1:pos:R:3:forces:R:3 config_id=cfg137_Al3Ni2_orthorhombic_xy phase=Al3Ni2 config_type=orthorhombic_xy target_role=TRAIN gap_ref=C2a/cfg071 source=QE_7.6_PBE provenance=/workspace/ni_al/data/al3ni_remediation_v1/round3_production_dft/pod01/cfg137_Al3Ni2_orthorhombic_xy/attempt_001/qe.out qe_output_sha256=b8d931db4b68c4c410e41c89f892cdf97704ceadb363f33349a6aa71ce7f8526 canonical_input=/workspace/ni_al/data/al3ni_remediation_v1/round3_structures/pod_02/cfg137_Al3Ni2_orthorhombic_xy.in canonical_input_sha256=7981ebbc320f0c77c9bfc989fac033d340516b546ca0c52ca6f08032a0b95a17 energy=-10956.468480276444 stress="0.025590286774727865 -0.0 -0.0 -0.0 -0.029581961172853635 -0.0016717308049760621 -0.0 -0.0016717308049760621 -0.0014585727142300553" pbc="T T T"
Al       0.00000000       0.00000000       0.00000000       0.00000000       0.00000000       0.00000000
Al      -0.00000290       2.27928959       3.17789306       0.00000000      -0.18377061      -0.01344379
Al       2.07100204       1.13964283       1.72996891       0.00000000       0.18377061       0.01344379
Ni      -0.00000290       2.27928959       0.71968598       0.00000000       0.03921008       0.00602243
Ni       2.07100204       1.13964283       4.18817639       0.00000000      -0.03921008      -0.00602243
2
Lattice="2.89400823689718 0.0 0.0 0.0 2.963464434582664 0.0 0.0 0.0 2.8245520392116963" Properties=species:S:1:pos:R:3:forces:R:3 config_id=cfg139_AlNi_orthorhombic_yz phase=AlNi config_type=orthorhombic_yz target_role=TRAIN gap_ref=C2b/cfg085 source=QE_7.6_PBE provenance=/workspace/ni_al/data/al3ni_remediation_v1/round3_production_dft/pod01/cfg139_AlNi_orthorhombic_yz/attempt_001/qe.out qe_output_sha256=73ab00b87af4d87db220cc0f14a35f8e62b1b93917ad0365530f276110049dc5 canonical_input=/workspace/ni_al/data/al3ni_remediation_v1/round3_structures/pod_03/cfg139_AlNi_orthorhombic_yz.in canonical_input_sha256=72159bed47a6fef1fd7d9cf089efa6a886165a1d844bfa37402eeed3e72f53d6 energy=-5209.304615275828 stress="0.0010710802712135363 -0.0 -0.0 -0.0 0.008795950428048836 -0.0 -0.0 -0.0 -0.014042797129112624" pbc="T T T"
Al       1.44700412       1.48173222       1.41227602       0.00000000       0.00000000       0.00000000
Ni       0.00000000       0.00000000       0.00000000       0.00000000       0.00000000       0.00000000
4
Lattice="3.6528750787558093 0.0 0.0 0.0 3.567385673225601 0.0 0.0 0.0 3.481768417068474" Properties=species:S:1:pos:R:3:forces:R:3 config_id=cfg141_AlNi3_orthorhombic_xz phase=AlNi3 config_type=orthorhombic_xz target_role=TRAIN gap_ref=C2c/cfg097 source=QE_7.6_PBE provenance=/workspace/ni_al/data/al3ni_remediation_v1/round3_production_dft/pod01/cfg141_AlNi3_orthorhombic_xz/attempt_001/qe.out qe_output_sha256=f2ec681665f4244b36ad108116ad660bd8d7fb8e90043388156e47e13c1c5796 canonical_input=/workspace/ni_al/data/al3ni_remediation_v1/round3_structures/pod_04/cfg141_AlNi3_orthorhombic_xz.in canonical_input_sha256=76412c5bc685aa42ce8f2f349d2bbec75386c282297976d9d216977f8cff0f56 energy=-14550.833104035297 stress="0.014405588706666899 -0.0 -0.0 -0.0 -0.003097349311704443 -0.0 -0.0 -0.0 -0.014594000063459452" pbc="T T T"
Al       0.00000000       0.00000000       0.00000000       0.00000000       0.00000000       0.00000000
Ni       0.00000000       1.78369248       1.74088351       0.00000000       0.00000000       0.00000000
Ni       1.82643754       0.00000000       1.74088351       0.00000000       0.00000000       0.00000000
Ni       1.82643754       1.78369248       0.00000000       0.00000000       0.00000000       0.00000000
8
Lattice="3.6720111849515447 0.0 0.0 0.0 4.9813239600063834 -0.5384600481498919 0.0 -0.013830238848135959 4.891482427462964" Properties=species:S:1:pos:R:3:forces:R:3 config_id=cfg143_Al3Ni5_biaxial_xz_compression phase=Al3Ni5 config_type=biaxial_xz_compression target_role=TRAIN gap_ref=cfg058_Al3Ni5_biaxial_xz_compression design_tag=outer source=QE_7.6_PBE provenance=/workspace/ni_al/data/al3ni_remediation_v1/round4_production_dft/cfg143_Al3Ni5_biaxial_xz_compression/attempt_001/qe.out qe_output_sha256=f1db665b17c34cd3b2b5f4721a3fa69b174c339bb2eaeca7f996587aebd35d48 canonical_input=/workspace/ni_al/data/al3ni_remediation_v1/round4_structures/round4_al3ni5/cfg143_Al3Ni5_biaxial_xz_compression.in canonical_input_sha256=e75eadf0abbf3ed9297e8d3f2385fe81385ef5c1079274d9d359cb86867f437c energy=-24969.474147061297 stress="-0.06639250100516403 -0.0 -0.0 -0.0 -0.03267854807089818 -0.003053933544221398 -0.0 -0.003053933544221398 -0.07641581885894291" pbc="T T T"
Al       0.00000000       2.48374724       2.17651009       0.00000000       0.00000000       0.00000000
Al       1.83600559       1.08762639       3.69416149       0.00000000      -0.00991486      -0.08522298
Al       1.83600559       3.87986771       0.65885906       0.00000000       0.00991486       0.08522298
Ni       0.00000000       0.00000000       0.00000000       0.00000000       0.00000000       0.00000000
Ni       0.00000000       2.47683212       4.62225167       0.00000000       0.00000000       0.00000000
Ni       0.00000000       4.97440884       1.90728116       0.00000000       0.00000000       0.00000000
Ni       1.83600559       1.37310155       1.20326703       0.00000000      -0.06731231      -0.00883874
Ni       1.83600559       3.59439255       3.14975352       0.00000000       0.06731231       0.00883874
4
Lattice="3.5672608190976813 0.0 0.0 0.0 3.663705086402868 0.0 0.0 0.0 3.663705086402868" Properties=species:S:1:pos:R:3:forces:R:3 config_id=cfg145_AlNi3_biaxial_yz_expansion phase=AlNi3 config_type=biaxial_yz_expansion target_role=TRAIN gap_ref=cfg099_AlNi3_biaxial_yz_expansion design_tag=outer source=QE_7.6_PBE provenance=/workspace/ni_al/data/al3ni_remediation_v1/round4_production_dft/cfg145_AlNi3_biaxial_yz_expansion/attempt_001/qe.out qe_output_sha256=ed8eae268316117bce0e5bbe98275d188ecd402a105a8b2735893f6d7344c0e6 canonical_input=/workspace/ni_al/data/al3ni_remediation_v1/round4_structures/round4_alni3/cfg145_AlNi3_biaxial_yz_expansion.in canonical_input_sha256=3a5953496b8f7a8051469cd4e60e6a7fed012b7075249a00f83c55ba3def1de0 energy=-14550.774113255957 stress="0.044451620511120435 -0.0 -0.0 -0.0 0.0578646983262411 -0.0 -0.0 -0.0 0.0578646983262411" pbc="T T T"
Al       0.00000000       0.00000000       0.00000000       0.00000000       0.00000000       0.00000000
Ni       0.00000000       1.83185218       1.83185181       0.00000000       0.00000000       0.00000000
Ni       1.78363041       0.00000000       1.83185181       0.00000000       0.00000000       0.00000000
Ni       1.78363041       1.83185218       0.00000000       0.00000000       0.00000000       0.00000000
2
Lattice="2.850598113344002 0.0 0.0 0.0 2.89400823689718 0.0 0.0 0.0 2.89400823689718" Properties=species:S:1:pos:R:3:forces:R:3 config_id=cfg146_AlNi_uniaxial_x_compression phase=AlNi config_type=uniaxial target_role=TRAIN magnitude_source="cross-phase median" source=QE_7.6_PBE provenance=/workspace/ni_al/data/al3ni_remediation_v1/round300_production_dft/pod04/cfg146_AlNi_uniaxial_x_compression/attempt_001/qe.out qe_output_sha256=d6d59df2443b9e52e4b3678f3b651827b00d8247b09df0d9c3a74337ac76e2c7 canonical_input=/workspace/ni_al/data/al3ni_remediation_v1/round300_structures/round300_alni/cfg146_AlNi_uniaxial_x_compression.in canonical_input_sha256=c2f9787a4788aa9b1817a01e32b9523e13b6a55c0efdd7cf111853249de36fb1 energy=-5209.307774588 stress="-0.022275147283918995 -0.0 -0.0 -0.0 -0.01265928581300172 -0.0 -0.0 -0.0 -0.01265928581300172" pbc="T T T"
Al       1.42529906       1.44700412       1.44700412       0.00000000       0.00000000       0.00000000
Ni       0.00000000       0.00000000       0.00000000       0.00000000       0.00000000       0.00000000
2
Lattice="2.89400823689718 0.0 0.0 0.0 2.9374183604503576 0.0 0.0 0.0 2.89400823689718" Properties=species:S:1:pos:R:3:forces:R:3 config_id=cfg147_AlNi_uniaxial_y_expansion phase=AlNi config_type=uniaxial target_role=TRAIN magnitude_source="cross-phase median" source=QE_7.6_PBE provenance=/workspace/ni_al/data/al3ni_remediation_v1/round300_production_dft/pod09/cfg147_AlNi_uniaxial_y_expansion/attempt_001/qe.out qe_output_sha256=e35198d75021edb1fecc42bbd90aea14d2b71661607490dca5715c46a121009e canonical_input=/workspace/ni_al/data/al3ni_remediation_v1/round300_structures/round300_alni/cfg147_AlNi_uniaxial_y_expansion.in canonical_input_sha256=f020ce4661876825e722b27eacddd3609fab6106e2a57780c53b3018c1db24b8 energy=-5209.308366976156 stress="0.011794706306516948 -0.0 -0.0 -0.0 0.01890366968887724 -0.0 -0.0 -0.0 0.011794706306516948" pbc="T T T"
Al       1.44700412       1.46870918       1.44700412       0.00000000       0.00000000       0.00000000
Ni       0.00000000       0.00000000       0.00000000       0.00000000       0.00000000       0.00000000
2
Lattice="2.89400823689718 0.0 0.0 0.0 2.850598113344002 0.0 0.0 0.0 2.89400823689718" Properties=species:S:1:pos:R:3:forces:R:3 config_id=cfg148_AlNi_uniaxial_y_compression phase=AlNi config_type=uniaxial target_role=TRAIN magnitude_source="cross-phase median" source=QE_7.6_PBE provenance=/workspace/ni_al/data/al3ni_remediation_v1/round300_production_dft/pod10/cfg148_AlNi_uniaxial_y_compression/attempt_001/qe.out qe_output_sha256=b5d8f5b8166b0a2459eeead11e8e32c0d14563e928e45f9e76fb57ec3afe0f51 canonical_input=/workspace/ni_al/data/al3ni_remediation_v1/round300_structures/round300_alni/cfg148_AlNi_uniaxial_y_compression.in canonical_input_sha256=9c442553941d99417f6aa07c8de55344ac00e20ad598a7fb767dcdbab039e187 energy=-5209.307774587887 stress="-0.012439180338643354 -0.0 -0.0 -0.0 -0.022054872434609907 -0.0 -0.0 -0.0 -0.012439180338643354" pbc="T T T"
Al       1.44700412       1.42529906       1.44700412       0.00000000       0.00000000       0.00000000
Ni       0.00000000       0.00000000       0.00000000       0.00000000       0.00000000       0.00000000
2
Lattice="2.89400823689718 0.0 0.0 0.0 2.89400823689718 0.0 0.0 0.0 2.9374183604503576" Properties=species:S:1:pos:R:3:forces:R:3 config_id=cfg149_AlNi_uniaxial_z_expansion phase=AlNi config_type=uniaxial target_role=TRAIN magnitude_source="cross-phase median" source=QE_7.6_PBE provenance=/workspace/ni_al/data/al3ni_remediation_v1/round300_production_dft/pod07/cfg149_AlNi_uniaxial_z_expansion/attempt_001/qe.out qe_output_sha256=f35b8113c3411e907d76374587d2f224910ec1647224fd1465d8a5461b620071 canonical_input=/workspace/ni_al/data/al3ni_remediation_v1/round300_structures/round300_alni/cfg149_AlNi_uniaxial_z_expansion.in canonical_input_sha256=9b756092313285d0f2cf891acc81edbc71d492eafb5ce0db4aa8b2f486f6ff4c energy=-5209.30836697587 stress="0.011716994336442051 -0.0 -0.0 -0.0 0.011716994336442051 -0.0 -0.0 -0.0 0.018826070352267573" pbc="T T T"
Al       1.44700412       1.44700412       1.46870918       0.00000000       0.00000000       0.00000000
Ni       0.00000000       0.00000000       0.00000000       0.00000000       0.00000000       0.00000000
2
Lattice="2.89400823689718 0.0 0.0 0.0 2.89400823689718 0.0 0.0 0.0 2.850598113344002" Properties=species:S:1:pos:R:3:forces:R:3 config_id=cfg150_AlNi_uniaxial_z_compression phase=AlNi config_type=uniaxial target_role=TRAIN magnitude_source="mirrored/fallback median" source=QE_7.6_PBE provenance=/workspace/ni_al/data/al3ni_remediation_v1/round300_production_dft/pod05/cfg150_AlNi_uniaxial_z_compression/attempt_001/qe.out qe_output_sha256=7771fe81afb79eba09e3ddebc4ee2287d4b77819206b96fb4e236f4572e8be3a canonical_input=/workspace/ni_al/data/al3ni_remediation_v1/round300_structures/round300_alni/cfg150_AlNi_uniaxial_z_compression.in canonical_input_sha256=581ed891e67a9b07cf42a761ab933636866a02b6976e2f20de64eabc80f1d9a5 energy=-5209.307774588579 stress="-0.012596539594742938 -0.0 -0.0 -0.0 -0.012596539594742938 -0.0 -0.0 -0.0 -0.02221221767992641" pbc="T T T"
Al       1.44700412       1.44700412       1.42529906       0.00000000       0.00000000       0.00000000
Ni       0.00000000       0.00000000       0.00000000       0.00000000       0.00000000       0.00000000
2
Lattice="2.81587001450126 0.0 0.0 0.0 2.81587001450126 0.0 0.0 0.0 2.89400823689718" Properties=species:S:1:pos:R:3:forces:R:3 config_id=cfg152_AlNi_biaxial_xy_compression phase=AlNi config_type=biaxial target_role=TRAIN magnitude_source="cross-phase median" source=QE_7.6_PBE provenance=/workspace/ni_al/data/al3ni_remediation_v1/round300_production_dft/pod06/cfg152_AlNi_biaxial_xy_compression/attempt_001/qe.out qe_output_sha256=7f8b83f8dcde368a2598b6f78001b71704db5ff11655e34130548e19dfe97304 canonical_input=/workspace/ni_al/data/al3ni_remediation_v1/round300_structures/round300_alni/cfg152_AlNi_biaxial_xy_compression.in canonical_input_sha256=00cde59899aed62c41b3a5bd5eb2a46d3aee94d9913f3d40b56aa2c92b4b1047 energy=-5209.270143110491 stress="-0.06714094672075743 -0.0 -0.0 -0.0 -0.06714094672075743 -0.0 -0.0 -0.0 -0.05185921505743926" pbc="T T T"
Al       1.40793501       1.40793501       1.44700412       0.00000000       0.00000000       0.00000000
Ni       0.00000000       0.00000000       0.00000000       0.00000000       0.00000000       0.00000000
2
Lattice="2.967805446937882 0.0 0.0 0.0 2.89400823689718 0.0 0.0 0.0 2.967805446937882" Properties=species:S:1:pos:R:3:forces:R:3 config_id=cfg153_AlNi_biaxial_xz_expansion phase=AlNi config_type=biaxial target_role=TRAIN magnitude_source="mirrored/fallback median" source=QE_7.6_PBE provenance=/workspace/ni_al/data/al3ni_remediation_v1/round300_production_dft/pod04/cfg153_AlNi_biaxial_xz_expansion/attempt_001/qe.out qe_output_sha256=1e7c23861b5031567b2af3c5f62d678ae45f1a53d0ebd5963d05f80271b02a4f canonical_input=/workspace/ni_al/data/al3ni_remediation_v1/round300_structures/round300_alni/cfg153_AlNi_biaxial_xz_expansion.in canonical_input_sha256=92c787c4b8a0813c563c59d252a0ee4737162015ef4ca48ec918b06ebd72f665 energy=-5209.280085876865 stress="0.04867640165476982 -0.0 -0.0 -0.0 0.03640038452314512 -0.0 -0.0 -0.0 0.04867640165476982" pbc="T T T"
Al       1.48390272       1.44700412       1.48390272       0.00000000       0.00000000       0.00000000
Ni       0.00000000       0.00000000       0.00000000       0.00000000       0.00000000       0.00000000
2
Lattice="2.89400823689718 0.0 0.0 0.0 2.9721464592931004 0.0 0.0 0.0 2.9721464592931004" Properties=species:S:1:pos:R:3:forces:R:3 config_id=cfg154_AlNi_biaxial_yz_expansion phase=AlNi config_type=biaxial target_role=TRAIN magnitude_source="cross-phase median" source=QE_7.6_PBE provenance=/workspace/ni_al/data/al3ni_remediation_v1/round300_production_dft/pod08/cfg154_AlNi_biaxial_yz_expansion/attempt_001/qe.out qe_output_sha256=050d6396023d1e3e3b3377bea099a369f0c0c43c5c12eac3cda5c3c6c8dc8acb canonical_input=/workspace/ni_al/data/al3ni_remediation_v1/round300_structures/round300_alni/cfg154_AlNi_biaxial_yz_expansion.in canonical_input_sha256=89f9e42a0db9438dfe62393f7a82512c1009c746cc94127cfd20782cb890952d energy=-5209.27637901806 stress="0.03827164435984072 -0.0 -0.0 -0.0 0.051059390479545955 -0.0 -0.0 -0.0 0.05105939047954594" pbc="T T T"
Al       1.44700412       1.48607323       1.48607323       0.00000000       0.00000000       0.00000000
Ni       0.00000000       0.00000000       0.00000000       0.00000000       0.00000000       0.00000000
2
Lattice="2.89400823689718 0.0 0.0 0.0 2.81587001450126 0.0 0.0 0.0 2.81587001450126" Properties=species:S:1:pos:R:3:forces:R:3 config_id=cfg155_AlNi_biaxial_yz_compression phase=AlNi config_type=biaxial target_role=TRAIN magnitude_source="mirrored/fallback median" source=QE_7.6_PBE provenance=/workspace/ni_al/data/al3ni_remediation_v1/round300_production_dft/pod01/cfg155_AlNi_biaxial_yz_compression/attempt_001/qe.out qe_output_sha256=69793c6bf60ba49bef98afd823122ced220089399f88755126726846f00e957c canonical_input=/workspace/ni_al/data/al3ni_remediation_v1/round300_structures/round300_alni/cfg155_AlNi_biaxial_yz_compression.in canonical_input_sha256=877a85a616ab2d763836f17708501ba41812ab5edc4593fdf4b4bc9d485ad990 energy=-5209.270143110349 stress="-0.05188893443591863 -0.0 -0.0 -0.0 -0.06717078434044679 -0.0 -0.0 -0.0 -0.06717078434044679" pbc="T T T"
Al       1.44700412       1.40793501       1.40793501       0.00000000       0.00000000       0.00000000
Ni       0.00000000       0.00000000       0.00000000       0.00000000       0.00000000       0.00000000
2
Lattice="2.950441397517011 0.0 0.0 0.0 2.837575076277349 0.0 0.0 0.0 2.89400823689718" Properties=species:S:1:pos:R:3:forces:R:3 config_id=cfg156_AlNi_orthorhombic_xy_expansion phase=AlNi config_type=orthorhombic target_role=TRAIN magnitude_source="cross-phase median" source=QE_7.6_PBE provenance=/workspace/ni_al/data/al3ni_remediation_v1/round300_production_dft/pod02/cfg156_AlNi_orthorhombic_xy_expansion/attempt_001/qe.out qe_output_sha256=b5f4811cfeefb195f3316ba1ad723a138affacbfd035a3c87491f93c055373bc canonical_input=/workspace/ni_al/data/al3ni_remediation_v1/round300_structures/round300_alni/cfg156_AlNi_orthorhombic_xy_expansion.in canonical_input_sha256=10ca0bd87f1ba1d756695cf64c4eecf0c0f62b56f8c9c120f89c124845a1cb8f energy=-5209.306926817153 stress="0.007609359400178899 -0.0 -0.0 -0.0 -0.01169698246634984 -0.0 -0.0 -0.0 0.0007963663723712347" pbc="T T T"
Al       1.47522070       1.41878754       1.44700412       0.00000000       0.00000000       0.00000000
Ni       0.00000000       0.00000000       0.00000000       0.00000000       0.00000000       0.00000000
2
Lattice="2.837575076277349 0.0 0.0 0.0 2.950441397517011 0.0 0.0 0.0 2.89400823689718" Properties=species:S:1:pos:R:3:forces:R:3 config_id=cfg157_AlNi_orthorhombic_xy_compression phase=AlNi config_type=orthorhombic target_role=TRAIN magnitude_source="mirrored/fallback median" source=QE_7.6_PBE provenance=/workspace/ni_al/data/al3ni_remediation_v1/round300_production_dft/pod03/cfg157_AlNi_orthorhombic_xy_compression/attempt_001/qe.out qe_output_sha256=ffc1ba7b577ed9dbb9ec7bb1332cb858f10fb8d5f17d2261fa76b5a1063fbbe0 canonical_input=/workspace/ni_al/data/al3ni_remediation_v1/round300_structures/round300_alni/cfg157_AlNi_orthorhombic_xy_compression.in canonical_input_sha256=1845df9487ef42bdb082d0390efba58a29b06cda8cb89605b1c1c38982ff8c15 energy=-5209.3069268173085 stress="-0.011673494127077681 -0.0 -0.0 -0.0 0.007632698294106218 -0.0 -0.0 -0.0 0.0008199845521573957" pbc="T T T"
Al       1.41878754       1.47522070       1.44700412       0.00000000       0.00000000       0.00000000
Ni       0.00000000       0.00000000       0.00000000       0.00000000       0.00000000       0.00000000
2
Lattice="2.963464434582664 0.0 0.0 0.0 2.89400823689718 0.0 0.0 0.0 2.8245520392116963" Properties=species:S:1:pos:R:3:forces:R:3 config_id=cfg158_AlNi_orthorhombic_xz_expansion phase=AlNi config_type=orthorhombic target_role=TRAIN magnitude_source="cross-phase median" source=QE_7.6_PBE provenance=/workspace/ni_al/data/al3ni_remediation_v1/round300_production_dft/pod09/cfg158_AlNi_orthorhombic_xz_expansion/attempt_001/qe.out qe_output_sha256=64b777869cecfba72835e22084ef2d552779f52681227f23df49368724b3c840 canonical_input=/workspace/ni_al/data/al3ni_remediation_v1/round300_structures/round300_alni/cfg158_AlNi_orthorhombic_xz_expansion.in canonical_input_sha256=5d5c731bff2c7e1b79a56e03140d40ec3f15e6c84fb3c034aa338e2d37f19a13 energy=-5209.3046152757925 stress="0.008801262877939729 -0.0 -0.0 -0.0 0.0010762114052068098 -0.0 -0.0 -0.0 -0.01403772546270805" pbc="T T T"
Al       1.48173222       1.44700412       1.41227602       0.00000000       0.00000000       0.00000000
Ni       0.00000000       0.00000000       0.00000000       0.00000000       0.00000000       0.00000000
2
Lattice="2.8245520392116963 0.0 0.0 0.0 2.89400823689718 0.0 0.0 0.0 2.9634644345826646" Properties=species:S:1:pos:R:3:forces:R:3 config_id=cfg159_AlNi_orthorhombic_xz_compression phase=AlNi config_type=orthorhombic target_role=TRAIN magnitude_source="mirrored/fallback median" source=QE_7.6_PBE provenance=/workspace/ni_al/data/al3ni_remediation_v1/round300_production_dft/pod10/cfg159_AlNi_orthorhombic_xz_compression/attempt_001/qe.out qe_output_sha256=90138459e85d8645d8c580ea5d77179caa32124cec965f4ccb794254361f64f2 canonical_input=/workspace/ni_al/data/al3ni_remediation_v1/round300_structures/round300_alni/cfg159_AlNi_orthorhombic_xz_compression.in canonical_input_sha256=6d157c9f15ca219b6f48d5467dfaeeda54802d0f7e001416597e628a7f86abfb energy=-5209.304615275689 stress="-0.014075395476516074 -0.0 -0.0 -0.0 0.001038304427838419 -0.0 -0.0 -0.0 0.008763441803971872" pbc="T T T"
Al       1.41227602       1.44700412       1.48173222       0.00000000       0.00000000       0.00000000
Ni       0.00000000       0.00000000       0.00000000       0.00000000       0.00000000       0.00000000
2
Lattice="2.89400823689718 0.0 0.0 0.0 2.837575076277349 0.0 0.0 0.0 2.9504413975170114" Properties=species:S:1:pos:R:3:forces:R:3 config_id=cfg160_AlNi_orthorhombic_yz_compression phase=AlNi config_type=orthorhombic target_role=TRAIN magnitude_source="mirrored/fallback median" source=QE_7.6_PBE provenance=/workspace/ni_al/data/al3ni_remediation_v1/round300_production_dft/pod07/cfg160_AlNi_orthorhombic_yz_compression/attempt_001/qe.out qe_output_sha256=7168a0d1b06d6b64345e5cabc051c7a14e4a4107370a8b23261ff3a06be1bdd2 canonical_input=/workspace/ni_al/data/al3ni_remediation_v1/round300_structures/round300_alni/cfg160_AlNi_orthorhombic_yz_compression.in canonical_input_sha256=7295943c03de367303fe95651f1fcfd0d71cfebd6edecacf142aa86658107277 energy=-5209.306926817489 stress="0.0008565862551074544 -0.0 -0.0 -0.0 -0.011636628925627782 -0.0 -0.0 -0.0 0.007669455446795996" pbc="T T T"
Al       1.44700412       1.41878754       1.47522070       0.00000000       0.00000000       0.00000000
Ni       0.00000000       0.00000000       0.00000000       0.00000000       0.00000000       0.00000000
2
Lattice="2.89400823689718 0.0 0.0 0.0 2.89400823689718 0.0 -0.08392623887021024 0.0 2.89400823689718" Properties=species:S:1:pos:R:3:forces:R:3 config_id=cfg166_AlNi_shear_rattle_xz_negative phase=AlNi config_type=shear_rattle target_role=TRAIN magnitude_source="cross-phase median" source=QE_7.6_PBE provenance=/workspace/ni_al/data/al3ni_remediation_v1/round300_production_dft/pod07/cfg166_AlNi_shear_rattle_xz_negative/attempt_001/qe.out qe_output_sha256=5b26759acd43d8a42d7e513f589026a99c109fe2b5955f0ef71f0080bac4dd7b canonical_input=/workspace/ni_al/data/al3ni_remediation_v1/round300_structures/round300_alni/cfg166_AlNi_shear_rattle_xz_negative.in canonical_input_sha256=7afee2e94a414387802304cd181ad8ba05e65c2eb38858486d902502b975bce7 energy=-5209.294508221807 stress="-0.0019513439711579825 -5.519434406168369e-05 -0.02099036866329928 -5.519434406168369e-05 -0.0025927568504631646 -0.000650731762874254 -0.02099036866329928 -0.000650731762874254 -0.0019702305620819703" pbc="T T T"
Al       1.40440170       1.45346890       1.47578337      -0.03753582      -0.07505602      -0.32967151
Ni       2.81072129       2.88754346       2.86522899       0.03753582       0.07505602       0.32967151
2
Lattice="3.027132615794858 0.0 0.0 0.0 3.027132615794858 0.0 0.0 0.0 3.027132615794858" Properties=species:S:1:pos:R:3:forces:R:3 config_id=cfg170_AlNi_volume_rattle_expansion phase=AlNi config_type=volume_rattle target_role=TRAIN magnitude_source="cross-phase median" source=QE_7.6_PBE provenance=/workspace/ni_al/data/al3ni_remediation_v1/round300_production_dft/pod05/cfg170_AlNi_volume_rattle_expansion/attempt_001/qe.out qe_output_sha256=f074589a5a43b0df1e11cb5507afee058ee790bc83d87a7374035aa0ef8d321b canonical_input=/workspace/ni_al/data/al3ni_remediation_v1/round300_structures/round300_alni/cfg170_AlNi_volume_rattle_expansion.in canonical_input_sha256=ec4a4eb6e58aa43a5e9a8320a9c672c361c63368ca7b4684c724f3277218b77f energy=-5209.111470210124 stress="0.09918902531221119 3.2234783722934745e-05 4.155432429039043e-05 3.2234783722934745e-05 0.0992738779619156 -0.0006260229714717064 4.155432429039043e-05 -0.0006260229714717064 0.09932985497950392" pbc="T T T"
Al       1.51456828       1.49842223       1.49399527      -0.00617545       0.09300046       0.11989672
Ni       3.02613064       0.01514408       0.01957104       0.00617545      -0.09300046      -0.11989672
16
Lattice="4.9196018550539415 0.0 0.0 0.0 6.623033902572181 0.0 0.0 0.0 7.382491105471437" Properties=species:S:1:pos:R:3:forces:R:3 config_id=cfg172_Al3Ni_uniaxial_x_expansion phase=Al3Ni config_type=uniaxial target_role=TRAIN magnitude_source="cross-phase median" source=QE_7.6_PBE provenance=/workspace/ni_al/data/al3ni_remediation_v1/round300_production_dft/pod08/cfg172_Al3Ni_uniaxial_x_expansion/attempt_001/qe.out qe_output_sha256=7a8d3cd106443030db167880e8e26d3a504c8944baefe0cb1653d2f6f562b344 canonical_input=/workspace/ni_al/data/al3ni_remediation_v1/round300_structures/round300_al3ni/cfg172_Al3Ni_uniaxial_x_expansion.in canonical_input_sha256=9a955f7e6910ecc3d5df15c9dc9dc214f138a33100110ba3799d7870c2a05c8c energy=-25138.123764682707 stress="0.022691939442749356 -0.0 -0.0 -0.0 0.007152035614228609 -0.0 -0.0 -0.0 0.00815342513397438" pbc="T T T"
Al       4.50647878       0.04972103       1.84562326      -0.03481505      -0.00020403       0.00000000
Al       1.79122359       1.13466431       3.28334421      -0.04465332       0.03703331       0.02161130
Al       1.79122359       1.13466431       0.40790231      -0.04465332       0.03703331      -0.02161130
Al       4.25102600       2.17685313       4.09914738      -0.04465332      -0.03703331      -0.02161130
Al       0.66857733       4.44617933       3.28334566       0.04465332       0.03703331       0.02161130
Al       3.12837974       5.48836815       6.97459073       0.04465332      -0.03703331       0.02161130
Al       0.66857733       4.44617933       0.40790086       0.04465332       0.03703331      -0.02161130
Al       3.12837974       5.48836815       4.09914835       0.04465332      -0.03703331      -0.02161130
Al       4.25102600       2.17685313       6.97459170      -0.04465332      -0.03703331       0.02161130
Al       2.87292449       3.36123557       1.84562326       0.03481505      -0.00020403       0.00000000
Al       0.41312455       6.57331143       5.53686978       0.03481505       0.00020403       0.00000000
Al       2.04667884       3.26179689       5.53686978      -0.03481505       0.00020403       0.00000000
Ni       2.17973390       5.76440149       1.84562326       0.04878554      -0.04033906       0.00000000
Ni       0.28006802       2.45288453       1.84562326      -0.04878554      -0.04033906       0.00000000
Ni       2.73986943       0.85863097       5.53686978      -0.04878554       0.04033906       0.00000000
Ni       4.63953532       4.17014793       5.53686978       0.04878554       0.04033906       0.00000000
16
Lattice="4.825504516972251 0.0 0.0 0.0 6.523688394033855 0.0 0.0 0.0 7.382491105471437" Properties=species:S:1:pos:R:3:forces:R:3 config_id=cfg173_Al3Ni_uniaxial_y_compression phase=Al3Ni config_type=uniaxial target_role=TRAIN magnitude_source="cross-phase median" source=QE_7.6_PBE provenance=/workspace/ni_al/data/al3ni_remediation_v1/round300_production_dft/pod09/cfg173_Al3Ni_uniaxial_y_compression/attempt_001/qe.out qe_output_sha256=0677f7350ab3115d95e55380f62dd9d6a796e23486fe7b70e2c6ccf067dd6026 canonical_input=/workspace/ni_al/data/al3ni_remediation_v1/round300_structures/round300_al3ni/cfg173_Al3Ni_uniaxial_y_compression.in canonical_input_sha256=e2e3d519ebd9b71163d4bbfe2be176f3d27abdb30c8debb9e26e2ed0aab44983 energy=-25138.142141447694 stress="-0.006025863269470252 -0.0 -0.0 -0.0 -0.020162890738924657 -0.0 -0.0 -0.0 -0.007381364851926501" pbc="T T T"
Al       4.42028326       0.04897521       1.84562326      -0.05378060      -0.03573832       0.00000000
Al       1.75696282       1.11764434       3.28334421      -0.02751896       0.04924947       0.05647682
Al       1.75696282       1.11764434       0.40790231      -0.02751896       0.04924947      -0.05647682
Al       4.16971653       2.14420033       4.09914738      -0.02751896      -0.04924947      -0.05647682
Al       0.65578944       4.37948664       3.28334566       0.02751896       0.04924947       0.05647682
Al       3.06854315       5.40604262       6.97459073       0.02751896      -0.04924947       0.05647682
Al       0.65578944       4.37948664       0.40790086       0.02751896       0.04924947      -0.05647682
Al       3.06854315       5.40604262       4.09914835       0.02751896      -0.04924947      -0.05647682
Al       4.16971653       2.14420033       6.97459170      -0.02751896      -0.04924947       0.05647682
Al       2.81797400       3.31081703       1.84562326       0.05378060      -0.03573832       0.00000000
Al       0.40522271       6.47471175       5.53686978       0.05378060       0.03573832       0.00000000
Al       2.00753197       3.21286993       5.53686978      -0.05378060       0.03573832       0.00000000
Ni       2.13804208       5.67793546       1.84562326       0.02416520      -0.02237022       0.00000000
Ni       0.27471115       2.41609126       1.84562326      -0.02416520      -0.02237022       0.00000000
Ni       2.68746389       0.84575150       5.53686978      -0.02416520       0.02237022       0.00000000
Ni       4.55079482       4.10759571       5.53686978       0.02416520       0.02237022       0.00000000
16
Lattice="4.825504516972251 0.0 0.0 0.0 6.623033902572181 0.0 0.0 0.0 7.49322847205346" Properties=species:S:1:pos:R:3:forces:R:3 config_id=cfg174_Al3Ni_uniaxial_z_expansion phase=Al3Ni config_type=uniaxial target_role=TRAIN magnitude_source="cross-phase median" source=QE_7.6_PBE provenance=/workspace/ni_al/data/al3ni_remediation_v1/round300_production_dft/pod10/cfg174_Al3Ni_uniaxial_z_expansion/attempt_001/qe.out qe_output_sha256=f05279ce5b4db77d16e6e18df603e5c3a4b31ffaa0219a5fa14805b1069270a6 canonical_input=/workspace/ni_al/data/al3ni_remediation_v1/round300_structures/round300_al3ni/cfg174_Al3Ni_uniaxial_z_expansion.in canonical_input_sha256=e5996d8305dc0084e5cac2aeda4134cffca565447b9cbf30416dd6d8f4ab7888 energy=-25138.143407388336 stress="0.00608588201125998 -0.0 -0.0 -0.0 0.006821840832240752 -0.0 -0.0 -0.0 0.01890227774790894" pbc="T T T"
Al       4.42028326       0.04972103       1.87330761      -0.00930041      -0.03925373       0.00000000
Al       1.75696282       1.13466431       3.33259437      -0.00276721      -0.00458420       0.02374831
Al       1.75696282       1.13466431       0.41402084      -0.00276721      -0.00458420      -0.02374831
Al       4.16971653       2.17685313       4.16063459      -0.00276721       0.00458420      -0.02374831
Al       0.65578944       4.44617933       3.33259584       0.00276721      -0.00458420       0.02374831
Al       3.06854315       5.48836815       7.07920959       0.00276721       0.00458420       0.02374831
Al       0.65578944       4.44617933       0.41401937       0.00276721      -0.00458420      -0.02374831
Al       3.06854315       5.48836815       4.16063557       0.00276721       0.00458420      -0.02374831
Al       4.16971653       2.17685313       7.07921057      -0.00276721       0.00458420       0.02374831
Al       2.81797400       3.36123557       1.87330761       0.00930041      -0.03925373       0.00000000
Al       0.40522271       6.57331143       5.61992282       0.00930041       0.03925373       0.00000000
Al       2.00753197       3.26179689       5.61992282      -0.00930041       0.03925373       0.00000000
Ni       2.13804208       5.76440149       1.87330761      -0.02619630      -0.00922014       0.00000000
Ni       0.27471115       2.45288453       1.87330761       0.02619630      -0.00922014       0.00000000
Ni       2.68746389       0.85863097       5.61992282       0.02619630       0.00922014       0.00000000
Ni       4.55079482       4.17014793       5.61992282      -0.02619630       0.00922014       0.00000000
16
Lattice="4.825504516972251 0.0 0.0 0.0 6.623033902572181 0.0 0.0 0.0 7.271753738889409" Properties=species:S:1:pos:R:3:forces:R:3 config_id=cfg175_Al3Ni_uniaxial_z_compression phase=Al3Ni config_type=uniaxial target_role=TRAIN magnitude_source="mirrored/fallback median" source=QE_7.6_PBE provenance=/workspace/ni_al/data/al3ni_remediation_v1/round300_production_dft/pod08/cfg175_Al3Ni_uniaxial_z_compression/attempt_001/qe.out qe_output_sha256=b5d2643de9fc11d942db560a9afdc60498469c904c9b2f039387edfa4dc12515 canonical_input=/workspace/ni_al/data/al3ni_remediation_v1/round300_structures/round300_al3ni/cfg175_Al3Ni_uniaxial_z_compression.in canonical_input_sha256=a819dffdba03de9caae64ccf7ace9b85fcc26219074c3dea3446812491e34689 energy=-25138.140613433254 stress="-0.0068125633939513305 -0.0 -0.0 -0.0 -0.00692733998997108 -0.0 -0.0 -0.0 -0.020986497236935263" pbc="T T T"
Al       4.42028326       0.04972103       1.81793891       0.01380461       0.04110559       0.00000000
Al       1.75696282       1.13466431       3.23409404      -0.00524727       0.01424741      -0.03130641
Al       1.75696282       1.13466431       0.40178378      -0.00524727       0.01424741       0.03130641
Al       4.16971653       2.17685313       4.03766017      -0.00524727      -0.01424741       0.03130641
Al       0.65578944       4.44617933       3.23409547       0.00524727       0.01424741      -0.03130641
Al       3.06854315       5.48836815       6.86997186       0.00524727      -0.01424741      -0.03130641
Al       0.65578944       4.44617933       0.40178235       0.00524727       0.01424741       0.03130641
Al       3.06854315       5.48836815       4.03766112       0.00524727      -0.01424741       0.03130641
Al       4.16971653       2.17685313       6.86997282      -0.00524727      -0.01424741      -0.03130641
Al       2.81797400       3.36123557       1.81793891      -0.01380461       0.04110559       0.00000000
Al       0.40522271       6.57331143       5.45381673      -0.01380461      -0.04110559       0.00000000
Al       2.00753197       3.26179689       5.45381673       0.01380461      -0.04110559       0.00000000
Ni       2.13804208       5.76440149       1.81793891       0.01789854       0.01049151       0.00000000
Ni       0.27471115       2.45288453       1.81793891      -0.01789854       0.01049151       0.00000000
Ni       2.68746389       0.85863097       5.45381673      -0.01789854      -0.01049151       0.00000000
Ni       4.55079482       4.17014793       5.45381673       0.01789854      -0.01049151       0.00000000
16
Lattice="4.695215895014755 0.0 0.0 0.0 6.444211987202794 0.0 0.0 0.0 7.382491105471437" Properties=species:S:1:pos:R:3:forces:R:3 config_id=cfg176_Al3Ni_biaxial_xy_compression phase=Al3Ni config_type=biaxial target_role=TRAIN magnitude_source="cross-phase median" source=QE_7.6_PBE provenance=/workspace/ni_al/data/al3ni_remediation_v1/round300_production_dft/pod09/cfg176_Al3Ni_biaxial_xy_compression/attempt_001/qe.out qe_output_sha256=dfad41fdde6f9d1d3a8777d10c5a34ce5702e9ac57806a3dd5d4b546b80c3074 canonical_input=/workspace/ni_al/data/al3ni_remediation_v1/round300_structures/round300_al3ni/cfg176_Al3Ni_biaxial_xy_compression.in canonical_input_sha256=ef857a85843de708c17464cddb9737a2a0a5dfc34a2456aabc567a1a88dba736 energy=-25137.866618616823 stress="-0.052340539076892324 -0.0 -0.0 -0.0 -0.05191784095662548 -0.0 -0.0 -0.0 -0.026840520399267837" pbc="T T T"
Al       4.30093561       0.04837856       1.84562326      -0.03967575      -0.05145221       0.00000000
Al       1.70952482       1.10402837       3.28334421       0.02082822       0.02732184       0.06560661
Al       1.70952482       1.10402837       0.40790231       0.02082822       0.02732184      -0.06560661
Al       4.05713418       2.11807809       4.09914738       0.02082822      -0.02732184      -0.06560661
Al       0.63808312       4.32613249       3.28334566      -0.02082822       0.02732184       0.06560661
Al       2.98569248       5.34018221       6.97459073      -0.02082822      -0.02732184       0.06560661
Al       0.63808312       4.32613249       0.40790086      -0.02082822       0.02732184      -0.06560661
Al       2.98569248       5.34018221       4.09914835      -0.02082822      -0.02732184      -0.06560661
Al       4.05713418       2.11807809       6.97459170       0.02082822      -0.02732184       0.06560661
Al       2.74188870       3.27048221       1.84562326       0.03967575      -0.05145221       0.00000000
Al       0.39428170       6.39583202       5.53686978       0.03967575       0.05145221       0.00000000
Al       1.95332861       3.17372837       5.53686978      -0.03967575       0.05145221       0.00000000
Ni       2.08031494       5.60876265       1.84562326      -0.04070769       0.01369375       0.00000000
Ni       0.26729395       2.38665665       1.84562326       0.04070769       0.01369375       0.00000000
Ni       2.61490236       0.83544793       5.53686978       0.04070769      -0.01369375       0.00000000
Ni       4.42792336       4.05755393       5.53686978      -0.04070769      -0.01369375       0.00000000
16
Lattice="4.948554882155386 0.0 0.0 0.0 6.623033902572181 0.0 0.0 0.0 7.57074462866078" Properties=species:S:1:pos:R:3:forces:R:3 config_id=cfg177_Al3Ni_biaxial_xz_expansion phase=Al3Ni config_type=biaxial target_role=TRAIN magnitude_source="mirrored/fallback median" source=QE_7.6_PBE provenance=/workspace/ni_al/data/al3ni_remediation_v1/round300_production_dft/pod10/cfg177_Al3Ni_biaxial_xz_expansion/attempt_001/qe.out qe_output_sha256=c8f2bcff3438d70147e5f750480f6ab26ddbecc5b6e3d0fd42fc82128e9ecf51 canonical_input=/workspace/ni_al/data/al3ni_remediation_v1/round300_structures/round300_al3ni/cfg177_Al3Ni_biaxial_xz_expansion.in canonical_input_sha256=426427e766e68b61ad5fb65a86867dbb69121b2d8ca9479ed77f6d4ebf6ecf0b energy=-25137.93343242972 stress="0.037496566227754054 -0.0 -0.0 -0.0 0.019511148967307046 -0.0 -0.0 -0.0 0.03866974167358566" pbc="T T T"
Al       4.53300048       0.04972103       1.89268665      -0.06383112      -0.06890853       0.00000000
Al       1.80176537       1.13466431       3.36706949      -0.05250236       0.03303374       0.06857374
Al       1.80176537       1.13466431       0.41830382      -0.05250236       0.03303374      -0.06857374
Al       4.27604430       2.17685313       4.20367564      -0.05250236      -0.03303374      -0.06857374
Al       0.67251207       4.44617933       3.36707097       0.05250236       0.03303374       0.06857374
Al       3.14679100       5.48836815       7.15244279       0.05250236      -0.03303374       0.06857374
Al       0.67251207       4.44617933       0.41830233       0.05250236       0.03303374      -0.06857374
Al       3.14679100       5.48836815       4.20367663       0.05250236      -0.03303374      -0.06857374
Al       4.27604430       2.17685313       7.15244378      -0.05250236      -0.03303374       0.06857374
Al       2.88983234       3.36123557       1.89268665       0.06383112      -0.06890853       0.00000000
Al       0.41555589       6.57331143       5.67805996       0.06383112       0.06890853       0.00000000
Al       2.05872403       3.26179689       5.67805996      -0.06383112       0.06890853       0.00000000
Ni       2.19256215       5.76440149       1.89268665       0.01954971      -0.06205845       0.00000000
Ni       0.28171628       2.45288453       1.89268665      -0.01954971      -0.06205845       0.00000000
Ni       2.75599422       0.85863097       5.67805996      -0.01954971       0.06205845       0.00000000
Ni       4.66684008       4.17014793       5.67805996       0.01954971       0.06205845       0.00000000
16
Lattice="4.702454151790116 0.0 0.0 0.0 6.623033902572181 0.0 0.0 0.0 7.194237582282088" Properties=species:S:1:pos:R:3:forces:R:3 config_id=cfg178_Al3Ni_biaxial_xz_compression phase=Al3Ni config_type=biaxial target_role=TRAIN magnitude_source="cross-phase median" source=QE_7.6_PBE provenance=/workspace/ni_al/data/al3ni_remediation_v1/round300_production_dft/pod05/cfg178_Al3Ni_biaxial_xz_compression/attempt_001/qe.out qe_output_sha256=1f135473241a7251157a7ac3aac6e8cdebe0db2bab1014844ff32805f484e908 canonical_input=/workspace/ni_al/data/al3ni_remediation_v1/round300_structures/round300_al3ni/cfg178_Al3Ni_biaxial_xz_compression.in canonical_input_sha256=7a468ad40d2a4bd486714890599206dc4a062584111dbf3497bcf1435d6975ba energy=-25137.891565075897 stress="-0.04933950346522622 -0.0 -0.0 -0.0 -0.02368551960969534 -0.0 -0.0 -0.0 -0.0517058434122582" pbc="T T T"
Al       4.30756603       0.04972103       1.79855987       0.07694251       0.08046237       0.00000000
Al       1.71216027       1.13466431       3.19961893       0.06432906      -0.03933444      -0.09230522
Al       1.71216027       1.13466431       0.39750080       0.06432906      -0.03933444       0.09230522
Al       4.06338876       2.17685313       3.99461912       0.06432906       0.03933444       0.09230522
Al       0.63906681       4.44617933       3.19962034      -0.06432906      -0.03933444      -0.09230522
Al       2.99029530       5.48836815       6.79673866      -0.06432906       0.03933444      -0.09230522
Al       0.63906681       4.44617933       0.39749939      -0.06432906      -0.03933444       0.09230522
Al       2.99029530       5.48836815       3.99462006      -0.06432906       0.03933444       0.09230522
Al       4.06338876       2.17685313       6.79673961       0.06432906       0.03933444      -0.09230522
Al       2.74611566       3.36123557       1.79855987      -0.07694251       0.08046237       0.00000000
Al       0.39488953       6.57331143       5.39567960      -0.07694251      -0.08046237       0.00000000
Al       1.95633990       3.26179689       5.39567960       0.07694251      -0.08046237       0.00000000
Ni       2.08352201       5.76440149       1.79855987      -0.04857399       0.06803336       0.00000000
Ni       0.26770602       2.45288453       1.79855987       0.04857399       0.06803336       0.00000000
Ni       2.61893356       0.85863097       5.39567960       0.04857399      -0.06803336       0.00000000
Ni       4.43474955       4.17014793       5.39567960      -0.04857399      -0.06803336       0.00000000
16
Lattice="4.825504516972251 0.0 0.0 0.0 6.801855817941573 0.0 0.0 0.0 7.581818365318685" Properties=species:S:1:pos:R:3:forces:R:3 config_id=cfg179_Al3Ni_biaxial_yz_expansion phase=Al3Ni config_type=biaxial target_role=TRAIN magnitude_source="cross-phase median" source=QE_7.6_PBE provenance=/workspace/ni_al/data/al3ni_remediation_v1/round300_production_dft/pod06/cfg179_Al3Ni_biaxial_yz_expansion/attempt_001/qe.out qe_output_sha256=e8b89dd010ac7d05c4d4faaaaafde5af052d10cbd73662046e7be651d3e968c7 canonical_input=/workspace/ni_al/data/al3ni_remediation_v1/round300_structures/round300_al3ni/cfg179_Al3Ni_biaxial_yz_expansion.in canonical_input_sha256=92a39eadaa7df1e72bca3044cd83e1619cbf1087160dc84c6b6db879bcaa2434 energy=-25137.896966723132 stress="0.01985239966830097 -0.0 -0.0 -0.0 0.04084585211402704 -0.0 -0.0 -0.0 0.04124252977247449" pbc="T T T"
Al       4.42028326       0.05106350       1.89545509       0.05918708      -0.02910203       0.00000000
Al       1.75696282       1.16530025       3.37199450       0.02936215      -0.07346634      -0.03813438
Al       1.75696282       1.16530025       0.41891567       0.02936215      -0.07346634       0.03813438
Al       4.16971653       2.23562816       4.20982436       0.02936215       0.07346634       0.03813438
Al       0.65578944       4.56622617       3.37199599      -0.02936215      -0.07346634      -0.03813438
Al       3.06854315       5.63655409       7.16290468      -0.02936215       0.07346634      -0.03813438
Al       0.65578944       4.56622617       0.41891418      -0.02936215      -0.07346634       0.03813438
Al       3.06854315       5.63655409       4.20982535      -0.02936215       0.07346634       0.03813438
Al       4.16971653       2.23562816       7.16290567       0.02936215       0.07346634      -0.03813438
Al       2.81797400       3.45198893       1.89545509      -0.05918708      -0.02910203       0.00000000
Al       0.40522271       6.75079083       5.68636526      -0.05918708       0.02910203       0.00000000
Al       2.00753197       3.34986540       5.68636526       0.05918708       0.02910203       0.00000000
Ni       2.13804208       5.92004033       1.89545509      -0.08929026       0.02163021       0.00000000
Ni       0.27471115       2.51911241       1.89545509       0.08929026       0.02163021       0.00000000
Ni       2.68746389       0.88181401       5.68636526       0.08929026      -0.02163021       0.00000000
Ni       4.55079482       4.28274192       5.68636526      -0.08929026      -0.02163021       0.00000000
16
Lattice="4.825504516972251 0.0 0.0 0.0 6.444211987202794 0.0 0.0 0.0 7.183163845623189" Properties=species:S:1:pos:R:3:forces:R:3 config_id=cfg180_Al3Ni_biaxial_yz_compression phase=Al3Ni config_type=biaxial target_role=TRAIN magnitude_source="mirrored/fallback median" source=QE_7.6_PBE provenance=/workspace/ni_al/data/al3ni_remediation_v1/round300_production_dft/pod07/cfg180_Al3Ni_biaxial_yz_compression/attempt_001/qe.out qe_output_sha256=3dd34bc5bd0c2df9c54a3c0891d8efb05803d1798cb8101a4e44fe768182b0f9 canonical_input=/workspace/ni_al/data/al3ni_remediation_v1/round300_structures/round300_al3ni/cfg180_Al3Ni_biaxial_yz_compression.in canonical_input_sha256=6a8c83b19a034fb485cc11a5946eeb6139f8914686151430ae28b050aab15363 energy=-25137.848152352257 stress="-0.025277253543692976 -0.0 -0.0 -0.0 -0.05484545681777775 -0.0 -0.0 -0.0 -0.05533740132509982" pbc="T T T"
Al       4.42028326       0.04837856       1.79579143      -0.07743442       0.01321634       0.00000000
Al       1.75696282       1.10402837       3.19469391      -0.05634054       0.11832625       0.04984790
Al       1.75696282       1.10402837       0.39688895      -0.05634054       0.11832625      -0.04984790
Al       4.16971653       2.11807809       3.98847040      -0.05634054      -0.11832625      -0.04984790
Al       0.65578944       4.32613249       3.19469533       0.05634054       0.11832625       0.04984790
Al       3.06854315       5.34018221       6.78627678       0.05634054      -0.11832625       0.04984790
Al       0.65578944       4.32613249       0.39688754       0.05634054       0.11832625      -0.04984790
Al       3.06854315       5.34018221       3.98847134       0.05634054      -0.11832625      -0.04984790
Al       4.16971653       2.11807809       6.78627772      -0.05634054      -0.11832625       0.04984790
Al       2.81797400       3.27048221       1.79579143       0.07743442       0.01321634       0.00000000
Al       0.40522271       6.39583202       5.38737429       0.07743442      -0.01321634       0.00000000
Al       2.00753197       3.17372837       5.38737429      -0.07743442      -0.01321634       0.00000000
Ni       2.13804208       5.60876265       1.79579143       0.08627642      -0.02657017       0.00000000
Ni       0.27471115       2.38665665       1.79579143      -0.08627642      -0.02657017       0.00000000
Ni       2.68746389       0.83544793       5.38737429      -0.08627642       0.02657017       0.00000000
Ni       4.55079482       4.05755393       5.38737429       0.08627642       0.02657017       0.00000000
16
Lattice="4.731407178891559 0.0 0.0 0.0 6.752183063672407 0.0 0.0 0.0 7.382491105471437" Properties=species:S:1:pos:R:3:forces:R:3 config_id=cfg181_Al3Ni_orthorhombic_xy_compression phase=Al3Ni config_type=orthorhombic target_role=TRAIN magnitude_source="mirrored/fallback median" source=QE_7.6_PBE provenance=/workspace/ni_al/data/al3ni_remediation_v1/round300_production_dft/pod01/cfg181_Al3Ni_orthorhombic_xy_compression/attempt_001/qe.out qe_output_sha256=3606fafbc445819546b1ff06a80062b12b5ae484c2b44cd2de7bbe57c9b9c957 canonical_input=/workspace/ni_al/data/al3ni_remediation_v1/round300_structures/round300_al3ni/cfg181_Al3Ni_orthorhombic_xy_compression.in canonical_input_sha256=9e6b55fc76d9f06ed9c8342ba88a92db6f16b52ec9bb6ea0fda0e63c593acb7e energy=-25138.096958168047 stress="-0.01775575411435114 -0.0 -0.0 -0.0 0.016809550962522353 -0.0 -0.0 -0.0 -0.00035553424961542866" pbc="T T T"
Al       4.33408773       0.05069059       1.84562326       0.09622277       0.03070436       0.00000000
Al       1.72270204       1.15679026       3.28334421       0.07117589      -0.09388847      -0.08688628
Al       1.72270204       1.15679026       0.40790231       0.07117589      -0.09388847       0.08688628
Al       4.08840706       2.21930176       4.09914738       0.07117589       0.09388847       0.08688628
Al       0.64300155       4.53287982       3.28334566      -0.07117589      -0.09388847      -0.08688628
Al       3.00870656       5.59539133       6.97459073      -0.07117589       0.09388847      -0.08688628
Al       0.64300155       4.53287982       0.40790086      -0.07117589      -0.09388847       0.08688628
Al       3.00870656       5.59539133       4.09914835      -0.07117589       0.09388847       0.08688628
Al       4.08840706       2.21930176       6.97459170       0.07117589       0.09388847      -0.08688628
Al       2.76302351       3.42677966       1.84562326      -0.09622277       0.03070436       0.00000000
Al       0.39732087       6.70149100       5.53686978      -0.09622277      -0.03070436       0.00000000
Al       1.96838510       3.32540193       5.53686978       0.09622277      -0.03070436       0.00000000
Ni       2.09635026       5.87680732       1.84562326      -0.10103319       0.05982494       0.00000000
Ni       0.26935428       2.50071578       1.84562326       0.10103319       0.05982494       0.00000000
Ni       2.63505834       0.87537427       5.53686978       0.10103319      -0.05982494       0.00000000
Ni       4.46205432       4.25146581       5.53686978      -0.10103319      -0.05982494       0.00000000
16
Lattice="4.941316625380024 0.0 0.0 0.0 6.623033902572181 0.0 0.0 0.0 7.205311318939993" Properties=species:S:1:pos:R:3:forces:R:3 config_id=cfg182_Al3Ni_orthorhombic_xz_expansion phase=Al3Ni config_type=orthorhombic target_role=TRAIN magnitude_source="cross-phase median" source=QE_7.6_PBE provenance=/workspace/ni_al/data/al3ni_remediation_v1/round300_production_dft/pod02/cfg182_Al3Ni_orthorhombic_xz_expansion/attempt_001/qe.out qe_output_sha256=4d63af48ce8c211cc8f648ec7edc7b32c35dade7b6d773d21ade09fd6e60add6 canonical_input=/workspace/ni_al/data/al3ni_remediation_v1/round300_structures/round300_al3ni/cfg182_Al3Ni_orthorhombic_xz_expansion.in canonical_input_sha256=1425bb73e2796e42f8ff6361c9f55110575dc34990ab666d9949c30f0a8fa11f energy=-25138.065709998238 stress="0.0169575622722949 -0.0 -0.0 -0.0 -0.002799352464826571 -0.0 -0.0 -0.0 -0.021651557195738108" pbc="T T T"
Al       4.52637006       0.04972103       1.80132830      -0.01396366       0.07544785       0.00000000
Al       1.79912993       1.13466431       3.20454395      -0.06371061       0.06589819      -0.02921373
Al       1.79912993       1.13466431       0.39811265      -0.06371061       0.06589819       0.02921373
Al       4.26978972       2.17685313       4.00076784      -0.06371061      -0.06589819       0.02921373
Al       0.67152839       4.44617933       3.20454536       0.06371061       0.06589819      -0.02921373
Al       3.14218818       5.48836815       6.80720055       0.06371061      -0.06589819      -0.02921373
Al       0.67152839       4.44617933       0.39811124       0.06371061       0.06589819       0.02921373
Al       3.14218818       5.48836815       4.00076879       0.06371061      -0.06589819       0.02921373
Al       4.26978972       2.17685313       6.80720149      -0.06371061      -0.06589819      -0.02921373
Al       2.88560537       3.36123557       1.80132830       0.01396366       0.07544785       0.00000000
Al       0.41494805       6.57331143       5.40398490       0.01396366      -0.07544785       0.00000000
Al       2.05571274       3.26179689       5.40398490      -0.01396366      -0.07544785       0.00000000
Ni       2.18935509       5.76440149       1.80132830       0.07665654      -0.03375607       0.00000000
Ni       0.28130422       2.45288453       1.80132830      -0.07665654      -0.03375607       0.00000000
Ni       2.75196302       0.85863097       5.40398490      -0.07665654       0.03375607       0.00000000
Ni       4.66001389       4.17014793       5.40398490       0.07665654       0.03375607       0.00000000
16
Lattice="4.709692408565477 0.0 0.0 0.0 6.623033902572181 0.0 0.0 0.0 7.559670892002876" Properties=species:S:1:pos:R:3:forces:R:3 config_id=cfg183_Al3Ni_orthorhombic_xz_compression phase=Al3Ni config_type=orthorhombic target_role=TRAIN magnitude_source="mirrored/fallback median" source=QE_7.6_PBE provenance=/workspace/ni_al/data/al3ni_remediation_v1/round300_production_dft/pod03/cfg183_Al3Ni_orthorhombic_xz_compression/attempt_001/qe.out qe_output_sha256=daebb04c4824092fc1a3b9a3213bb5831512da49a09cf22b65c532d78b9fb987 canonical_input=/workspace/ni_al/data/al3ni_remediation_v1/round300_structures/round300_al3ni/cfg183_Al3Ni_orthorhombic_xz_compression.in canonical_input_sha256=034335a982a4c2283539fca8e3f2c838444a84bf2921b82feea2bf24e9ef21eb energy=-25138.05890285033 stress="-0.02175309677295962 -0.0 -0.0 -0.0 0.00018916479166319514 -0.0 -0.0 -0.0 0.02001371659746547" pbc="T T T"
Al       4.31419646       0.04972103       1.88991822       0.04331853      -0.04539289       0.00000000
Al       1.71479571       1.13466431       3.36214447       0.05561632      -0.06334576      -0.00190021
Al       1.71479571       1.13466431       0.41769197       0.05561632      -0.06334576       0.00190021
Al       4.06964333       2.17685313       4.19752691       0.05561632       0.06334576       0.00190021
Al       0.64005049       4.44617933       3.36214595      -0.05561632      -0.06334576      -0.00190021
Al       2.99489811       5.48836815       7.14198090      -0.05561632       0.06334576      -0.00190021
Al       0.64005049       4.44617933       0.41769048      -0.05561632      -0.06334576       0.00190021
Al       2.99489811       5.48836815       4.19752791      -0.05561632       0.06334576       0.00190021
Al       4.06964333       2.17685313       7.14198190       0.05561632       0.06334576      -0.00190021
Al       2.75034262       3.36123557       1.88991822      -0.04331853      -0.04539289       0.00000000
Al       0.39549736       6.57331143       5.66975465      -0.04331853       0.04539289       0.00000000
Al       1.95935120       3.26179689       5.66975465       0.04331853       0.04539289       0.00000000
Ni       2.08672907       5.76440149       1.88991822      -0.13372787       0.01921713       0.00000000
Ni       0.26811808       2.45288453       1.88991822       0.13372787       0.01921713       0.00000000
Ni       2.62296475       0.85863097       5.66975465       0.13372787      -0.01921713       0.00000000
Ni       4.44157574       4.17014793       5.66975465      -0.13372787      -0.01921713       0.00000000
16
Lattice="4.825504516972251 0.0 0.0 0.0 6.752183063672407 0.0 0.0 0.0 7.2385325289147" Properties=species:S:1:pos:R:3:forces:R:3 config_id=cfg184_Al3Ni_orthorhombic_yz_expansion phase=Al3Ni config_type=orthorhombic target_role=TRAIN magnitude_source="cross-phase median" source=QE_7.6_PBE provenance=/workspace/ni_al/data/al3ni_remediation_v1/round300_production_dft/pod04/cfg184_Al3Ni_orthorhombic_yz_expansion/attempt_001/qe.out qe_output_sha256=64a7700990dd6466fc054aa3602ce1e2389cefdb577028ecb497b706ffd7e119 canonical_input=/workspace/ni_al/data/al3ni_remediation_v1/round300_structures/round300_al3ni/cfg184_Al3Ni_orthorhombic_yz_expansion.in canonical_input_sha256=0ec45402592da16adb9174b6b9780a4358d87c3e88c834719a96b3b072b6ad89 energy=-25138.097283753315 stress="-0.0018493894762869254 -0.0 -0.0 -0.0 0.016382923182454052 -0.0 -0.0 -0.0 -0.018392518318437898" pbc="T T T"
Al       4.42028326       0.05069059       1.80963361       0.07628208       0.07554316       0.00000000
Al       1.75696282       1.15679026       3.21931900       0.01377086      -0.03226546      -0.10047837
Al       1.75696282       1.15679026       0.39994821       0.01377086      -0.03226546       0.10047837
Al       4.16971653       2.21930176       4.01921400       0.01377086       0.03226546       0.10047837
Al       0.65578944       4.53287982       3.21932042      -0.01377086      -0.03226546      -0.10047837
Al       3.06854315       5.59539133       6.83858621      -0.01377086       0.03226546      -0.10047837
Al       0.65578944       4.53287982       0.39994679      -0.01377086      -0.03226546       0.10047837
Al       3.06854315       5.59539133       4.01921495      -0.01377086       0.03226546       0.10047837
Al       4.16971653       2.21930176       6.83858716       0.01377086       0.03226546      -0.10047837
Al       2.81797400       3.42677966       1.80963361      -0.07628208       0.07554316       0.00000000
Al       0.40522271       6.70149100       5.42890082      -0.07628208      -0.07554316       0.00000000
Al       2.00753197       3.32540193       5.42890082       0.07628208      -0.07554316       0.00000000
Ni       2.13804208       5.87680732       1.80963361      -0.02311555       0.05110803       0.00000000
Ni       0.27471115       2.50071578       1.80963361       0.02311555       0.05110803       0.00000000
Ni       2.68746389       0.87537427       5.42890082       0.02311555      -0.05110803       0.00000000
Ni       4.55079482       4.25146581       5.42890082      -0.02311555      -0.05110803       0.00000000
16
Lattice="4.825504516972251 0.0 0.0 0.0 6.49388474147196 0.0 0.0 0.0 7.526449682028167" Properties=species:S:1:pos:R:3:forces:R:3 config_id=cfg185_Al3Ni_orthorhombic_yz_compression phase=Al3Ni config_type=orthorhombic target_role=TRAIN magnitude_source="mirrored/fallback median" source=QE_7.6_PBE provenance=/workspace/ni_al/data/al3ni_remediation_v1/round300_production_dft/pod08/cfg185_Al3Ni_orthorhombic_yz_compression/attempt_001/qe.out qe_output_sha256=f641ae256f367d2d73b13d4661e2c973efdc466acc40e14785af01fca718bc12 canonical_input=/workspace/ni_al/data/al3ni_remediation_v1/round300_structures/round300_al3ni/cfg185_Al3Ni_orthorhombic_yz_compression.in canonical_input_sha256=bca67d52e263ddc8bb78227d06521dd97d3899277140ab1a3873ef2f45685f6c energy=-25138.103414986446 stress="-0.0001330352683360847 -0.0 -0.0 -0.0 -0.016329209139136984 -0.0 -0.0 -0.0 0.01547903078078336" pbc="T T T"
Al       4.42028326       0.04875147       1.88161291      -0.08418089      -0.10636557       0.00000000
Al       1.75696282       1.11253836       3.34736942      -0.03869118       0.05547713       0.10600712
Al       1.75696282       1.11253836       0.41585640      -0.03869118       0.05547713      -0.10600712
Al       4.16971653       2.13440449       4.17908075      -0.03869118      -0.05547713      -0.10600712
Al       0.65578944       4.35947883       3.34737090       0.03869118       0.05547713       0.10600712
Al       3.06854315       5.38134497       7.11059524       0.03869118      -0.05547713       0.10600712
Al       0.65578944       4.35947883       0.41585493       0.03869118       0.05547713      -0.10600712
Al       3.06854315       5.38134497       4.17908174       0.03869118      -0.05547713      -0.10600712
Al       4.16971653       2.13440449       7.11059623      -0.03869118      -0.05547713       0.10600712
Al       2.81797400       3.29569147       1.88161291       0.08418089      -0.10636557       0.00000000
Al       0.40522271       6.44513185       5.64483874       0.08418089       0.10636557       0.00000000
Al       2.00753197       3.19819185       5.64483874      -0.08418089       0.10636557       0.00000000
Ni       2.13804208       5.65199566       1.88161291      -0.01595293      -0.03194260       0.00000000
Ni       0.27471115       2.40505328       1.88161291       0.01595293      -0.03194260       0.00000000
Ni       2.68746389       0.84188767       5.64483874       0.01595293       0.03194260       0.00000000
Ni       4.55079482       4.08883004       5.64483874      -0.01595293       0.03194260       0.00000000
16
Lattice="4.825504516972251 0.0 0.0 0.0 6.623033902572181 0.0 0.19932725984724775 0.0 7.382491105471437" Properties=species:S:1:pos:R:3:forces:R:3 config_id=cfg189_Al3Ni_shear_rattle_xz_positive phase=Al3Ni config_type=shear_rattle target_role=TRAIN magnitude_source="cross-phase median" source=QE_7.6_PBE provenance=/workspace/ni_al/data/al3ni_remediation_v1/round300_production_dft/pod05/cfg189_Al3Ni_shear_rattle_xz_positive/attempt_001/qe.out qe_output_sha256=d5b70044da2616c21ddc6adcb1a247c3f551b93a6a74229690d34f5991ac5e57 canonical_input=/workspace/ni_al/data/al3ni_remediation_v1/round300_structures/round300_al3ni/cfg189_Al3Ni_shear_rattle_xz_positive.in canonical_input_sha256=f962bd3c53beb50c6c30544a74b9c6cf8235081a4f7ccdd37f393ad2a89fc352 energy=-25138.06045141941 stress="-0.0011697130378344376 0.0017214767449479276 0.014178932932875043 0.0017214767449479276 0.00015808490905173096 0.00023648664667711228 0.014178932932875043 0.00023648664667711228 -0.002958752147540436" pbc="T T T"
Al       4.44355374       0.03045200       1.86478607       0.19176140       0.06875554      -0.02133677
Al       1.85244123       1.11881413       3.30627647       0.09125145       0.07458912      -0.22277072
Al       1.75833755       1.14011478       0.41231903      -0.05853026      -0.06346445       0.05385420
Al       4.32052491       2.18950462       4.06934603      -0.44469306      -0.14175490       0.42364126
Al       0.74242391       4.44700407       3.30563509       0.20511916       0.09273737      -0.31299679
Al       3.27132678       5.51216715       6.98569145      -0.06911295      -0.11181807       0.01028441
Al       0.66120489       4.42365648       0.38081531       0.06406248       0.10240573       0.18597295
Al       3.19775433       5.50518168       4.13625334      -0.31048870      -0.07244624      -0.26977225
Al       4.35280189       2.15248454       6.98208091       0.04790635       0.13118512      -0.12862017
Al       2.86602788       3.38641564       1.81730588       0.05889092      -0.15556213       0.09506668
Al       0.54876617       6.56677012       5.50553059       0.08663826       0.16060110       0.13554858
Al       2.15042897       3.24487271       5.51454949       0.09413210       0.09959661       0.07846142
Ni       2.17168129       5.76084342       1.84932135      -0.02325863      -0.01109203       0.02702047
Ni       0.33725903       2.43693159       1.85884695      -0.08925137       0.15666057      -0.19282027
Ni       2.81377146       0.85662736       5.55372249       0.24050324       0.18203724      -0.15334474
Ni       4.71036218       4.21241934       5.51746287      -0.08493039      -0.51243057       0.29181173
16
Lattice="4.825504516972251 0.0 0.0 0.0 6.623033902572181 0.0 -0.2140922420587846 0.0 7.382491105471437" Properties=species:S:1:pos:R:3:forces:R:3 config_id=cfg191_Al3Ni_shear_rattle_xz_negative phase=Al3Ni config_type=shear_rattle target_role=TRAIN magnitude_source="cross-phase median" source=QE_7.6_PBE provenance=/workspace/ni_al/data/al3ni_remediation_v1/round300_production_dft/pod06/cfg191_Al3Ni_shear_rattle_xz_negative/attempt_001/qe.out qe_output_sha256=f524ff32d97bd7104662bc3ccbd726caaee5ff3923118891bdf065dfb82e429c canonical_input=/workspace/ni_al/data/al3ni_remediation_v1/round300_structures/round300_al3ni/cfg191_Al3Ni_shear_rattle_xz_negative.in canonical_input_sha256=c96c7b2a82a0197d166217c7619c7b3cd77c28948b113b86ee1f2ad17c02b21d energy=-25138.05817360264 stress="0.0006177017367359226 -0.0004294221321481502 -0.01533388551182695 -0.0004294221321481502 -0.0032174744566487615 -0.0011472987611663233 -0.01533388551182695 -0.0011472987611663233 -0.0006625826757418571" pbc="T T T"
Al       4.37004951       0.05827199       1.81087087      -0.08385444      -0.01768518       0.08530274
Al       1.66836748       1.09169591       3.27466898      -0.19562798       0.31494527       0.02656770
Al       1.74175372       1.13188250       0.41778207       0.04546586       0.11992515      -0.00912901
Al       4.03891722       2.15263108       4.10286993       0.19433583       0.08537748      -0.10032324
Al       0.57665148       4.44055821       3.30576988      -0.18080670      -0.00278857      -0.06008076
Al       2.84837553       5.50249279       6.96095725       0.11503851      -0.11373645      -0.01077820
Al       0.64234059       4.45213334       0.41185863      -0.10790820       0.03558800      -0.05916556
Al       2.93765743       5.50449242       4.09687756       0.30570291      -0.19987767       0.10539676
Al       3.96652002       2.22049077       6.96978721       0.02847216      -0.30911575       0.17179470
Al       2.76437341       3.39458512       1.80069672       0.09262018      -0.23628716       0.21446286
Al       0.25462104       6.52968737       5.55305327       0.02515993       0.20579836      -0.00711501
Al       1.83684499       3.26564241       5.56074334       0.08746899      -0.06505028      -0.10380215
Ni       2.07288858       5.74513302       1.83378329       0.14153927       0.26563623       0.11325406
Ni       0.22481443       2.48237382       1.86164006      -0.02193183      -0.26333169      -0.09446736
Ni       2.54651566       0.88064627       5.55530989      -0.24654454      -0.23865122      -0.15666468
Ni       4.40061831       4.13154262       5.54327437      -0.19912996       0.41925349      -0.11525286
16
Lattice="4.825504516972251 0.0 0.0 0.0 6.623033902572181 0.0 0.0 -0.3322120997460795 7.382491105471437" Properties=species:S:1:pos:R:3:forces:R:3 config_id=cfg194_Al3Ni_shear_rattle_yz_negative phase=Al3Ni config_type=shear_rattle target_role=TRAIN magnitude_source="cross-phase median" source=QE_7.6_PBE provenance=/workspace/ni_al/data/al3ni_remediation_v1/round300_production_dft/pod07/cfg194_Al3Ni_shear_rattle_yz_negative/attempt_001/qe.out qe_output_sha256=cba8af0cebb867957e1b6bfc9b4ab197ab97a44be5e7c44da7937ae4daf74216 canonical_input=/workspace/ni_al/data/al3ni_remediation_v1/round300_structures/round300_al3ni/cfg194_Al3Ni_shear_rattle_yz_negative.in canonical_input_sha256=920fa1ee6896b97a3a413bd12eaa0ded3e46326da0eeb240b15e025ea3cf238f energy=-25137.97320856696 stress="0.00040855485623371267 -0.00013502415953591304 -0.0002903802264964814 -0.00013502415953591304 -0.004851403356479673 -0.022636030482624445 -0.0002903802264964814 -0.022636030482624445 -0.0020954619797567365" pbc="T T T"
Al       4.41682518      -0.00615326       1.89959496      -0.07060536      -0.14525020      -0.09798505
Al       1.76114806       0.93021845       3.25614984       0.02763152       0.58286990       0.31545824
Al       1.76693296       1.15099792       0.39162567      -0.13758178      -0.20827970       0.15117534
Al       4.18429670       2.01159302       4.11177199      -0.12855939      -0.37662110      -0.26926711
Al       0.62672407       4.28296618       3.30920347       0.32177220       0.28596250      -0.20700085
Al       3.05157223       5.18460814       6.97084287       0.11608183       0.00442688       0.12765577
Al       0.64859369       4.41627305       0.40352339       0.02694431       0.14271228       0.15390705
Al       3.06833551       5.30534460       4.13926903      -0.10991510      -0.27516688      -0.31394723
Al       4.16796832       1.88316262       6.93796342       0.10530026      -0.07885422       0.22146723
Al       2.83789844       3.27495164       1.81918567      -0.19943323       0.15324475       0.28074248
Al       0.41964812       6.31834541       5.50545712      -0.03728033       0.00416551       0.00913942
Al       1.99633827       3.00519031       5.52647997       0.06724103      -0.07962596      -0.13321733
Ni       2.13184241       5.67315574       1.87653537       0.07131281      -0.17785660      -0.37492718
Ni       0.27007975       2.40699584       1.84241981       0.11138497      -0.40753907      -0.09275608
Ni       2.70600018       0.59192761       5.54153313      -0.14970330       0.22023570      -0.05314889
Ni       4.54984384       3.89698492       5.52838761      -0.01459045       0.35557621       0.28270416
5
Lattice="4.123798617116986 0.0 0.0 -2.061899308558493 3.503004117104864 0.0 0.0 0.0 4.907862374000466" Properties=species:S:1:pos:R:3:forces:R:3 config_id=cfg195_Al3Ni2_uniaxial_x_expansion phase=Al3Ni2 config_type=uniaxial target_role=TRAIN magnitude_source="cross-phase median" source=QE_7.6_PBE provenance=/workspace/ni_al/data/al3ni_remediation_v1/round300_production_dft/pod06/cfg195_Al3Ni2_uniaxial_x_expansion/attempt_001/qe.out qe_output_sha256=b9a97779a7905df3efce73a38028fce4d815bbdf2a60469ce800261a5361d4cb canonical_input=/workspace/ni_al/data/al3ni_remediation_v1/round300_structures/round300_al3ni2/cfg195_Al3Ni2_uniaxial_x_expansion.in canonical_input_sha256=18e4f7f7d56efb3a6930f81173babbd055f9e68fcd0ddf89d1195fed4aa59129 energy=-10956.494174814696 stress="0.028231789970772875 -0.0 -0.0 -0.0 0.008216910506891186 -0.00037848398251557675 -0.0 -0.00037848398251557675 0.007771785833751272" pbc="T T T"
Al       0.00000000       0.00000000       0.00000000       0.00000000       0.00000000       0.00000000
Al      -0.00000289       2.33533770       3.17789306       0.00000000      -0.06313821       0.01259367
Al       2.06190096       1.16766683       1.72996891       0.00000000       0.06313821      -0.01259367
Ni      -0.00000289       2.33533770       0.71968598       0.00000000       0.01368816      -0.03654330
Ni       2.06190096       1.16766683       4.18817639       0.00000000      -0.01368816       0.03654330
5
Lattice="4.044922625911538 0.0 0.0 -2.022461312955769 3.450459055348541 0.0 0.0 0.0 4.907862374000466" Properties=species:S:1:pos:R:3:forces:R:3 config_id=cfg198_Al3Ni2_uniaxial_y_compression phase=Al3Ni2 config_type=uniaxial target_role=TRAIN magnitude_source="cross-phase median" source=QE_7.6_PBE provenance=/workspace/ni_al/data/al3ni_remediation_v1/round300_production_dft/pod08/cfg198_Al3Ni2_uniaxial_y_compression/attempt_001/qe.out qe_output_sha256=556c962d91fd3cf0af58dce7fcb5cd39da14dd11edd3fdc3bc6909988b4deb79 canonical_input=/workspace/ni_al/data/al3ni_remediation_v1/round300_structures/round300_al3ni2/cfg198_Al3Ni2_uniaxial_y_compression.in canonical_input_sha256=9f8461eb7ca4d5bb33693f9e57f9ac095fdfaf978ef75bfa3dfe08c122cde2d5 energy=-10956.500913122558 stress="-0.0069843109635662586 -0.0 -0.0 -0.0 -0.024278067890649787 -0.0005539459313760797 -0.0 -0.0005539459313760797 -0.007249338919251236" pbc="T T T"
Al       0.00000000       0.00000000       0.00000000       0.00000000       0.00000000       0.00000000
Al      -0.00000283       2.30030763       3.17789306       0.00000000      -0.06171842      -0.01781151
Al       2.02246293       1.15015183       1.72996891       0.00000000       0.06171842       0.01781151
Ni      -0.00000283       2.30030763       0.71968598       0.00000000       0.01199902       0.02918841
Ni       2.02246293       1.15015183       4.18817639       0.00000000      -0.01199902      -0.02918841
5
Lattice="4.1480681528724315 0.0 0.0 -2.0740340764357152 3.503004117104864 0.0 0.0 0.0 5.033012864538255" Properties=species:S:1:pos:R:3:forces:R:3 config_id=cfg201_Al3Ni2_biaxial_xz_expansion phase=Al3Ni2 config_type=biaxial target_role=TRAIN magnitude_source="mirrored/fallback median" source=QE_7.6_PBE provenance=/workspace/ni_al/data/al3ni_remediation_v1/round300_production_dft/pod01/cfg201_Al3Ni2_biaxial_xz_expansion/attempt_001/qe.out qe_output_sha256=abc9bf30186a03d61ede884f05e480273a75c808ce9b0b09158973378ae8689c canonical_input=/workspace/ni_al/data/al3ni_remediation_v1/round300_structures/round300_al3ni2/cfg201_Al3Ni2_biaxial_xz_expansion.in canonical_input_sha256=32f7515408ea563a770d5abc58c32df6c94ca5dfc976819cccdcf13c73feca32 energy=-10956.427045589382 stress="0.04443600774925236 -6.351089333589649e-15 -0.0 -6.351089333589649e-15 0.020302105577678305 -0.000686306529828156 -0.0 -0.000686306529828156 0.04780122779330855" pbc="T T T"
Al       0.00000000       0.00000000       0.00000000       0.00000000       0.00000000       0.00000000
Al      -0.00000290       2.33533770       3.25892933       0.00000000      -0.07466207       0.07110752
Al       2.07403573       1.16766683       1.77408312       0.00000000       0.07466207      -0.07110752
Ni      -0.00000290       2.33533770       0.73803797       0.00000000       0.02236382      -0.02246057
Ni       2.07403573       1.16766683       4.29497489       0.00000000      -0.02236382       0.02246057
5
Lattice="3.941777098950647 0.0 0.0 -1.970888549475824 3.503004117104864 0.0 0.0 0.0 4.782711883463677" Properties=species:S:1:pos:R:3:forces:R:3 config_id=cfg202_Al3Ni2_biaxial_xz_compression phase=Al3Ni2 config_type=biaxial target_role=TRAIN magnitude_source="cross-phase median" source=QE_7.6_PBE provenance=/workspace/ni_al/data/al3ni_remediation_v1/round300_production_dft/pod02/cfg202_Al3Ni2_biaxial_xz_compression/attempt_001/qe.out qe_output_sha256=030fdbc6d4625f67c76dd917f06fe56186b8ded4168b0ad534595128e2b57682 canonical_input=/workspace/ni_al/data/al3ni_remediation_v1/round300_structures/round300_al3ni2/cfg202_Al3Ni2_biaxial_xz_compression.in canonical_input_sha256=dbe70b5e92a07fe9f6d86ae774d2777c790c47ef782a5f2244c9c7d368046af6 energy=-10956.41201327932 stress="-0.057066488201129834 -8.152887404717747e-15 -0.0 -8.152887404717747e-15 -0.026140474005739572 0.0006175969435019425 -0.0 0.0006175969435019425 -0.0641830679415674" pbc="T T T"
Al       0.00000000       0.00000000       0.00000000       0.00000000       0.00000000       0.00000000
Al      -0.00000276       2.33533770       3.09685678       0.00000000       0.11407998      -0.09380248
Al       1.97089012       1.16766683       1.68585470       0.00000000      -0.11407998       0.09380248
Ni      -0.00000276       2.33533770       0.70133399       0.00000000      -0.01445205       0.03010327
Ni       1.97089012       1.16766683       4.08137789       0.00000000       0.01445205      -0.03010327
5
Lattice="4.044922625911538 0.0 0.0 -2.022461312955769 3.597585228267245 0.0 0.0 0.0 5.040374658098537" Properties=species:S:1:pos:R:3:forces:R:3 config_id=cfg203_Al3Ni2_biaxial_yz_expansion phase=Al3Ni2 config_type=biaxial target_role=TRAIN magnitude_source="cross-phase median" source=QE_7.6_PBE provenance=/workspace/ni_al/data/al3ni_remediation_v1/round300_production_dft/pod03/cfg203_Al3Ni2_biaxial_yz_expansion/attempt_001/qe.out qe_output_sha256=9487224fd80c0c90f78b3dff1f928d06d6f36f0e0260b3873e65a335d7092902 canonical_input=/workspace/ni_al/data/al3ni_remediation_v1/round300_structures/round300_al3ni2/cfg203_Al3Ni2_biaxial_yz_expansion.in canonical_input_sha256=b609dbe5ce390565be9a862546b214f90c2c89ffe98bdd41b0d2de9b50108e2d energy=-10956.417533114805 stress="0.022244368981775533 -2.4886713689614624e-18 -0.0 -2.4886713689614624e-18 0.0458736792782899 0.0005876776570457504 -0.0 0.0005876776570457504 0.050320324454190955" pbc="T T T"
Al       0.00000000       0.00000000       0.00000000       0.00000000       0.00000000       0.00000000
Al      -0.00000283       2.39839182       3.26369617       0.00000000       0.07292913       0.07492576
Al       2.02246293       1.19919383       1.77667807       0.00000000      -0.07292913      -0.07492576
Ni      -0.00000283       2.39839182       0.73911750       0.00000000      -0.02339796      -0.02363883
Ni       2.02246293       1.19919383       4.30125715       0.00000000       0.02339796       0.02363883
5
Lattice="4.044922625911538 0.0 0.0 -2.022461312955769 3.408423005943483 0.0 0.0 0.0 4.775350089902396" Properties=species:S:1:pos:R:3:forces:R:3 config_id=cfg204_Al3Ni2_biaxial_yz_compression phase=Al3Ni2 config_type=biaxial target_role=TRAIN magnitude_source="mirrored/fallback median" source=QE_7.6_PBE provenance=/workspace/ni_al/data/al3ni_remediation_v1/round300_production_dft/pod04/cfg204_Al3Ni2_biaxial_yz_compression/attempt_001/qe.out qe_output_sha256=5777f32d5e1ccbb9b02b6ff7c79d0ee64d8b7255c183c007b26c8cd04c5e063f canonical_input=/workspace/ni_al/data/al3ni_remediation_v1/round300_structures/round300_al3ni2/cfg204_Al3Ni2_biaxial_yz_compression.in canonical_input_sha256=fe05a8f6a2a0f808a310f52e7b47b5292d512630bfd534ae46bacd884c0b46c8 energy=-10956.398367817226 stress="-0.02645116892394126 -0.0 -0.0 -0.0 -0.062335121325839196 -0.0009314760435224182 -0.0 -0.0009314760435224182 -0.06849993036434981" pbc="T T T"
Al       0.00000000       0.00000000       0.00000000       0.00000000       0.00000000       0.00000000
Al      -0.00000283       2.27228358       3.09208995       0.00000000      -0.12755984      -0.09934047
Al       2.02246293       1.13613982       1.68325975       0.00000000       0.12755984       0.09934047
Ni      -0.00000283       2.27228358       0.70025446       0.00000000       0.01723481       0.03188868
Ni       2.02246293       1.13613982       4.07509562       0.00000000      -0.01723481      -0.03188868
5
Lattice="3.9660466347060925 0.0 0.0 -1.9830233173530465 3.5713126973880844 0.0 0.0 0.0 4.907862374000466" Properties=species:S:1:pos:R:3:forces:R:3 config_id=cfg205_Al3Ni2_orthorhombic_xy_compression phase=Al3Ni2 config_type=orthorhombic target_role=TRAIN magnitude_source="mirrored/fallback median" source=QE_7.6_PBE provenance=/workspace/ni_al/data/al3ni_remediation_v1/round300_production_dft/pod06/cfg205_Al3Ni2_orthorhombic_xy_compression/attempt_001/qe.out qe_output_sha256=6531dccf17f492ff6c956a5d2f489e864c11e094d6b3864cc0a316a116dc77f3 canonical_input=/workspace/ni_al/data/al3ni_remediation_v1/round300_structures/round300_al3ni2/cfg205_Al3Ni2_orthorhombic_xy_compression.in canonical_input_sha256=c394f89b40e72049fdd064e8db99f5e655c3f2c6639a82f27c4e5929b4fd0b90 energy=-10956.4862437091 stress="-0.02107933032040093 2.4886713689614624e-18 -0.0 2.4886713689614624e-18 0.018534700536392668 0.0009047955912460186 -0.0 0.0009047955912460186 -0.000890362668609917" pbc="T T T"
Al       0.00000000       0.00000000       0.00000000       0.00000000       0.00000000       0.00000000
Al      -0.00000277       2.38087678       3.17789306       0.00000000       0.13683165      -0.00980611
Al       1.98302490       1.19043633       1.72996891       0.00000000      -0.13683165       0.00980611
Ni      -0.00000277       2.38087678       0.71968598       0.00000000      -0.02867498       0.00402077
Ni       1.98302490       1.19043633       4.18817639       0.00000000       0.02867498      -0.00402077
5
Lattice="4.14200076893332 0.0 0.0 -2.0710003844666605 3.503004117104864 0.0 0.0 0.0 4.790073677024959" Properties=species:S:1:pos:R:3:forces:R:3 config_id=cfg206_Al3Ni2_orthorhombic_xz_expansion phase=Al3Ni2 config_type=orthorhombic target_role=TRAIN magnitude_source="cross-phase median" source=QE_7.6_PBE provenance=/workspace/ni_al/data/al3ni_remediation_v1/round300_production_dft/pod08/cfg206_Al3Ni2_orthorhombic_xz_expansion/attempt_001/qe.out qe_output_sha256=0695605856fb55ba9af40e458096e873fa32c10140b6e949b3d3783bff2e04a0 canonical_input=/workspace/ni_al/data/al3ni_remediation_v1/round300_structures/round300_al3ni2/cfg206_Al3Ni2_orthorhombic_xz_expansion.in canonical_input_sha256=c7012a30e1613d8d60da43c1ef8c3af85ba3f5ff239236a7f0fe3bd224b6280f energy=-10956.46195500105 stress="0.02675009202767953 -0.0 -0.0 -0.0 0.0005407218678602364 -0.0002684791498875666 -0.0 -0.0002684791498875666 -0.0373263117109477" pbc="T T T"
Al       0.00000000       0.00000000       0.00000000       0.00000000       0.00000000       0.00000000
Al      -0.00000290       2.33533770       3.10162362       0.00000000      -0.07894389      -0.03833374
Al       2.07100204       1.16766683       1.68844966       0.00000000       0.07894389       0.03833374
Ni      -0.00000290       2.33533770       0.70241352       0.00000000       0.01275324      -0.06454833
Ni       2.07100204       1.16766683       4.08766015       0.00000000      -0.01275324       0.06454833
5
Lattice="3.9478444828897583 0.0 0.0 -1.973922241444879 3.503004117104864 0.0 0.0 0.0 5.025651070976973" Properties=species:S:1:pos:R:3:forces:R:3 config_id=cfg207_Al3Ni2_orthorhombic_xz_compression phase=Al3Ni2 config_type=orthorhombic target_role=TRAIN magnitude_source="mirrored/fallback median" source=QE_7.6_PBE provenance=/workspace/ni_al/data/al3ni_remediation_v1/round300_production_dft/pod01/cfg207_Al3Ni2_orthorhombic_xz_compression/attempt_001/qe.out qe_output_sha256=af64de0ad164dbef9c247b2eeeb6bcfe633090c594a6c835e4e4909e579c66f2 canonical_input=/workspace/ni_al/data/al3ni_remediation_v1/round300_structures/round300_al3ni2/cfg207_Al3Ni2_orthorhombic_xz_compression.in canonical_input_sha256=49c0c375810451bfc2cc1391bb57d4713f11cc32df17c5281f3026f1b87627a9 energy=-10956.46795838878 stress="-0.027378423474674594 -0.0 -0.0 -0.0 -0.0012848591951865763 0.0012166418937522205 -0.0 0.0012166418937522205 0.027341348976029464" pbc="T T T"
Al       0.00000000       0.00000000       0.00000000       0.00000000       0.00000000       0.00000000
Al      -0.00000276       2.33533770       3.25416249       0.00000000       0.09363117       0.03150764
Al       1.97392382       1.16766683       1.77148816       0.00000000      -0.09363117      -0.03150764
Ni      -0.00000276       2.33533770       0.73695844       0.00000000      -0.02646529       0.06741461
Ni       1.97392382       1.16766683       4.28869262       0.00000000       0.02646529      -0.06741461
5
Lattice="4.044922625911538 0.0 0.0 -2.022461312955769 3.5713126973880844 0.0 0.0 0.0 4.812159057707804" Properties=species:S:1:pos:R:3:forces:R:3 config_id=cfg208_Al3Ni2_orthorhombic_yz_expansion phase=Al3Ni2 config_type=orthorhombic target_role=TRAIN magnitude_source="cross-phase median" source=QE_7.6_PBE provenance=/workspace/ni_al/data/al3ni_remediation_v1/round300_production_dft/pod02/cfg208_Al3Ni2_orthorhombic_yz_expansion/attempt_001/qe.out qe_output_sha256=afb02a52da5350edbc12c08ef5ea9b66f779dc183f524748297af8714eb4dc87 canonical_input=/workspace/ni_al/data/al3ni_remediation_v1/round300_structures/round300_al3ni2/cfg208_Al3Ni2_orthorhombic_yz_expansion.in canonical_input_sha256=a15627a651089eddbb0de9db0be0eb762340b416f7b3777debd0bab74e448f3c energy=-10956.480269889124 stress="0.001059128509689606 -0.0 -0.0 -0.0 0.021165739888160923 0.00013167654935149092 -0.0 0.00013167654935149092 -0.029265278805619754" pbc="T T T"
Al       0.00000000       0.00000000       0.00000000       0.00000000       0.00000000       0.00000000
Al      -0.00000283       2.38087678       3.11592414       0.00000000       0.06319313      -0.03117076
Al       2.02246293       1.19043633       1.69623452       0.00000000      -0.06319313       0.03117076
Ni      -0.00000283       2.38087678       0.70565210       0.00000000      -0.01023086      -0.05371935
Ni       2.02246293       1.19043633       4.10650695       0.00000000       0.01023086       0.05371935
5
Lattice="4.044922625911538 0.0 0.0 -2.022461312955769 3.4346955368216445 0.0 0.0 0.0 5.003565690294128" Properties=species:S:1:pos:R:3:forces:R:3 config_id=cfg209_Al3Ni2_orthorhombic_yz_compression phase=Al3Ni2 config_type=orthorhombic target_role=TRAIN magnitude_source="mirrored/fallback median" source=QE_7.6_PBE provenance=/workspace/ni_al/data/al3ni_remediation_v1/round300_production_dft/pod03/cfg209_Al3Ni2_orthorhombic_yz_compression/attempt_001/qe.out qe_output_sha256=ab3b1507df2ba11d785ccee3add51ef724b286659f20d2d89c6f47646e66f6bc canonical_input=/workspace/ni_al/data/al3ni_remediation_v1/round300_structures/round300_al3ni2/cfg209_Al3Ni2_orthorhombic_yz_compression.in canonical_input_sha256=e032138a59ebdf3fe74d9950683e7b4293b9ec9bb6296551c743806360799aea energy=-10956.483200967048 stress="-0.0002554437577120772 -0.0 -0.0 -0.0 -0.022371603960576816 -0.0009823602997006246 -0.0 -0.0009823602997006246 0.022449073452582312" pbc="T T T"
Al       0.00000000       0.00000000       0.00000000       0.00000000       0.00000000       0.00000000
Al      -0.00000283       2.28979861       3.23986197       0.00000000      -0.07874757       0.02501433
Al       2.02246293       1.14489733       1.76370330       0.00000000       0.07874757      -0.02501433
Ni      -0.00000283       2.28979861       0.73371986       0.00000000       0.02048299       0.05475834
Ni       2.02246293       1.14489733       4.26984583       0.00000000      -0.02048299      -0.05475834
5
Lattice="4.044922625911538 0.0 0.0 -2.022461312955769 3.503004117104864 0.0 0.13251228409807056 0.0 4.907862374000466" Properties=species:S:1:pos:R:3:forces:R:3 config_id=cfg214_Al3Ni2_shear_rattle_xz_positive phase=Al3Ni2 config_type=shear_rattle target_role=TRAIN magnitude_source="cross-phase median" source=QE_7.6_PBE provenance=/workspace/ni_al/data/al3ni_remediation_v1/round300_production_dft/pod09/cfg214_Al3Ni2_shear_rattle_xz_positive/attempt_001/qe.out qe_output_sha256=d3075ff0e43ffd85d8a7de48ea2d74461d2019ace9d3a4838f3738b3160914a8 canonical_input=/workspace/ni_al/data/al3ni_remediation_v1/round300_structures/round300_al3ni2/cfg214_Al3Ni2_shear_rattle_xz_positive.in canonical_input_sha256=5a2d739f514e92c598a8aa2a451a5a634958d7d4cb4f865269755db59839f31c energy=-10956.486466519635 stress="-0.002754218508160294 0.0012766156550430964 0.014999069372916606 0.0012766156550430964 -0.0009522985638330626 -8.662822331820739e-06 0.014999069372916606 -8.662822331820739e-06 -0.0015626616330231737" pbc="T T T"
Al      -0.00376620       0.00814658       0.01155484       0.01024783      -0.09676616      -0.05864651
Al       0.11731604       2.32504607       3.18450241      -0.23089964       0.07877807      -0.11469951
Al       2.05468819       1.16886955       1.71023324       0.12034349      -0.01742571       0.26517905
Ni       0.02290318       2.34279718       0.71079398      -0.13349888      -0.03174327       0.12911446
Ni       2.11880355       1.16114967       4.19863986       0.23380720       0.06715707      -0.22094749
5
Lattice="4.044922625911538 0.0 0.0 -2.022461312955769 3.503004117104864 0.0 -0.1423280088457795 0.0 4.907862374000466" Properties=species:S:1:pos:R:3:forces:R:3 config_id=cfg216_Al3Ni2_shear_rattle_xz_negative phase=Al3Ni2 config_type=shear_rattle target_role=TRAIN magnitude_source="cross-phase median" source=QE_7.6_PBE provenance=/workspace/ni_al/data/al3ni_remediation_v1/round300_production_dft/pod10/cfg216_Al3Ni2_shear_rattle_xz_negative/attempt_001/qe.out qe_output_sha256=bf3f5f8c990878bc1ff39af11b070ee36337ac25c6a03de78e79e81089cf0ef2 canonical_input=/workspace/ni_al/data/al3ni_remediation_v1/round300_structures/round300_al3ni2/cfg216_Al3Ni2_shear_rattle_xz_negative.in canonical_input_sha256=d34ce4c1096cd611fcf3ef1b61530cb3e268b61ce719738a79bb442e93ddf07f energy=-10956.47918881929 stress="-0.002459172478558266 -0.0006878230101436383 -0.014868493157929936 -0.0006878230101436383 -0.001355300155025064 -0.0005172886339482889 -0.014868493157929936 -0.0005172886339482889 -0.0013886571141274113" pbc="T T T"
Al       3.89032132       0.00299472       4.86885202       0.15038840      -0.04355108       0.17550275
Al      -0.09556457       2.33144417       3.18117274      -0.02840310       0.06270095      -0.00466971
Al       1.98906593       1.17426546       1.72047712      -0.05085867      -0.08138322       0.27786981
Ni       0.00267566       2.32282069       0.72673355      -0.18121052       0.13250795      -0.01521384
Ni       1.87636047       1.17448402       4.22635127       0.11008389      -0.07027459      -0.43348901
5
Lattice="4.044922625911538 0.0 0.0 -2.022461312955769 3.503004117104864 0.0 0.0 -0.22085380683045094 4.907862374000466" Properties=species:S:1:pos:R:3:forces:R:3 config_id=cfg219_Al3Ni2_shear_rattle_yz_negative phase=Al3Ni2 config_type=shear_rattle target_role=TRAIN magnitude_source="cross-phase median" source=QE_7.6_PBE provenance=/workspace/ni_al/data/al3ni_remediation_v1/round300_production_dft/pod05/cfg219_Al3Ni2_shear_rattle_yz_negative/attempt_001/qe.out qe_output_sha256=6cccc8b4b6d371fbf2aeabc91947894bce1681976ed2dee9f2a65ea5ef505fd5 canonical_input=/workspace/ni_al/data/al3ni_remediation_v1/round300_structures/round300_al3ni2/cfg219_Al3Ni2_shear_rattle_yz_negative.in canonical_input_sha256=fc81c72df2e4f7413bbc0b8f68a8e7a92994e655d0fc32d70b23d02212f4119e energy=-10956.43421527512 stress="-0.001589776857662856 0.0014968484694556758 0.0008591052359767468 0.0014968484694556758 -0.005741464104113371 -0.024492980492538792 0.0008591052359767468 -0.024492980492538792 -0.0033226763826369444" pbc="T T T"
Al       4.01917776      -0.17697249       4.90313100       0.21989533      -0.60661285      -0.00571753
Al       0.04437484       2.18358612       3.20918542      -0.34262494      -0.01536495      -0.45558894
Al       2.03204883       1.07856524       1.72098847      -0.00591310       0.13033311       0.13293836
Ni       0.00380439       2.29747409       0.70656931      -0.12067181       0.27555655       0.29299814
Ni       1.99043701       0.96079469       4.18371250       0.24931452       0.21608814       0.03536997
5
Lattice="4.230989066703286 0.0 0.0 -2.115494533352143 3.6641423064915877 0.0 0.0 0.0 5.133624043204772" Properties=species:S:1:pos:R:3:forces:R:3 config_id=cfg220_Al3Ni2_volume_rattle_expansion phase=Al3Ni2 config_type=volume_rattle target_role=TRAIN magnitude_source="cross-phase median" source=QE_7.6_PBE provenance=/workspace/ni_al/data/al3ni_remediation_v1/round300_production_dft/pod06/cfg220_Al3Ni2_volume_rattle_expansion/attempt_001/qe.out qe_output_sha256=f91b1d9b07cfd1ccce1c889b1d94466eff5a29dd97a130d55e13779a4717f250 canonical_input=/workspace/ni_al/data/al3ni_remediation_v1/round300_structures/round300_al3ni2/cfg220_Al3Ni2_volume_rattle_expansion.in canonical_input_sha256=21090ef43ad64629c5f5e601db7a30fc9cc35e85de6c1f0f0b69c70272d4244a energy=-10956.034111586712 stress="0.08033721135358211 -0.0004942339782758884 -5.320473844272795e-05 -0.0004942339782758884 0.08110164283380342 0.0001187274220392672 -5.320473844272795e-05 0.0001187274220392672 0.08771031040163954" pbc="T T T"
Al      -2.09688238       3.66327762       5.12893747      -0.16644278      -0.02909934       0.02080731
Al      -0.01356114       2.45054088       3.32488466       0.07274064      -0.02869165       0.11879702
Al       2.12929389       1.23986093       1.82648391      -0.06810079      -0.06686646      -0.26449774
Ni      -0.01300186       2.43865583       0.73837988       0.10488440       0.02105351       0.00821444
Ni       2.10964347       1.20009252       4.38218578       0.05691854       0.10360394       0.11667898
8
Lattice="3.7058719438298424 0.0 0.0 0.0 4.9813239600063834 -0.5517008690064054 0.0 -0.013830238848135959 5.011764782236874" Properties=species:S:1:pos:R:3:forces:R:3 config_id=cfg222_Al3Ni5_uniaxial_x_compression phase=Al3Ni5 config_type=uniaxial target_role=TRAIN magnitude_source="cross-phase median" source=QE_7.6_PBE provenance=/workspace/ni_al/data/al3ni_remediation_v1/round300_production_dft/pod09/cfg222_Al3Ni5_uniaxial_x_compression/attempt_001/qe.out qe_output_sha256=ba44c833ea170114ece309be7663e369c35879474d8725c42b463cc5f7809a1d canonical_input=/workspace/ni_al/data/al3ni_remediation_v1/round300_structures/round300_al3ni5/cfg222_Al3Ni5_uniaxial_x_compression.in canonical_input_sha256=b489c802692479176c6b4aca31c411bac9ff567d79b92b76cf533ff115ca4685 energy=-24969.608273271708 stress="-0.026652448273004867 -0.0 -0.0 -0.0 -0.012581297231296598 -0.0018260571027512219 -0.0 -0.0018260571027512219 -0.0121859470850021" pbc="T T T"
Al       0.00000000       2.48374724       2.23003083       0.00000000       0.00000000       0.00000000
Al       1.85293597       1.08762639       3.78500153       0.00000000       0.01309531      -0.01459640
Al       1.85293597       3.87986771       0.67506051       0.00000000      -0.01309531       0.01459640
Ni       0.00000000       0.00000000       0.00000000       0.00000000       0.00000000       0.00000000
Ni       0.00000000       2.47683212       4.73591359       0.00000000       0.00000000       0.00000000
Ni       0.00000000       4.97440884       1.95418152       0.00000000       0.00000000       0.00000000
Ni       1.85293597       1.37310155       1.23285556       0.00000000      -0.04871131      -0.04397771
Ni       1.85293597       3.59439255       3.22720648       0.00000000       0.04871131       0.04397771
8
Lattice="3.7623065419586723 0.0 0.0 0.0 5.056043819405494 -0.5517008690064054 0.0 -0.014037692431002998 5.011764782236874" Properties=species:S:1:pos:R:3:forces:R:3 config_id=cfg223_Al3Ni5_uniaxial_y_expansion phase=Al3Ni5 config_type=uniaxial target_role=TRAIN magnitude_source="cross-phase median" source=QE_7.6_PBE provenance=/workspace/ni_al/data/al3ni_remediation_v1/round300_production_dft/pod10/cfg223_Al3Ni5_uniaxial_y_expansion/attempt_001/qe.out qe_output_sha256=c4896afb92658dea00f669ebbc8f30bb1470410edea7834d7bc609c50bf3f6e3 canonical_input=/workspace/ni_al/data/al3ni_remediation_v1/round300_structures/round300_al3ni5/cfg223_Al3Ni5_uniaxial_y_expansion.in canonical_input_sha256=ef5560bf951d5312d56e1ea11f1609e1075e9c270d91926900fab8dd0c458c07 energy=-24969.608142684432 stress="0.010974882358989 -0.0 -0.0 -0.0 0.02736814763745977 -0.0014787379936470723 -0.0 -0.0014787379936470723 0.005524382396214095" pbc="T T T"
Al       0.00000000       2.52100345       2.23003083       0.00000000       0.00000000       0.00000000
Al       1.88115327       1.10394079       3.78500153       0.00000000      -0.03853561      -0.01021302
Al       1.88115327       3.93806572       0.67506051       0.00000000       0.03853561       0.01021302
Ni       0.00000000       0.00000000       0.00000000       0.00000000       0.00000000       0.00000000
Ni       0.00000000       2.51398460       4.73591359       0.00000000       0.00000000       0.00000000
Ni       0.00000000       5.04902497       1.95418152       0.00000000       0.00000000       0.00000000
Ni       1.88115327       1.39369807       1.23285556       0.00000000      -0.03185018      -0.00281598
Ni       1.88115327       3.64830844       3.22720648       0.00000000       0.03185018       0.00281598
8
Lattice="3.7623065419586723 0.0 0.0 0.0 4.9813239600063834 -0.5599763820411012 0.0 -0.013830238848135959 5.086941253970692" Properties=species:S:1:pos:R:3:forces:R:3 config_id=cfg224_Al3Ni5_uniaxial_z_expansion phase=Al3Ni5 config_type=uniaxial target_role=TRAIN magnitude_source="cross-phase median" source=QE_7.6_PBE provenance=/workspace/ni_al/data/al3ni_remediation_v1/round300_production_dft/pod07/cfg224_Al3Ni5_uniaxial_z_expansion/attempt_001/qe.out qe_output_sha256=3f0dfa2ce4ec003329074b8c3015cd30e822f43af376b7c0c1ae20793f343bbc canonical_input=/workspace/ni_al/data/al3ni_remediation_v1/round300_structures/round300_al3ni5/cfg224_Al3Ni5_uniaxial_z_expansion.in canonical_input_sha256=9818841986e82d12dfdadb65f1cb43a0ba7d6a7ceaba2ae91e5890d68b539854 energy=-24969.607918205238 stress="0.010661979879477606 -0.0 -0.0 -0.0 0.005580052618567478 1.2549235149658535e-05 -0.0 1.2549235149658535e-05 0.02771019363362983" pbc="T T T"
Al       0.00000000       2.48374724       2.26348129       0.00000000       0.00000000       0.00000000
Al       1.88115327       1.08762639       3.84177655       0.00000000       0.01738253       0.03410334
Al       1.88115327       3.87986771       0.68518642       0.00000000      -0.01738253      -0.03410334
Ni       0.00000000       0.00000000       0.00000000       0.00000000       0.00000000       0.00000000
Ni       0.00000000       2.47683212       4.80695230       0.00000000       0.00000000       0.00000000
Ni       0.00000000       4.97440884       1.98349424       0.00000000       0.00000000       0.00000000
Ni       1.88115327       1.37310155       1.25134839       0.00000000      -0.00499593      -0.03093024
Ni       1.88115327       3.59439255       3.27561458       0.00000000       0.00499593       0.03093024
8
Lattice="3.6607242653257788 0.0 0.0 0.0 4.846828213085583 -0.5517008690064054 0.0 -0.013456822399375292 5.011764782236874" Properties=species:S:1:pos:R:3:forces:R:3 config_id=cfg227_Al3Ni5_biaxial_xy_compression phase=Al3Ni5 config_type=biaxial target_role=TRAIN magnitude_source="cross-phase median" source=QE_7.6_PBE provenance=/workspace/ni_al/data/al3ni_remediation_v1/round300_production_dft/pod05/cfg227_Al3Ni5_biaxial_xy_compression/attempt_001/qe.out qe_output_sha256=c20f7916f0d22ab13658a6239b1f1433bae1a18cb32bc8bdd61f93f96839811c canonical_input=/workspace/ni_al/data/al3ni_remediation_v1/round300_structures/round300_al3ni5/cfg227_Al3Ni5_biaxial_xy_compression.in canonical_input_sha256=8a2cc95f60718c5d822604cd630d766ca792f021984d0c0b079e282c437e0b52 energy=-24969.431096273405 stress="-0.076467585799365 -0.0 -0.0 -0.0 -0.08734267156252198 -9.28101262509791e-05 -0.0 -9.28101262509791e-05 -0.03663737922648656" pbc="T T T"
Al       0.00000000       2.41668606       2.23003083       0.00000000       0.00000000       0.00000000
Al       1.83036213       1.05826048       3.78500153       0.00000000       0.10429485      -0.00595314
Al       1.83036213       3.77511128       0.67506051       0.00000000      -0.10429485       0.00595314
Ni       0.00000000       0.00000000       0.00000000       0.00000000       0.00000000       0.00000000
Ni       0.00000000       2.40995765       4.73591359       0.00000000       0.00000000       0.00000000
Ni       0.00000000       4.84009980       1.95418152       0.00000000       0.00000000       0.00000000
Ni       1.83036213       1.33602781       1.23285556       0.00000000      -0.01464946      -0.07509507
Ni       1.83036213       3.49734395       3.22720648       0.00000000       0.01464946       0.07509507
8
Lattice="3.858245358779184 0.0 0.0 0.0 4.9813239600063834 -0.5657692411663884 0.0 -0.013830238848135959 5.139564784183964" Properties=species:S:1:pos:R:3:forces:R:3 config_id=cfg228_Al3Ni5_biaxial_xz_expansion phase=Al3Ni5 config_type=biaxial target_role=TRAIN magnitude_source="mirrored/fallback median" source=QE_7.6_PBE provenance=/workspace/ni_al/data/al3ni_remediation_v1/round300_production_dft/pod06/cfg228_Al3Ni5_biaxial_xz_expansion/attempt_001/qe.out qe_output_sha256=1e6674f502ce82028a27097ec37b883f7b0158a8d47315beda1abbfd68434414 canonical_input=/workspace/ni_al/data/al3ni_remediation_v1/round300_structures/round300_al3ni5/cfg228_Al3Ni5_biaxial_xz_expansion.in canonical_input_sha256=d4e94e00255bc714a4ed0471058a88c9c49afb1cd2d85a341d8ec5768eed76dc energy=-24969.482604106823 stress="0.05477300771897557 -0.0 -0.0 -0.0 0.02557152015555424 0.002700611177685195 -0.0 0.002700611177685195 0.060164937342793975" pbc="T T T"
Al       0.00000000       2.48374724       2.28689661       0.00000000       0.00000000       0.00000000
Al       1.92912268       1.08762639       3.88151907       0.00000000       0.01367967       0.07655475
Al       1.92912268       3.87986771       0.69227455       0.00000000      -0.01367967      -0.07655475
Ni       0.00000000       0.00000000       0.00000000       0.00000000       0.00000000       0.00000000
Ni       0.00000000       2.47683212       4.85667939       0.00000000       0.00000000       0.00000000
Ni       0.00000000       4.97440884       2.00401315       0.00000000       0.00000000       0.00000000
Ni       1.92912268       1.37310155       1.26429338       0.00000000       0.06255187       0.01868632
Ni       1.92912268       3.59439255       3.30950024       0.00000000      -0.06255187      -0.01868632
8
Lattice="3.7623065419586723 0.0 0.0 0.0 5.115819706926183 -0.5665967924698586 0.0 -0.014203655296896633 5.147082431357147" Properties=species:S:1:pos:R:3:forces:R:3 config_id=cfg229_Al3Ni5_biaxial_yz_expansion phase=Al3Ni5 config_type=biaxial target_role=TRAIN magnitude_source="cross-phase median" source=QE_7.6_PBE provenance=/workspace/ni_al/data/al3ni_remediation_v1/round300_production_dft/pod08/cfg229_Al3Ni5_biaxial_yz_expansion/attempt_001/qe.out qe_output_sha256=97c9fb36936ddeada6736c8410cc3023a30f6a24cf1f2d982e18075e90e7e5a1 canonical_input=/workspace/ni_al/data/al3ni_remediation_v1/round300_structures/round300_al3ni5/cfg229_Al3Ni5_biaxial_yz_expansion.in canonical_input_sha256=cb86b23f210959f58cf73b7c0ba002f7be83ccf21e74d25dfa4478d48dd5f0c2 energy=-24969.479562407727 stress="0.036859024973200455 -0.0 -0.0 -0.0 0.05475927960218302 -0.0023599173035230275 -0.0 -0.0023599173035230275 0.05526922685911752" pbc="T T T"
Al       0.00000000       2.55080841       2.29024166       0.00000000       0.00000000       0.00000000
Al       1.88115327       1.11699230       3.88719657       0.00000000      -0.03613958       0.04024439
Al       1.88115327       3.98462414       0.69328714       0.00000000       0.03613958      -0.04024439
Ni       0.00000000       0.00000000       0.00000000       0.00000000       0.00000000       0.00000000
Ni       0.00000000       2.54370659       4.86378326       0.00000000       0.00000000       0.00000000
Ni       0.00000000       5.10871788       2.00694442       0.00000000       0.00000000       0.00000000
Ni       1.88115327       1.41017529       1.26614266       0.00000000      -0.06560760      -0.05892507
Ni       1.88115327       3.69144115       3.31434105       0.00000000       0.06560760       0.05892507
8
Lattice="3.7623065419586723 0.0 0.0 0.0 4.846828213085583 -0.5368049455429525 0.0 -0.013456822399375292 4.8764471331166" Properties=species:S:1:pos:R:3:forces:R:3 config_id=cfg230_Al3Ni5_biaxial_yz_compression phase=Al3Ni5 config_type=biaxial target_role=TRAIN magnitude_source="mirrored/fallback median" source=QE_7.6_PBE provenance=/workspace/ni_al/data/al3ni_remediation_v1/round300_production_dft/pod01/cfg230_Al3Ni5_biaxial_yz_compression/attempt_001/qe.out qe_output_sha256=43804ea472873c475cbdc539259fadfa3924fa3623e4da7998f2d22820e7bb06 canonical_input=/workspace/ni_al/data/al3ni_remediation_v1/round300_structures/round300_al3ni5/cfg230_Al3Ni5_biaxial_yz_compression.in canonical_input_sha256=5435d123bfe80716f7ea9ca9a84ad64d8722dcd7e1140629720c929c7b63c40d energy=-24969.447228290774 stress="-0.0461322667366601 -0.0 -0.0 -0.0 -0.07499508369746256 0.0034037367992543538 -0.0 0.0034037367992543538 -0.07572947088033988" pbc="T T T"
Al       0.00000000       2.41668606       2.16982000       0.00000000       0.00000000       0.00000000
Al       1.88115327       1.05826048       3.68280649       0.00000000       0.04094473      -0.04558042
Al       1.88115327       3.77511128       0.65683388       0.00000000      -0.04094473       0.04558042
Ni       0.00000000       0.00000000       0.00000000       0.00000000       0.00000000       0.00000000
Ni       0.00000000       2.40995765       4.60804393       0.00000000       0.00000000       0.00000000
Ni       0.00000000       4.84009980       1.90141862       0.00000000       0.00000000       0.00000000
Ni       1.88115327       1.33602781       1.19956846       0.00000000       0.09439850       0.08465617
Ni       1.88115327       3.49734395       3.14007190       0.00000000      -0.09439850      -0.08465617
8
Lattice="3.835671519526652 0.0 0.0 0.0 4.884188142785639 -0.5517008690064054 0.0 -0.013560549190308809 5.011764782236874" Properties=species:S:1:pos:R:3:forces:R:3 config_id=cfg231_Al3Ni5_orthorhombic_xy_expansion phase=Al3Ni5 config_type=orthorhombic target_role=TRAIN magnitude_source="cross-phase median" source=QE_7.6_PBE provenance=/workspace/ni_al/data/al3ni_remediation_v1/round300_production_dft/pod02/cfg231_Al3Ni5_orthorhombic_xy_expansion/attempt_001/qe.out qe_output_sha256=2b1facd539c08abc4892173f6bf19391019389be5af8cbd803827947b15584eb canonical_input=/workspace/ni_al/data/al3ni_remediation_v1/round300_structures/round300_al3ni5/cfg231_Al3Ni5_orthorhombic_xy_expansion.in canonical_input_sha256=c12ff551269af4aa6c6f303837fb60fcb69282f279f1c2e2ab4ed4b1c74b7a2f energy=-24969.587097540898 stress="0.017944316825659612 -0.0 -0.0 -0.0 -0.027373286297531656 0.004640584262683987 -0.0 0.004640584262683987 0.0062326456674389515" pbc="T T T"
Al       0.00000000       2.43531417       2.23003083       0.00000000       0.00000000       0.00000000
Al       1.91783576       1.06641767       3.78500153       0.00000000       0.04557822       0.03465938
Al       1.91783576       3.80421029       0.67506051       0.00000000      -0.04557822      -0.03465938
Ni       0.00000000       0.00000000       0.00000000       0.00000000       0.00000000       0.00000000
Ni       0.00000000       2.42853389       4.73591359       0.00000000       0.00000000       0.00000000
Ni       0.00000000       4.87740787       1.95418152       0.00000000       0.00000000       0.00000000
Ni       1.91783576       1.34632607       1.23285556       0.00000000       0.10892362       0.06503327
Ni       1.91783576       3.52430189       3.22720648       0.00000000      -0.10892362      -0.06503327
8
Lattice="3.6889415643906935 0.0 0.0 0.0 5.078459777226128 -0.5517008690064054 0.0 -0.014099928505963111 5.011764782236874" Properties=species:S:1:pos:R:3:forces:R:3 config_id=cfg232_Al3Ni5_orthorhombic_xy_compression phase=Al3Ni5 config_type=orthorhombic target_role=TRAIN magnitude_source="mirrored/fallback median" source=QE_7.6_PBE provenance=/workspace/ni_al/data/al3ni_remediation_v1/round300_production_dft/pod03/cfg232_Al3Ni5_orthorhombic_xy_compression/attempt_001/qe.out qe_output_sha256=b85e4e9f8efa6eab1ef4739a124a7f9b57e928b109aba40c55f853a8cf78c960 canonical_input=/workspace/ni_al/data/al3ni_remediation_v1/round300_structures/round300_al3ni5/cfg232_Al3Ni5_orthorhombic_xy_compression.in canonical_input_sha256=d95c8d2444ce8a91a70b0ffc4763ef918620552d8281e4c9c8cb038dbad2e3f4 energy=-24969.591917225087 stress="-0.01762263579306752 -0.0 -0.0 -0.0 0.019583783027987342 -0.00407891048921222 -0.0 -0.00407891048921222 -0.007667646466415154" pbc="T T T"
Al       0.00000000       2.53218031       2.23003083       0.00000000       0.00000000       0.00000000
Al       1.84447078       1.10883510       3.78500153       0.00000000      -0.02900600      -0.03145438
Al       1.84447078       3.95552513       0.67506051       0.00000000       0.02900600       0.03145438
Ni       0.00000000       0.00000000       0.00000000       0.00000000       0.00000000       0.00000000
Ni       0.00000000       2.52513035       4.73591359       0.00000000       0.00000000       0.00000000
Ni       0.00000000       5.07140981       1.95418152       0.00000000       0.00000000       0.00000000
Ni       1.84447078       1.39987703       1.23285556       0.00000000      -0.10822318      -0.06021304
Ni       1.84447078       3.66448320       3.22720648       0.00000000       0.10822318       0.06021304
8
Lattice="3.8526018989658004 0.0 0.0 0.0 4.9813239600063834 -0.5384600481498919 0.0 -0.013830238848135959 4.891482427462964" Properties=species:S:1:pos:R:3:forces:R:3 config_id=cfg233_Al3Ni5_orthorhombic_xz_expansion phase=Al3Ni5 config_type=orthorhombic target_role=TRAIN magnitude_source="cross-phase median" source=QE_7.6_PBE provenance=/workspace/ni_al/data/al3ni_remediation_v1/round300_production_dft/pod04/cfg233_Al3Ni5_orthorhombic_xz_expansion/attempt_001/qe.out qe_output_sha256=db9eaabef665e8f31782a3804e894d6ea62584f1f4a1dee319c8e165f3ccf42a canonical_input=/workspace/ni_al/data/al3ni_remediation_v1/round300_structures/round300_al3ni5/cfg233_Al3Ni5_orthorhombic_xz_expansion.in canonical_input_sha256=72c9e71373cb12e73d42c83ff6e86aec0a42c67f48536e7b2f3a79c2ca802eaf energy=-24969.563483953352 stress="0.022681916633138736 -0.0 -0.0 -0.0 0.00819867719488565 0.002030239347279384 -0.0 0.002030239347279384 -0.03587963318349824" pbc="T T T"
Al       0.00000000       2.48374724       2.17651009       0.00000000       0.00000000       0.00000000
Al       1.92630095       1.08762639       3.69416149       0.00000000      -0.05619646      -0.04437041
Al       1.92630095       3.87986771       0.65885906       0.00000000       0.05619646       0.04437041
Ni       0.00000000       0.00000000       0.00000000       0.00000000       0.00000000       0.00000000
Ni       0.00000000       2.47683212       4.62225167       0.00000000       0.00000000       0.00000000
Ni       0.00000000       4.97440884       1.90728116       0.00000000       0.00000000       0.00000000
Ni       1.92630095       1.37310155       1.20326703       0.00000000       0.09389734       0.12184453
Ni       1.92630095       3.59439255       3.14975352       0.00000000      -0.09389734      -0.12184453
8
Lattice="3.6720111849515447 0.0 0.0 0.0 4.9813239600063834 -0.5649416898629194 0.0 -0.013830238848135959 5.132047137010782" Properties=species:S:1:pos:R:3:forces:R:3 config_id=cfg234_Al3Ni5_orthorhombic_xz_compression phase=Al3Ni5 config_type=orthorhombic target_role=TRAIN magnitude_source="mirrored/fallback median" source=QE_7.6_PBE provenance=/workspace/ni_al/data/al3ni_remediation_v1/round300_production_dft/pod09/cfg234_Al3Ni5_orthorhombic_xz_compression/attempt_001/qe.out qe_output_sha256=dad222ab77a978f43ffbe34612e47b3c5ea25533aabcc237ca9f405c5c0c0f12 canonical_input=/workspace/ni_al/data/al3ni_remediation_v1/round300_structures/round300_al3ni5/cfg234_Al3Ni5_orthorhombic_xz_compression.in canonical_input_sha256=91ed62211197b924a08cefa3092b489a69891c6b524e655b8728969146477c03 energy=-24969.572723380163 stress="-0.0220062827614376 -0.0 -0.0 -0.0 -0.010099737812740458 -0.0030881144558490164 -0.0 -0.0030881144558490164 0.024204503017478705" pbc="T T T"
Al       0.00000000       2.48374724       2.28355157       0.00000000       0.00000000       0.00000000
Al       1.83600559       1.08762639       3.87584156       0.00000000       0.04521261       0.02571042
Al       1.83600559       3.87986771       0.69126196       0.00000000      -0.04521261      -0.02571042
Ni       0.00000000       0.00000000       0.00000000       0.00000000       0.00000000       0.00000000
Ni       0.00000000       2.47683212       4.84957552       0.00000000       0.00000000       0.00000000
Ni       0.00000000       4.97440884       2.00108188       0.00000000       0.00000000       0.00000000
Ni       1.83600559       1.37310155       1.26244409       0.00000000      -0.08612900      -0.12479380
Ni       1.83600559       3.59439255       3.30465943       0.00000000       0.08612900       0.12479380
8
Lattice="3.7623065419586723 0.0 0.0 0.0 4.884188142785639 -0.5624590359515103 0.0 -0.013560549190308809 5.109494195490236" Properties=species:S:1:pos:R:3:forces:R:3 config_id=cfg235_Al3Ni5_orthorhombic_yz_compression phase=Al3Ni5 config_type=orthorhombic target_role=TRAIN magnitude_source="mirrored/fallback median" source=QE_7.6_PBE provenance=/workspace/ni_al/data/al3ni_remediation_v1/round300_production_dft/pod10/cfg235_Al3Ni5_orthorhombic_yz_compression/attempt_001/qe.out qe_output_sha256=751055900ccdd7363019bea7b78334ae186ccd63b5680b060a158b0d9771b2cb canonical_input=/workspace/ni_al/data/al3ni_remediation_v1/round300_structures/round300_al3ni5/cfg235_Al3Ni5_orthorhombic_yz_compression.in canonical_input_sha256=379c697412fa9b366cbbbfea9b355d317e6c32c00295e676faf5e32a6b3d2d7e energy=-24969.570471066723 stress="-0.000718301625962732 -0.0 -0.0 -0.0 -0.034022804568054545 0.0024987857357854438 -0.0 0.0024987857357854438 0.028119831029929817" pbc="T T T"
Al       0.00000000       2.43531417       2.27351643       0.00000000       0.00000000       0.00000000
Al       1.88115327       1.06641767       3.85880906       0.00000000       0.08037822       0.06135795
Al       1.88115327       3.80421029       0.68822419       0.00000000      -0.08037822      -0.06135795
Ni       0.00000000       0.00000000       0.00000000       0.00000000       0.00000000       0.00000000
Ni       0.00000000       2.42853389       4.82826391       0.00000000       0.00000000       0.00000000
Ni       0.00000000       4.87740787       1.99228806       0.00000000       0.00000000       0.00000000
Ni       1.88115327       1.34632607       1.25689624       0.00000000       0.04612170      -0.03059323
Ni       1.88115327       3.52430189       3.29013700       0.00000000      -0.04612170       0.03059323
8
Lattice="3.7623065419586723 0.0 0.0 0.01599932520074576 4.9813239600063834 -0.5517008690064054 -0.14534117868484833 -0.013830238848135959 5.011764782236874" Properties=species:S:1:pos:R:3:forces:R:3 config_id=cfg241_Al3Ni5_shear_rattle_xz_negative phase=Al3Ni5 config_type=shear_rattle target_role=TRAIN magnitude_source="cross-phase median" source=QE_7.6_PBE provenance=/workspace/ni_al/data/al3ni_remediation_v1/round300_production_dft/pod08/cfg241_Al3Ni5_shear_rattle_xz_negative/attempt_001/qe.out qe_output_sha256=594897e5e8455ea6646035f12ccc36e458d53e09b5d580873617426851c7f345 canonical_input=/workspace/ni_al/data/al3ni_remediation_v1/round300_structures/round300_al3ni5/cfg241_Al3Ni5_shear_rattle_xz_negative.in canonical_input_sha256=2fc32b39999ff506c2b69e14f9dad10d1bf4f65d85096e7e04656194024ef94c energy=-24969.57456095815 stress="-0.003281069235876571 -0.0033784327841831106 -0.01984708648092779 -0.0033784327841831106 -0.00017277639200802313 0.0003910986829270101 -0.01984708648092779 0.0003910986829270101 -0.002237536809885158" pbc="T T T"
Al      -0.05458779       2.46441586       2.23061565      -0.05047105      -0.00239648      -0.17343838
Al       1.77520443       1.09267447       3.80686635      -0.09632440      -0.08921074      -0.22538352
Al       1.84444160       3.87102576       0.68983919       0.12419526       0.12835710      -0.12215853
Ni       3.74100668       0.01975358       0.00480634       0.16580830      -0.08030126       0.08541397
Ni       3.62534585       2.50595465       4.70060538       0.00905737      -0.14376116       0.26869664
Ni      -0.05042442       4.96271784       1.97379268      -0.06303219       0.03683102      -0.12065349
Ni       1.87300758       1.37852163       1.21607198      -0.30654841      -0.05042217       0.18087239
Ni       1.77786496       3.57491260       3.21765245       0.21731512       0.20090369       0.10665091
8
Lattice="3.7623065419586723 0.0 0.0 0.0 5.006150499111471 -0.5517008690064054 0.0 -0.23935965404859025 5.011764782236874" Properties=species:S:1:pos:R:3:forces:R:3 config_id=cfg244_Al3Ni5_shear_rattle_yz_negative phase=Al3Ni5 config_type=shear_rattle target_role=TRAIN magnitude_source="cross-phase median" source=QE_7.6_PBE provenance=/workspace/ni_al/data/al3ni_remediation_v1/round300_production_dft/pod09/cfg244_Al3Ni5_shear_rattle_yz_negative/attempt_001/qe.out qe_output_sha256=bf726260710551a747341d1b9d819b94dd5d994b013a7433539c79fc395281a7 canonical_input=/workspace/ni_al/data/al3ni_remediation_v1/round300_structures/round300_al3ni5/cfg244_Al3Ni5_shear_rattle_yz_negative.in canonical_input_sha256=06d3cb931024973d801f6f098c2ae3857bdc7ebffdfe16c0dd4d2b979a5179f4 energy=-24969.572144120637 stress="-0.007304565760950722 0.0010391610712704288 0.0004844690138798792 0.0010391610712704288 0.0033585476680802894 -0.009869251575763145 0.0004844690138798792 -0.009869251575763145 0.0003849247211748287" pbc="T T T"
Al       0.00795764       2.36598812       2.23248400      -0.22954391       0.23529231      -0.04838674
Al       1.83921265       0.92863020       3.75962556       0.47685533       0.03499662       0.11601330
Al       1.89576589       3.83680407       0.70683485      -0.05656694      -0.02036971      -0.08682550
Ni       0.02989115       4.75194900       4.45706867      -0.31494835       0.13970375       0.04022045
Ni       0.01623585       2.27340847       4.73095700      -0.19549161      -0.13481176       0.05212576
Ni       3.75553965      -0.09388542       2.51027322      -0.06230267      -0.25227970      -0.03054810
Ni       1.85921484       1.29789110       1.21474437       0.28801936       0.09662552       0.00385242
Ni       1.88310195       3.46701994       3.24002713       0.09397878      -0.09915704      -0.04645159
8
Lattice="3.935372642888751 0.0 0.0 0.0 5.210464862166523 -0.5770791089801397 0.0 -0.014466429835728213 5.242305962220116" Properties=species:S:1:pos:R:3:forces:R:3 config_id=cfg245_Al3Ni5_volume_rattle_expansion phase=Al3Ni5 config_type=volume_rattle target_role=TRAIN magnitude_source="cross-phase median" source=QE_7.6_PBE provenance=/workspace/ni_al/data/al3ni_remediation_v1/round300_production_dft/pod10/cfg245_Al3Ni5_volume_rattle_expansion/attempt_001/qe.out qe_output_sha256=f4bc65722c2c9a5af6651f0841784da0d747d9e2f86e9a4582e5ae00de1673e8 canonical_input=/workspace/ni_al/data/al3ni_remediation_v1/round300_structures/round300_al3ni5/cfg245_Al3Ni5_volume_rattle_expansion.in canonical_input_sha256=96e150aefa686050959b082e668cb8b24751e9f14c34f3b39191260a7d353829 energy=-24968.809309821998 stress="0.10572875248524037 -0.00011404958065029897 1.5970577481262064e-05 -0.00011404958065029897 0.10371027981609085 0.00038557424772540135 1.5970577481262064e-05 0.00038557424772540135 0.10323414936206378" pbc="T T T"
Al       0.00060785       2.58827177       2.31475454       0.01089971       0.10640668       0.11112475
Al       1.97214346       1.12586967       3.96280912      -0.04916629      -0.01064864       0.09851400
Al       2.00179577       4.03262673       0.69363357      -0.21947681       0.19501273      -0.05069110
Ni       3.91220178       0.00248336       0.04205881       0.14837827       0.00018410      -0.19618079
Ni       0.00632747       2.58153588       4.95084364       0.02253935       0.01674360      -0.06299185
Ni       3.91920467       0.00944529       2.61751405       0.08353453      -0.06998553       0.11661472
Ni       1.96852807       1.45234659       1.29488301      -0.01408428      -0.10013366      -0.01497914
Ni       1.96068149       3.78095116       3.36148388       0.01737552      -0.13757927      -0.00141058
4
Lattice="3.6368224050700975 0.0 0.0 0.0 3.567385673225601 0.0 0.0 0.0 3.567385673225601" Properties=species:S:1:pos:R:3:forces:R:3 config_id=cfg247_AlNi3_uniaxial_x_expansion phase=AlNi3 config_type=uniaxial target_role=TRAIN magnitude_source="cross-phase median" source=QE_7.6_PBE provenance=/workspace/ni_al/data/al3ni_remediation_v1/round300_production_dft/pod07/cfg247_AlNi3_uniaxial_x_expansion/attempt_001/qe.out qe_output_sha256=47af8ee99207bf7c853ff158b4173f73a2822c36647546568053553994a84589 canonical_input=/workspace/ni_al/data/al3ni_remediation_v1/round300_structures/round300_alni3/cfg247_AlNi3_uniaxial_x_expansion.in canonical_input_sha256=858ef3118d48fa1122a1e3aae36d11392b500aa6ab378ed38ce722e9852f05e6 energy=-14550.836425789152 stress="0.02875897103142594 -0.0 -0.0 -0.0 0.016853700708297066 -0.0 -0.0 -0.0 0.016853700708297063" pbc="T T T"
Al       0.00000000       0.00000000       0.00000000       0.00000000       0.00000000       0.00000000
Ni       0.00000000       1.78369248       1.78369212       0.00000000       0.00000000       0.00000000
Ni       1.81841120       0.00000000       1.78369212       0.00000000       0.00000000       0.00000000
Ni       1.81841120       1.78369248       0.00000000       0.00000000       0.00000000       0.00000000
4
Lattice="3.5137519068109753 0.0 0.0 0.0 3.567385673225601 0.0 0.0 0.0 3.567385673225601" Properties=species:S:1:pos:R:3:forces:R:3 config_id=cfg248_AlNi3_uniaxial_x_compression phase=AlNi3 config_type=uniaxial target_role=TRAIN magnitude_source="cross-phase median" source=QE_7.6_PBE provenance=/workspace/ni_al/data/al3ni_remediation_v1/round300_production_dft/pod01/cfg248_AlNi3_uniaxial_x_compression/attempt_001/qe.out qe_output_sha256=3cf52d7b8a0e30c2577c55c2109edca7e6fb4c3181e2c2910cba7a2006c64f96 canonical_input=/workspace/ni_al/data/al3ni_remediation_v1/round300_structures/round300_alni3/cfg248_AlNi3_uniaxial_x_compression.in canonical_input_sha256=4ac9f9496c82cfdc9c1446103bbfc49f1db29c3166b40a5052b647efb5b4aaa6 energy=-14550.840652095345 stress="-0.024021399153123277 -0.0 -0.0 -0.0 -0.014936413055630211 -0.0 -0.0 -0.0 -0.01493641305563021" pbc="T T T"
Al       0.00000000       0.00000000       0.00000000       0.00000000       0.00000000       0.00000000
Ni       0.00000000       1.78369248       1.78369212       0.00000000       0.00000000       0.00000000
Ni       1.75687595       0.00000000       1.78369212       0.00000000       0.00000000       0.00000000
Ni       1.75687595       1.78369248       0.00000000       0.00000000       0.00000000       0.00000000
4
Lattice="3.5672608190976813 0.0 0.0 0.0 3.620896458324305 0.0 0.0 0.0 3.567385673225601" Properties=species:S:1:pos:R:3:forces:R:3 config_id=cfg249_AlNi3_uniaxial_y_expansion phase=AlNi3 config_type=uniaxial target_role=TRAIN magnitude_source="cross-phase median" source=QE_7.6_PBE provenance=/workspace/ni_al/data/al3ni_remediation_v1/round300_production_dft/pod02/cfg249_AlNi3_uniaxial_y_expansion/attempt_001/qe.out qe_output_sha256=7c96e0de35be96debf993ce73e520b258339e0e2194f1547d31412824768c70d canonical_input=/workspace/ni_al/data/al3ni_remediation_v1/round300_structures/round300_alni3/cfg249_AlNi3_uniaxial_y_expansion.in canonical_input_sha256=659d9aca698a0fdbacb6f0956dd639a58a1e8035639b7450e08ae1a2a1fb98e1 energy=-14550.841565998431 stress="0.01317310195958175 -0.0 -0.0 -0.0 0.02233540927305202 -0.0 -0.0 -0.0 0.01319198709544099" pbc="T T T"
Al       0.00000000       0.00000000       0.00000000       0.00000000       0.00000000       0.00000000
Ni       0.00000000       1.81044787       1.78369212       0.00000000       0.00000000       0.00000000
Ni       1.78363041       0.00000000       1.78369212       0.00000000       0.00000000       0.00000000
Ni       1.78363041       1.81044787       0.00000000       0.00000000       0.00000000       0.00000000
4
Lattice="3.5672608190976813 0.0 0.0 0.0 3.567385673225601 0.0 0.0 0.0 3.620896458324305" Properties=species:S:1:pos:R:3:forces:R:3 config_id=cfg250_AlNi3_uniaxial_z_expansion phase=AlNi3 config_type=uniaxial target_role=TRAIN magnitude_source="cross-phase median" source=QE_7.6_PBE provenance=/workspace/ni_al/data/al3ni_remediation_v1/round300_production_dft/pod03/cfg250_AlNi3_uniaxial_z_expansion/attempt_001/qe.out qe_output_sha256=6d3c669de0b1b5c0c01fbde8155afa8f1811041be757b837f45f2f75ab449e44 canonical_input=/workspace/ni_al/data/al3ni_remediation_v1/round300_structures/round300_alni3/cfg250_AlNi3_uniaxial_z_expansion.in canonical_input_sha256=9f449359be4128617db3260699646bcb6482f1e0c7551916b26aeb8d71d1da80 energy=-14550.841565997998 stress="0.013188787398180494 -0.0 -0.0 -0.0 0.013207936905830206 -0.0 -0.0 -0.0 0.0223499588278921" pbc="T T T"
Al       0.00000000       0.00000000       0.00000000       0.00000000       0.00000000       0.00000000
Ni       0.00000000       1.78369248       1.81044750       0.00000000       0.00000000       0.00000000
Ni       1.78363041       0.00000000       1.81044750       0.00000000       0.00000000       0.00000000
Ni       1.78363041       1.78369248       0.00000000       0.00000000       0.00000000       0.00000000
4
Lattice="3.5672608190976813 0.0 0.0 0.0 3.567385673225601 0.0 0.0 0.0 3.5138748881278965" Properties=species:S:1:pos:R:3:forces:R:3 config_id=cfg251_AlNi3_uniaxial_z_compression phase=AlNi3 config_type=uniaxial target_role=TRAIN magnitude_source="mirrored/fallback median" source=QE_7.6_PBE provenance=/workspace/ni_al/data/al3ni_remediation_v1/round300_production_dft/pod04/cfg251_AlNi3_uniaxial_z_compression/attempt_001/qe.out qe_output_sha256=de9ad6fe2624645a460bc9f6cd3d58c562038da811958f3a771e1923dc0cccac canonical_input=/workspace/ni_al/data/al3ni_remediation_v1/round300_structures/round300_alni3/cfg251_AlNi3_uniaxial_z_compression.in canonical_input_sha256=1ccc349e9d787fcba6a892b92b4d2836bd49ad8ff7676484d8d94991a41746c7 energy=-14550.840666412532 stress="-0.014934427637417765 -0.0 -0.0 -0.0 -0.014910765145524977 -0.0 -0.0 -0.0 -0.02397720536928473" pbc="T T T"
Al       0.00000000       0.00000000       0.00000000       0.00000000       0.00000000       0.00000000
Ni       0.00000000       1.78369248       1.75693674       0.00000000       0.00000000       0.00000000
Ni       1.78363041       0.00000000       1.75693674       0.00000000       0.00000000       0.00000000
Ni       1.78363041       1.78369248       0.00000000       0.00000000       0.00000000       0.00000000
4
Lattice="3.631471513841527 0.0 0.0 0.0 3.631598615344446 0.0 0.0 0.0 3.567385673225601" Properties=species:S:1:pos:R:3:forces:R:3 config_id=cfg252_AlNi3_biaxial_xy_expansion phase=AlNi3 config_type=biaxial target_role=TRAIN magnitude_source="cross-phase median" source=QE_7.6_PBE provenance=/workspace/ni_al/data/al3ni_remediation_v1/round300_production_dft/pod09/cfg252_AlNi3_biaxial_xy_expansion/attempt_001/qe.out qe_output_sha256=b306b0976ea591b468a98dfd62e63018af5647d380df6fc06ffd3c4ca1533493 canonical_input=/workspace/ni_al/data/al3ni_remediation_v1/round300_structures/round300_alni3/cfg252_AlNi3_biaxial_xy_expansion.in canonical_input_sha256=e3f3f5b935cb5399d5fa234a11542305d0744c4bc84c69335f0bd8b83ae2bc21 energy=-14550.815076488827 stress="0.04040111098257342 -0.0 -0.0 -0.0 0.04042214352503381 -0.0 -0.0 -0.0 0.030847673213149383" pbc="T T T"
Al       0.00000000       0.00000000       0.00000000       0.00000000       0.00000000       0.00000000
Ni       0.00000000       1.81579894       1.78369212       0.00000000       0.00000000       0.00000000
Ni       1.81573576       0.00000000       1.78369212       0.00000000       0.00000000       0.00000000
Ni       1.81573576       1.81579894       0.00000000       0.00000000       0.00000000       0.00000000
4
Lattice="3.4709447769814115 0.0 0.0 0.0 3.4710662600493336 0.0 0.0 0.0 3.567385673225601" Properties=species:S:1:pos:R:3:forces:R:3 config_id=cfg253_AlNi3_biaxial_xy_compression phase=AlNi3 config_type=biaxial target_role=TRAIN magnitude_source="cross-phase median" source=QE_7.6_PBE provenance=/workspace/ni_al/data/al3ni_remediation_v1/round300_production_dft/pod10/cfg253_AlNi3_biaxial_xy_compression/attempt_001/qe.out qe_output_sha256=600b85a3ca82ea452dd6afa1eb949341da022932384b8393c6c926e19bb4723e canonical_input=/workspace/ni_al/data/al3ni_remediation_v1/round300_structures/round300_alni3/cfg253_AlNi3_biaxial_xy_compression.in canonical_input_sha256=7ca6e8e4627e3a984317fc054f74096f185d07bca30dfdf3592ededc926d7b44 energy=-14550.75909859286 stress="-0.07761815096214685 -0.0 -0.0 -0.0 -0.07759803644996036 -0.0 -0.0 -0.0 -0.05751153904145893" pbc="T T T"
Al       0.00000000       0.00000000       0.00000000       0.00000000       0.00000000       0.00000000
Ni       0.00000000       1.73553278       1.78369212       0.00000000       0.00000000       0.00000000
Ni       1.73547239       0.00000000       1.78369212       0.00000000       0.00000000       0.00000000
Ni       1.73547239       1.73553278       0.00000000       0.00000000       0.00000000       0.00000000
4
Lattice="3.6582259699843793 0.0 0.0 0.0 3.567385673225601 0.0 0.0 0.0 3.658354007893297" Properties=species:S:1:pos:R:3:forces:R:3 config_id=cfg254_AlNi3_biaxial_xz_expansion phase=AlNi3 config_type=biaxial target_role=TRAIN magnitude_source="mirrored/fallback median" source=QE_7.6_PBE provenance=/workspace/ni_al/data/al3ni_remediation_v1/round300_production_dft/pod07/cfg254_AlNi3_biaxial_xz_expansion/attempt_001/qe.out qe_output_sha256=81efcfea6ad34274675edb800aa69dfe1909e2cef18f456787db669498617e01 canonical_input=/workspace/ni_al/data/al3ni_remediation_v1/round300_structures/round300_alni3/cfg254_AlNi3_biaxial_xz_expansion.in canonical_input_sha256=e10749e257237c699a08b3cd58caf186165672c6c1e968598c7a8285d5f508ca energy=-14550.781984831796 stress="0.055015586840379674 -0.0 -0.0 -0.0 0.04223191937711576 -0.0 -0.0 -0.0 0.05503770311183219" pbc="T T T"
Al       0.00000000       0.00000000       0.00000000       0.00000000       0.00000000       0.00000000
Ni       0.00000000       1.78369248       1.82917627       0.00000000       0.00000000       0.00000000
Ni       1.82911298       0.00000000       1.82917627       0.00000000       0.00000000       0.00000000
Ni       1.82911298       1.78369248       0.00000000       0.00000000       0.00000000       0.00000000
4
Lattice="3.4762956682099824 0.0 0.0 0.0 3.567385673225601 0.0 0.0 0.0 3.4764173385589046" Properties=species:S:1:pos:R:3:forces:R:3 config_id=cfg255_AlNi3_biaxial_xz_compression phase=AlNi3 config_type=biaxial target_role=TRAIN magnitude_source="cross-phase median" source=QE_7.6_PBE provenance=/workspace/ni_al/data/al3ni_remediation_v1/round300_production_dft/pod05/cfg255_AlNi3_biaxial_xz_compression/attempt_001/qe.out qe_output_sha256=4482cb3324c3ae465896b427d04a2055ca2070d32fa06c61f4373c2e1f24f985 canonical_input=/workspace/ni_al/data/al3ni_remediation_v1/round300_structures/round300_alni3/cfg255_AlNi3_biaxial_xz_compression.in canonical_input_sha256=9a79ab83527ed7d756eec2c7135b3ed16d36b9eb65fed8ca2038adeb6ba84e48 energy=-14550.76911237267 stress="-0.07275247502581125 -0.0 -0.0 -0.0 -0.05396962589430537 -0.0 -0.0 -0.0 -0.07273218981787241" pbc="T T T"
Al       0.00000000       0.00000000       0.00000000       0.00000000       0.00000000       0.00000000
Ni       0.00000000       1.78369248       1.73820797       0.00000000       0.00000000       0.00000000
Ni       1.73814783       0.00000000       1.73820797       0.00000000       0.00000000       0.00000000
Ni       1.73814783       1.78369248       0.00000000       0.00000000       0.00000000       0.00000000
4
Lattice="3.5672608190976813 0.0 0.0 0.0 3.4710662600493336 0.0 0.0 0.0 3.4710662600493336" Properties=species:S:1:pos:R:3:forces:R:3 config_id=cfg256_AlNi3_biaxial_yz_compression phase=AlNi3 config_type=biaxial target_role=TRAIN magnitude_source="mirrored/fallback median" source=QE_7.6_PBE provenance=/workspace/ni_al/data/al3ni_remediation_v1/round300_production_dft/pod06/cfg256_AlNi3_biaxial_yz_compression/attempt_001/qe.out qe_output_sha256=f0a2e6c270e9dab5600dc2d50397cbc59421556fe4f108bb35e90d01ceddfbaa canonical_input=/workspace/ni_al/data/al3ni_remediation_v1/round300_structures/round300_alni3/cfg256_AlNi3_biaxial_yz_compression.in canonical_input_sha256=9868b287b285e7b6815f129f7860f79c2077acb68a278f819dc2f411d045aba1 energy=-14550.759128723128 stress="-0.05756511853404505 -0.0 -0.0 -0.0 -0.07762037791117395 -0.0 -0.0 -0.0 -0.07762037791117395" pbc="T T T"
Al       0.00000000       0.00000000       0.00000000       0.00000000       0.00000000       0.00000000
Ni       0.00000000       1.73553278       1.73553243       0.00000000       0.00000000       0.00000000
Ni       1.78363041       0.00000000       1.73553243       0.00000000       0.00000000       0.00000000
Ni       1.78363041       1.73553278       0.00000000       0.00000000       0.00000000       0.00000000
4
Lattice="3.6368224050700975 0.0 0.0 0.0 3.497821652598186 0.0 0.0 0.0 3.567385673225601" Properties=species:S:1:pos:R:3:forces:R:3 config_id=cfg257_AlNi3_orthorhombic_xy_expansion phase=AlNi3 config_type=orthorhombic target_role=TRAIN magnitude_source="cross-phase median" source=QE_7.6_PBE provenance=/workspace/ni_al/data/al3ni_remediation_v1/round300_production_dft/pod08/cfg257_AlNi3_orthorhombic_xy_expansion/attempt_001/qe.out qe_output_sha256=a9a1513537ad8b9def96f5da4c2d324c1f2c0eb9e425dbcb1501db0710daaa5b canonical_input=/workspace/ni_al/data/al3ni_remediation_v1/round300_structures/round300_alni3/cfg257_AlNi3_orthorhombic_xy_expansion.in canonical_input_sha256=d64cbdb408909ba61ff6b1f03b72f563532f30b799eef9460da75e4f9a45c999 energy=-14550.838495159001 stress="0.011715649795130715 -0.0 -0.0 -0.0 -0.011996231528080473 -0.0 -0.0 -0.0 -0.0020716843866114914" pbc="T T T"
Al       0.00000000       0.00000000       0.00000000       0.00000000       0.00000000       0.00000000
Ni       0.00000000       1.74891048       1.78369212       0.00000000       0.00000000       0.00000000
Ni       1.81841120       0.00000000       1.78369212       0.00000000       0.00000000       0.00000000
Ni       1.81841120       1.74891048       0.00000000       0.00000000       0.00000000       0.00000000
4
Lattice="3.4976992331252643 0.0 0.0 0.0 3.636949693854016 0.0 0.0 0.0 3.5673856732256013" Properties=species:S:1:pos:R:3:forces:R:3 config_id=cfg258_AlNi3_orthorhombic_xy_compression phase=AlNi3 config_type=orthorhombic target_role=TRAIN magnitude_source="mirrored/fallback median" source=QE_7.6_PBE provenance=/workspace/ni_al/data/al3ni_remediation_v1/round300_production_dft/pod01/cfg258_AlNi3_orthorhombic_xy_compression/attempt_001/qe.out qe_output_sha256=41d0604d0e5a5b11fb9d04749cba2b83a5660c7a898e24fb38448c4598c41a21 canonical_input=/workspace/ni_al/data/al3ni_remediation_v1/round300_structures/round300_alni3/cfg258_AlNi3_orthorhombic_xy_compression.in canonical_input_sha256=7925b15a022072443eff6c1d30777a976fe723d4b41d1884eb8316b3bc095bfb energy=-14550.838457497654 stress="-0.011978517375447808 -0.0 -0.0 -0.0 0.011776796708617638 -0.0 -0.0 -0.0 -0.0020407727864818347" pbc="T T T"
Al       0.00000000       0.00000000       0.00000000       0.00000000       0.00000000       0.00000000
Ni       0.00000000       1.81847448       1.78369212       0.00000000       0.00000000       0.00000000
Ni       1.74884962       0.00000000       1.78369212       0.00000000       0.00000000       0.00000000
Ni       1.74884962       1.81847448       0.00000000       0.00000000       0.00000000       0.00000000
4
Lattice="3.4816465594385524 0.0 0.0 0.0 3.5673856732256004 0.0 0.0 0.0 3.6530029293837267" Properties=species:S:1:pos:R:3:forces:R:3 config_id=cfg259_AlNi3_orthorhombic_xz_compression phase=AlNi3 config_type=orthorhombic target_role=TRAIN magnitude_source="mirrored/fallback median" source=QE_7.6_PBE provenance=/workspace/ni_al/data/al3ni_remediation_v1/round300_production_dft/pod02/cfg259_AlNi3_orthorhombic_xz_compression/attempt_001/qe.out qe_output_sha256=dd5a932b4c9b38852b7086884f8ca50f4e53d07d4aa663b4aafe5cc0380d2fee canonical_input=/workspace/ni_al/data/al3ni_remediation_v1/round300_structures/round300_alni3/cfg259_AlNi3_orthorhombic_xz_compression.in canonical_input_sha256=df54554604d5efc4663c61759634563c27c94de8a08bcdc851d83376cb962205 energy=-14550.833057955528 stress="-0.014676553018979022 -0.0 -0.0 -0.0 -0.003169043711719672 -0.0 -0.0 -0.0 0.01436342121157851" pbc="T T T"
Al       0.00000000       0.00000000       0.00000000       0.00000000       0.00000000       0.00000000
Ni       0.00000000       1.78369248       1.82650073       0.00000000       0.00000000       0.00000000
Ni       1.74082328       0.00000000       1.82650073       0.00000000       0.00000000       0.00000000
Ni       1.74082328       1.78369248       0.00000000       0.00000000       0.00000000       0.00000000
4
Lattice="3.5672608190976813 0.0 0.0 0.0 3.636949693854016 0.0 0.0 0.0 3.497821652598186" Properties=species:S:1:pos:R:3:forces:R:3 config_id=cfg260_AlNi3_orthorhombic_yz_expansion phase=AlNi3 config_type=orthorhombic target_role=TRAIN magnitude_source="cross-phase median" source=QE_7.6_PBE provenance=/workspace/ni_al/data/al3ni_remediation_v1/round300_production_dft/pod03/cfg260_AlNi3_orthorhombic_yz_expansion/attempt_001/qe.out qe_output_sha256=9ee4fe475ff0d59df3f8e087d5bbd8cc407cd9c662f63e423747a586798a4f4b canonical_input=/workspace/ni_al/data/al3ni_remediation_v1/round300_structures/round300_alni3/cfg260_AlNi3_orthorhombic_yz_expansion.in canonical_input_sha256=cd5cf6df948003f6d5e951caf0f90e01bd39345b4095fe6c6a4c5bda6513771e energy=-14550.838473080197 stress="-0.002109993631293468 -0.0 -0.0 -0.0 0.011726174084141729 -0.0 -0.0 -0.0 -0.012013795652697144" pbc="T T T"
Al       0.00000000       0.00000000       0.00000000       0.00000000       0.00000000       0.00000000
Ni       0.00000000       1.81847448       1.74891012       0.00000000       0.00000000       0.00000000
Ni       1.78363041       0.00000000       1.74891012       0.00000000       0.00000000       0.00000000
Ni       1.78363041       1.81847448       0.00000000       0.00000000       0.00000000       0.00000000
4
Lattice="3.5672608190976813 0.0 0.0 0.0 3.497821652598186 0.0 0.0 0.0 3.636949693854016" Properties=species:S:1:pos:R:3:forces:R:3 config_id=cfg261_AlNi3_orthorhombic_yz_compression phase=AlNi3 config_type=orthorhombic target_role=TRAIN magnitude_source="mirrored/fallback median" source=QE_7.6_PBE provenance=/workspace/ni_al/data/al3ni_remediation_v1/round300_production_dft/pod04/cfg261_AlNi3_orthorhombic_yz_compression/attempt_001/qe.out qe_output_sha256=485c9d11a2f8ee647cba647a8646ca87d2200b77ad6333d81a7242c1208f4cc4 canonical_input=/workspace/ni_al/data/al3ni_remediation_v1/round300_structures/round300_alni3/cfg261_AlNi3_orthorhombic_yz_compression.in canonical_input_sha256=50827821720cac433b466f18c296a7daaa459479523a50e150c37379a6351429 energy=-14550.83847308196 stress="-0.002108961717572666 -0.0 -0.0 -0.0 -0.012012763142686537 -0.0 -0.0 -0.0 0.011727723880442664" pbc="T T T"
Al       0.00000000       0.00000000       0.00000000       0.00000000       0.00000000       0.00000000
Ni       0.00000000       1.74891048       1.81847412       0.00000000       0.00000000       0.00000000
Ni       1.78363041       0.00000000       1.81847412       0.00000000       0.00000000       0.00000000
Ni       1.78363041       1.74891048       0.00000000       0.00000000       0.00000000       0.00000000
4
Lattice="3.5672608190976813 0.0 0.0 0.0 3.567385673225601 0.0 0.09631941317726724 0.0 3.567385673225601" Properties=species:S:1:pos:R:3:forces:R:3 config_id=cfg266_AlNi3_shear_rattle_xz_positive phase=AlNi3 config_type=shear_rattle target_role=TRAIN magnitude_source="cross-phase median" source=QE_7.6_PBE provenance=/workspace/ni_al/data/al3ni_remediation_v1/round300_production_dft/pod01/cfg266_AlNi3_shear_rattle_xz_positive/attempt_001/qe.out qe_output_sha256=3008c41386991e7ba89d85c0df7658c3c18bff1d550985bd79e7d7161f974828 canonical_input=/workspace/ni_al/data/al3ni_remediation_v1/round300_structures/round300_alni3/cfg266_AlNi3_shear_rattle_xz_positive.in canonical_input_sha256=77cd6a3a465ab6d7b2ccfb98c39c0fef702aaa7eafdcad5ccc59c77d310dd748 energy=-14550.816784137849 stress="-0.0021078416679654647 0.0005193255807353222 0.02233345413893529 0.0005193255807353222 -0.0012497281340173982 8.14319805616377e-05 0.02233345413893529 8.14319805616377e-05 -0.003384604479715626" pbc="T T T"
Al       3.54546405       0.00679837       0.01318198       0.30629581      -0.16700755      -0.17795121
Ni       3.60629008       1.78357159       1.77456749       0.21485070       0.11189729       0.10058460
Ni       1.84070001       0.01999145       1.77949678      -0.21353077      -0.28927931       0.11505973
Ni       1.80564769       1.75702356       0.00013799      -0.30761574       0.34438957      -0.03769313
4
Lattice="3.5672608190976813 0.0 0.0 0.0 3.567385673225601 0.0 0.0 0.08383356332126964 3.567385673225601" Properties=species:S:1:pos:R:3:forces:R:3 config_id=cfg269_AlNi3_shear_rattle_yz_positive phase=AlNi3 config_type=shear_rattle target_role=TRAIN magnitude_source="cross-phase median" source=QE_7.6_PBE provenance=/workspace/ni_al/data/al3ni_remediation_v1/round300_production_dft/pod02/cfg269_AlNi3_shear_rattle_yz_positive/attempt_001/qe.out qe_output_sha256=59b42b0b6e71cc70c2ef682d1479af43ea0efc204cb0d58a99eb4e918302c217 canonical_input=/workspace/ni_al/data/al3ni_remediation_v1/round300_structures/round300_alni3/cfg269_AlNi3_shear_rattle_yz_positive.in canonical_input_sha256=25ca8e9f6279a953a310a0c6ec0a90fb3acb8e9b3c8986b46890cee1521214cc energy=-14550.830269866192 stress="-0.0007565690288558782 -0.0006208520128533699 6.542790935640899e-05 -0.0006208520128533699 -0.0013470106785941135 0.01940075449673759 6.542790935640899e-05 0.01940075449673759 -0.001969998822444926" pbc="T T T"
Al       3.54660231       3.55346346       0.00579832       0.22303970       0.17839111      -0.06199960
Ni       0.00401788       1.81792606       1.78192310       0.04641359      -0.00168253       0.03456844
Ni       1.78802521       3.60678105       1.78189085      -0.09987826       0.09941884       0.00612046
Ni       1.79587624       1.89165282       3.56515764      -0.16957504      -0.27612743       0.02131070
4
Lattice="3.5672608190976813 0.0 0.0 0.0 3.567385673225601 0.0 0.0 -0.16053235529511203 3.567385673225601" Properties=species:S:1:pos:R:3:forces:R:3 config_id=cfg271_AlNi3_shear_rattle_yz_negative phase=AlNi3 config_type=shear_rattle target_role=TRAIN magnitude_source="cross-phase median" source=QE_7.6_PBE provenance=/workspace/ni_al/data/al3ni_remediation_v1/round300_production_dft/pod03/cfg271_AlNi3_shear_rattle_yz_negative/attempt_001/qe.out qe_output_sha256=4801fe8ec07e6b6a5a70d936fb9fab7eaa1f56c85a3cf4a51ab579c61a53e381 canonical_input=/workspace/ni_al/data/al3ni_remediation_v1/round300_structures/round300_alni3/cfg271_AlNi3_shear_rattle_yz_negative.in canonical_input_sha256=a783ff1a852b6d8426d1ef9851929d75cebdc1b91d0c5730d4782289f6948ed2 energy=-14550.796165783813 stress="0.00014394513597866166 -0.00020295726554434224 -0.0004918481943041589 -0.00020295726554434224 -0.0035372145405095368 -0.03667700793362355 -0.0004918481943041589 -0.03667700793362355 -0.00630032651023122" pbc="T T T"
Al       0.00285198       3.55216094       0.03291788      -0.03487495       0.04752046      -0.27582788
Ni       0.00046095       1.72498688       1.76021107      -0.01994648      -0.11839842       0.22882178
Ni       1.76753304      -0.06653464       1.79072198       0.15195547      -0.14326102      -0.05683575
Ni       1.79641484       1.60309281       3.55091898      -0.09713405       0.21413899       0.10384186
4
Lattice="3.731354816775511 0.0 0.0 0.0 3.731485414194426 0.0 0.0 0.0 3.731485414194426" Properties=species:S:1:pos:R:3:forces:R:3 config_id=cfg272_AlNi3_volume_rattle_expansion phase=AlNi3 config_type=volume_rattle target_role=TRAIN magnitude_source="cross-phase median" source=QE_7.6_PBE provenance=/workspace/ni_al/data/al3ni_remediation_v1/round300_production_dft/pod04/cfg272_AlNi3_volume_rattle_expansion/attempt_001/qe.out qe_output_sha256=b849683c5c0319020a81542c2530130d35fd99e083551b3c1ec42a6a633b24d2 canonical_input=/workspace/ni_al/data/al3ni_remediation_v1/round300_structures/round300_alni3/cfg272_AlNi3_volume_rattle_expansion.in canonical_input_sha256=9db8ab92b93b420bbd9d00ead6610265645a23ef43eec8879e00c90055a62db9 energy=-14550.4145517002 stress="0.11016928243624607 -6.484721482817906e-05 0.0004626677444942741 -6.484721482817906e-05 0.11046433819617758 0.0003356525636854846 0.0004626677444942741 0.0003356525636854846 0.1106748112909265" pbc="T T T"
Al       3.70600900       0.00458566       3.72104713       0.16216902      -0.08689658       0.11940946
Ni       3.73006142       1.82975377       1.90152701       0.06709777       0.24071257      -0.24667512
Ni       1.86813977       0.02756005       1.86583040      -0.06019529      -0.19724881      -0.06918564
Ni       1.88985426       1.86958518       3.70605020      -0.16907151       0.04343283       0.19645130
