16
Lattice="4.728994768337464 0.0 0.0 0.0 6.490573693511779 0.0 0.0 0.0 7.2348418061318025" Properties=species:S:1:pos:R:3:REF_forces:R:3 REF_energy=-25137.850931275556 source_file=Al3Ni/iso_m02/Al3Ni_iso_m02.out phase=Al3Ni configuration=iso_m02 pbc="T T T"
Al       4.33187791       0.04872662       1.80871092      -0.01258375       0.02310136      -0.00000000
Al       1.72182368       1.11197110       3.21767756       0.01676873       0.03554190       0.00559189
Al       1.72182368       1.11197110       0.39974429       0.01676873       0.03554190      -0.00559189
Al       4.08632249       2.13331622       4.01716472       0.01676873      -0.03554190      -0.00559189
Al       0.64267370       4.35725606       3.21767898      -0.01676873       0.03554190       0.00559189
Al       3.00717250       5.37860117       6.83509941      -0.01676873      -0.03554190       0.00559189
Al       0.64267370       4.35725606       0.39974287      -0.01676873       0.03554190      -0.00559189
Al       3.00717250       5.37860117       4.01716567      -0.01676873      -0.03554190      -0.00559189
Al       4.08632249       2.13331622       6.83510035       0.01676873      -0.03554190       0.00559189
Al       2.76161472       3.29401110       1.80871092       0.01258375       0.02310136       0.00000000
Al       0.39711828       6.44184566       5.42613277       0.01258375      -0.02310136      -0.00000000
Al       1.96738147       3.19656118       5.42613277      -0.01258375      -0.02310136       0.00000000
Ni       2.09528139       5.64911386       1.80871092       0.01159953       0.02166232       0.00000000
Ni       0.26921694       2.40382701       1.80871092      -0.01159953       0.02166232       0.00000000
Ni       2.63371480       0.84145841       5.42613277      -0.01159953      -0.02166232       0.00000000
Ni       4.45977924       4.08674526       5.42613277       0.01159953      -0.02166232       0.00000000
5
Lattice="3.9640241335997097 0.0 0.0 -1.9820120667998549 3.432944000300689 -0.0 -0.0 -0.0 4.809705078237738" Properties=species:S:1:pos:R:3:REF_forces:R:3 REF_energy=-10956.400671770292 source_file=Al3Ni2/iso_m02/Al3Ni2_iso_m02.out phase=Al3Ni2 configuration=iso_m02 pbc="T T T"
Al       0.00000000       0.00000000       0.00000000       0.00000000       0.00000000       0.00000000
Al      -0.00000277       2.28863092       3.11433516      -0.00000000       0.00000000      -0.09536247
Al       1.98201365       1.14431348       1.69536952       0.00000000       0.00000000       0.09536247
Ni      -0.00000277       2.28863092       0.70529226      -0.00000000       0.00000000       0.06572768
Ni       1.98201365       1.14431348       4.10441282       0.00000000      -0.00000000      -0.06572768
5
Lattice="4.044922628503966 0.0 0.0 -2.022461314251983 3.5030041193501473 -0.0 -0.0 -0.0 4.907862377146373" Properties=species:S:1:pos:R:3:REF_forces:R:3 REF_energy=-10956.48157842554 source_file=Al3Ni2/rattle_003/Al3Ni2_rattle_003.out phase=Al3Ni2 configuration=rattle_003 pbc="T T T"
Al       2.02344463       3.49420520       4.88634582       0.03816520       0.08090876       0.09372031
Al      -0.02426630       2.32622691       3.18934585       0.18239843       0.08224316       0.06540604
Al       2.02504076       1.19389410       1.71369053      -0.02968364      -0.19465076       0.11333706
Ni       0.01174929       2.33096595       0.77654667      -0.07797333       0.05844426      -0.61606589
Ni       2.03141232       1.16372181       4.15765786      -0.11290665      -0.02694542       0.34360248
5
Lattice="4.044922628503966 0.0 0.0 -1.9699177693077163 3.5030041193501473 0.0 0.0 0.0 4.907862377146373" Properties=species:S:1:pos:R:3:REF_forces:R:3 REF_energy=-10956.47934015316 source_file=Al3Ni2/shear015_rattle002/Al3Ni2_shear015_rattle002.out phase=Al3Ni2 configuration=shear015_rattle002 pbc="T T T"
Al      -0.00557593       0.01172219       0.01210767       0.04439267      -0.25082191      -0.04685758
Al       0.05198818       2.35638303       3.20205095      -0.12850039      -0.11720528      -0.29618800
Al       2.04004742       1.17018803       1.73326189       0.01499236      -0.03282656      -0.18687703
Ni       0.00697426       2.30073541       0.72231801       0.21357254       0.32426136       0.03685522
Ni       2.05657700       1.16698081       4.14598623      -0.14445717       0.07659265       0.49306740
8
Lattice="3.687060191228383 0.0 0.0 0.0 4.88169718966791 -0.5406668193815388 0.0 -0.013553633262955537 4.911529193675138" Properties=species:S:1:pos:R:3:REF_forces:R:3 REF_energy=-24969.43088902333 source_file=Al3Ni5/iso_m02/Al3Ni5_iso_m02.out phase=Al3Ni5 configuration=iso_m02 pbc="T T T"
Al       0.00000000       2.43407215       2.18543008       0.00000000       0.00000000       0.00000000
Al       1.84353010       1.06587380       3.70930128       0.00000000       0.04835294      -0.05385304
Al       1.84353010       3.80227013       0.66155926       0.00000000      -0.04835294       0.05385304
Ni       0.00000000       0.00000000       0.00000000       0.00000000       0.00000000       0.00000000
Ni       0.00000000       2.44084896      -0.27033415       0.00000000       0.00000000       0.00000000
Ni       0.00000000      -0.00677682       2.45576460       0.00000000       0.00000000       0.00000000
Ni       1.84353010       1.34563944       1.20819837       0.00000000      -0.00072788      -0.00082995
Ni       1.84353010       3.52250448       3.16266216       0.00000000       0.00072788       0.00082995
8
Lattice="3.762306544370215 0.0 0.0 0.0 4.98132396319852 -0.5517008693599039 0.0 -0.01383023885710491 5.011764785449018" Properties=species:S:1:pos:R:3:REF_forces:R:3 REF_energy=-24969.569102172714 source_file=Al3Ni5/rattle_003/Al3Ni5_rattle_003.out phase=Al3Ni5 configuration=rattle_003 pbc="T T T"
Al       0.00620254       2.50336503       2.20835167      -0.03303713      -0.27545025       0.07757198
Al       1.90481103       1.05572730       3.78130845      -0.30887974       0.25683032       0.01226236
Al       1.90593860       3.84240831       0.63142114      -0.33117891       0.35269159       0.42572198
Ni       3.73795991       0.04373606       0.03741238       0.32958534      -0.16598322      -0.11674557
Ni       3.74479715       2.51255108       4.71647414       0.24215601      -0.27689007       0.00915184
Ni       3.75194854       4.95581816       1.98587482       0.17089069       0.13928411      -0.19168808
Ni       1.89113542       1.37316702       1.23637068      -0.12588018      -0.05257623       0.04472511
Ni       1.86873917       3.58320420       3.24303488       0.05634418       0.02209400      -0.26099962
8
Lattice="3.762306544370215 0.0 0.0 0.07471940797119246 4.98132396319852 -0.5517008693599039 -0.00020692685994036183 -0.01383023885710491 5.011764785449018" Properties=species:S:1:pos:R:3:REF_forces:R:3 REF_energy=-24969.568178074118 source_file=Al3Ni5/shear015_rattle002/Al3Ni5_shear015_rattle002.out phase=Al3Ni5 configuration=shear015_rattle002 pbc="T T T"
Al       3.77404569       2.46072945       2.22441446       0.33483991       0.18513923       0.03060590
Al       1.88115779       1.12386906       3.78135585       0.16063815      -0.20917338       0.13890745
Al       1.95821773       3.86401448       0.69320047      -0.17440307       0.17781544      -0.08742496
Ni       0.07999228       4.91227059       4.45221499      -0.03885580       0.67011202       0.07114577
Ni       3.79919333       2.49952033       4.71336647       0.00699597      -0.41299193       0.17407217
Ni       0.08501985       4.95786260       1.96238523      -0.06986510       0.10438010      -0.06831652
Ni       1.90787468       1.39012599       1.24491187      -0.09544861      -0.29675416      -0.20358226
Ni       1.93628762       3.62907838       3.22846045      -0.12390120      -0.21852783      -0.05540702
2
Lattice="2.8361278940568466 0.0 -0.0 -0.0 2.8361278940568466 -0.0 0.0 -0.0 2.8361278940568466" Properties=species:S:1:pos:R:3:REF_forces:R:3 REF_energy=-5209.264458355565 source_file=AlNi/iso_m02/AlNi_iso_m02.out phase=AlNi configuration=iso_m02 pbc="T T T"
Al       1.41806395       1.41806395       1.41806395       0.00000000       0.00000000       0.00000000
Ni       0.00000000       0.00000000       0.00000000       0.00000000       0.00000000       0.00000000
2
Lattice="2.89400823875214 0.0 -0.0 -0.0 2.89400823875214 -0.0 0.0 -0.0 2.89400823875214" Properties=species:S:1:pos:R:3:REF_forces:R:3 REF_energy=-5209.280878520931 source_file=AlNi/rattle_003/AlNi_rattle_003.out phase=AlNi configuration=rattle_003 pbc="T T T"
Al       1.45467932       1.40579952       1.41709570      -0.09073140       0.47654471       0.34958416
Ni       2.88633304       0.04120460       0.02990842       0.09073140      -0.47654471      -0.34958416
2
Lattice="2.89400823875214 0.0 0.0 0.0434101235812821 2.89400823875214 0.0 0.0 0.0 2.89400823875214" Properties=species:S:1:pos:R:3:REF_forces:R:3 REF_energy=-5209.299853971299 source_file=AlNi/shear015_rattle002/AlNi_shear015_rattle002.out phase=AlNi configuration=shear015_rattle002 pbc="T T T"
Al       1.48204882       1.46907932       1.43244523      -0.13579153      -0.24293274       0.16786913
Ni       2.92407872       2.87193303       0.01455889       0.13579153       0.24293274      -0.16786913
4
Lattice="3.495915562621792 0.0 -0.0 0.0 3.4960379196664837 0.0 0.0 0.0 3.4960379196664837" Properties=species:S:1:pos:R:3:REF_forces:R:3 REF_energy=-14550.746648508584 source_file=AlNi3/iso_m02/AlNi3_iso_m02.out phase=AlNi3 configuration=iso_m02 pbc="T T T"
Al       0.00000000       0.00000000       0.00000000       0.00000000       0.00000000       0.00000000
Ni       0.00000000       1.74801861       1.74801826       0.00000000       0.00000000       0.00000000
Ni       1.74795778       0.00000000       1.74801826       0.00000000       0.00000000       0.00000000
Ni       1.74795778       1.74801861       0.00000000       0.00000000       0.00000000       0.00000000
4
Lattice="3.5672608213836416 0.0 -0.0 0.0 3.5673856755123903 0.0 0.0 0.0 3.5673856755123903" Properties=species:S:1:pos:R:3:REF_forces:R:3 REF_energy=-14550.816738366631 source_file=AlNi3/rattle_003/AlNi3_rattle_003.out phase=AlNi3 configuration=rattle_003 pbc="T T T"
Al       0.01582473       0.03575965       3.54666310      -0.17973142      -0.47462333       0.28484326
Ni       3.56598160       1.75521040       1.80738551      -0.05966245       0.44281004      -0.32977535
Ni       1.77732100       0.01276223       1.78990915       0.11050293      -0.33482037      -0.17284704
Ni       1.77539432       1.76365304       3.55819534       0.12889094       0.36663365       0.21777912
4
Lattice="3.5672608213836416 0.0 0.0 0.05351247958157601 3.5673856755123903 0.0 0.0 0.0 3.5673856755123903" Properties=species:S:1:pos:R:3:REF_forces:R:3 REF_energy=-14550.80912053972 source_file=AlNi3/shear015_rattle002/AlNi3_shear015_rattle002.out phase=AlNi3 configuration=shear015_rattle002 pbc="T T T"
Al       3.56663370       0.03287052       0.02936070       0.00910968      -0.39743521      -0.17101847
Ni       0.02856769       1.74820287       1.79947262      -0.03527708       0.45651814      -0.19392494
Ni       1.75262628       0.00042736       1.77819533       0.29719253      -0.17872921      -0.00701500
Ni       1.84020467       1.78588456       3.52773985      -0.27102538       0.11964603       0.37195841
