ITEM: TIMESTEP
0
ITEM: NUMBER OF ATOMS
144
ITEM: BOX BOUNDS xy xz yz pp pp pp
-6.4597213131636103e-12 1.1395059998347463e+01 -3.2200950675093977e-12
-1.4409026997352812e+00 1.5010498423217276e+01 -3.2396262456542130e-12
0.0000000000000000e+00 9.9027181807399973e+00 -1.4409026997352812e+00
ITEM: ATOMS id element xu yu zu
1 Al -0.0180234 2.14567 2.48989
2 Al 1.88115 0.548605 3.87139
3 Al 1.88115 3.74273 1.10839
4 Ni -0.0180234 0.00414172 0.0142118
5 Ni -0.0180234 1.78544 4.96557
6 Ni -0.0180234 4.64742 2.48989
7 Ni 1.88115 1.1915 1.38684
8 Ni 1.88115 3.09983 3.59294
9 Al -0.0180234 1.42521 7.44125
10 Al 1.88115 -0.171846 8.82275
11 Al 1.88115 3.02228 6.05975
12 Ni -0.0180234 -0.71631 4.96557
13 Ni -0.0180234 1.06499 9.91693
14 Ni -0.0180234 3.92696 7.44125
15 Ni 1.88115 0.471049 6.3382
16 Ni 1.88115 2.37938 8.5443
17 Al -0.0180234 7.14917 2.48989
18 Al 1.88115 5.5521 3.87139
19 Al 1.88115 8.74623 1.10839
20 Ni -0.0180234 5.00764 0.0142118
21 Ni -0.0180234 6.78894 4.96557
22 Ni -0.0180234 9.65091 2.48989
23 Ni 1.88115 6.195 1.38684
24 Ni 1.88115 8.10333 3.59294
25 Al -0.0180234 6.42871 7.44125
26 Al 1.88115 4.83165 8.82275
27 Al 1.88115 8.02577 6.05975
28 Ni -0.0180234 4.28719 4.96557
29 Ni -0.0180234 6.06849 9.91693
30 Ni -0.0180234 8.93046 7.44125
31 Ni 1.88115 5.47455 6.3382
32 Ni 1.88115 7.38288 8.5443
33 Al -0.0180234 12.1527 2.48989
34 Al 1.88115 10.5556 3.87139
35 Al 1.88115 13.7497 1.10839
36 Ni -0.0180234 10.0111 0.0142118
37 Ni -0.0180234 11.7924 4.96557
38 Ni -0.0180234 14.6544 2.48989
39 Ni 1.88115 11.1985 1.38684
40 Ni 1.88115 13.1068 3.59294
41 Al -0.0180234 11.4322 7.44125
42 Al 1.88115 9.83515 8.82275
43 Al 1.88115 13.0293 6.05975
44 Ni -0.0180234 9.29069 4.96557
45 Ni -0.0180234 11.072 9.91693
46 Ni -0.0180234 13.934 7.44125
47 Ni 1.88115 10.478 6.3382
48 Ni 1.88115 12.3864 8.5443
49 Al 3.78033 2.14567 2.48989
50 Al 5.67951 0.548605 3.87139
51 Al 5.67951 3.74273 1.10839
52 Ni 3.78033 0.00414172 0.0142118
53 Ni 3.78033 1.78544 4.96557
54 Ni 3.78033 4.64742 2.48989
55 Ni 5.67951 1.1915 1.38684
56 Ni 5.67951 3.09983 3.59294
57 Al 3.78033 1.42521 7.44125
58 Al 5.67951 -0.171846 8.82275
59 Al 5.67951 3.02228 6.05975
60 Ni 3.78033 -0.71631 4.96557
61 Ni 3.78033 1.06499 9.91693
62 Ni 3.78033 3.92696 7.44125
63 Ni 5.67951 0.471049 6.3382
64 Ni 5.67951 2.37938 8.5443
65 Al 3.78033 7.14917 2.48989
66 Al 5.67951 5.5521 3.87139
67 Al 5.67951 8.74623 1.10839
68 Ni 3.78033 5.00764 0.0142118
69 Ni 3.78033 6.78894 4.96557
70 Ni 3.78033 9.65091 2.48989
71 Ni 5.67951 6.195 1.38684
72 Ni 5.67951 8.10333 3.59294
73 Al 3.78033 6.42871 7.44125
74 Al 5.67951 4.83165 8.82275
75 Al 5.67951 8.02577 6.05975
76 Ni 3.78033 4.28719 4.96557
77 Ni 3.78033 6.06849 9.91693
78 Ni 3.78033 8.93046 7.44125
79 Ni 5.67951 5.47455 6.3382
80 Ni 5.67951 7.38288 8.5443
81 Al 3.78033 12.1527 2.48989
82 Al 5.67951 10.5556 3.87139
83 Al 5.67951 13.7497 1.10839
84 Ni 3.78033 10.0111 0.0142118
85 Ni 3.78033 11.7924 4.96557
86 Ni 3.78033 14.6544 2.48989
87 Ni 5.67951 11.1985 1.38684
88 Ni 5.67951 13.1068 3.59294
89 Al 3.78033 11.4322 7.44125
90 Al 5.67951 9.83515 8.82275
91 Al 5.67951 13.0293 6.05975
92 Ni 3.78033 9.29069 4.96557
93 Ni 3.78033 11.072 9.91693
94 Ni 3.78033 13.934 7.44125
95 Ni 5.67951 10.478 6.3382
96 Ni 5.67951 12.3864 8.5443
97 Al 7.57868 2.14567 2.48989
98 Al 9.47786 0.548605 3.87139
99 Al 9.47786 3.74273 1.10839
100 Ni 7.57868 0.00414172 0.0142118
101 Ni 7.57868 1.78544 4.96557
102 Ni 7.57868 4.64742 2.48989
103 Ni 9.47786 1.1915 1.38684
104 Ni 9.47786 3.09983 3.59294
105 Al 7.57868 1.42521 7.44125
106 Al 9.47786 -0.171846 8.82275
107 Al 9.47786 3.02228 6.05975
108 Ni 7.57868 -0.71631 4.96557
109 Ni 7.57868 1.06499 9.91693
110 Ni 7.57868 3.92696 7.44125
111 Ni 9.47786 0.471049 6.3382
112 Ni 9.47786 2.37938 8.5443
113 Al 7.57868 7.14917 2.48989
114 Al 9.47786 5.5521 3.87139
115 Al 9.47786 8.74623 1.10839
116 Ni 7.57868 5.00764 0.0142118
117 Ni 7.57868 6.78894 4.96557
118 Ni 7.57868 9.65091 2.48989
119 Ni 9.47786 6.195 1.38684
120 Ni 9.47786 8.10333 3.59294
121 Al 7.57868 6.42871 7.44125
122 Al 9.47786 4.83165 8.82275
123 Al 9.47786 8.02577 6.05975
124 Ni 7.57868 4.28719 4.96557
125 Ni 7.57868 6.06849 9.91693
126 Ni 7.57868 8.93046 7.44125
127 Ni 9.47786 5.47455 6.3382
128 Ni 9.47786 7.38288 8.5443
129 Al 7.57868 12.1527 2.48989
130 Al 9.47786 10.5556 3.87139
131 Al 9.47786 13.7497 1.10839
132 Ni 7.57868 10.0111 0.0142118
133 Ni 7.57868 11.7924 4.96557
134 Ni 7.57868 14.6544 2.48989
135 Ni 9.47786 11.1985 1.38684
136 Ni 9.47786 13.1068 3.59294
137 Al 7.57868 11.4322 7.44125
138 Al 9.47786 9.83515 8.82275
139 Al 9.47786 13.0293 6.05975
140 Ni 7.57868 9.29069 4.96557
141 Ni 7.57868 11.072 9.91693
142 Ni 7.57868 13.934 7.44125
143 Ni 9.47786 10.478 6.3382
144 Ni 9.47786 12.3864 8.5443
ITEM: TIMESTEP
100
ITEM: NUMBER OF ATOMS
144
ITEM: BOX BOUNDS xy xz yz pp pp pp
-3.2983621439473865e-02 1.1435908169396479e+01 3.6446542909997679e-03
-1.4898513167303156e+00 1.5042009444319444e+01 4.2198953185450267e-03
-1.6414090251864799e-02 9.9191322709918524e+00 -1.4583402956281404e+00
ITEM: ATOMS id element xu yu zu
1 Al -0.158968 2.1276 2.51347
2 Al 1.81764 0.485346 3.74283
3 Al 1.84805 3.78356 1.09029
4 Ni -0.0390511 -0.0485678 -0.0671648
5 Ni -0.0117962 1.77251 5.02974
6 Ni -0.108935 4.69099 2.55126
7 Ni 1.7764 1.16264 1.35198
8 Ni 1.75988 3.07842 3.65243
9 Al 0.0424535 1.37197 7.46294
10 Al 1.85652 -0.259916 8.80194
11 Al 1.85716 3.07074 6.09417
12 Ni -0.0819026 -0.810683 4.90641
13 Ni -0.0181001 0.989395 9.93767
14 Ni -0.0568322 3.88802 7.44763
15 Ni 1.92062 0.432508 6.32639
16 Ni 1.86354 2.31132 8.58387
17 Al -0.0246816 7.22519 2.46354
18 Al 1.84182 5.58455 3.80595
19 Al 1.85149 8.83647 1.07289
20 Ni -0.079394 4.88888 -0.0160046
21 Ni -0.0340586 6.86102 4.94529
22 Ni -0.0366629 9.78378 2.55256
23 Ni 1.79218 6.28862 1.36158
24 Ni 1.94207 8.09516 3.55262
25 Al -0.0750082 6.37146 7.39968
26 Al 1.88334 4.77181 8.81361
27 Al 1.86785 8.07432 6.09188
28 Ni -0.0329094 4.34364 5.01765
29 Ni -0.0667063 5.97245 9.85986
30 Ni -0.0905354 8.87395 7.48575
31 Ni 1.83686 5.53543 6.29084
32 Ni 1.85032 7.30585 8.558
33 Al -0.0339919 12.2043 2.51695
34 Al 1.9417 10.5472 3.9022
35 Al 1.84363 13.7748 1.02441
36 Ni -0.0519663 10.0058 0.0353739
37 Ni -0.0484509 11.8266 4.93186
38 Ni -0.0909521 14.7332 2.38918
39 Ni 1.88221 11.2253 1.39061
40 Ni 1.87397 13.0544 3.60146
41 Al 0.0116434 11.4213 7.37773
42 Al 1.88214 9.66111 8.86672
43 Al 1.91486 13.0704 6.0812
44 Ni -0.0611381 9.27403 5.05937
45 Ni -0.0506057 11.0285 9.90807
46 Ni -0.0450195 13.9173 7.48873
47 Ni 1.89155 10.5037 6.41546
48 Ni 1.90186 12.3483 8.50825
49 Al 3.68828 2.10783 2.48921
50 Al 5.68911 0.551148 3.90848
51 Al 5.65917 3.64575 1.11622
52 Ni 3.80011 0.00758823 -0.0232324
53 Ni 3.65426 1.78139 4.98052
54 Ni 3.74198 4.61038 2.46664
55 Ni 5.71242 1.11806 1.45892
56 Ni 5.6398 3.06617 3.60994
57 Al 3.77189 1.39183 7.43081
58 Al 5.69565 -0.164078 8.82873
59 Al 5.70135 3.00102 6.0219
60 Ni 3.76234 -0.775892 5.01305
61 Ni 3.79047 0.9813 10.001
62 Ni 3.78817 3.86932 7.47762
63 Ni 5.69569 0.479822 6.37543
64 Ni 5.60768 2.35413 8.5302
65 Al 3.79276 7.11645 2.37868
66 Al 5.727 5.52275 3.82829
67 Al 5.70491 8.70888 1.05798
68 Ni 3.79158 5.10279 0.0729899
69 Ni 3.81869 6.78104 4.91381
70 Ni 3.81575 9.54124 2.46867
71 Ni 5.7066 6.1319 1.35955
72 Ni 5.6751 8.04836 3.54
73 Al 3.73793 6.39884 7.39414
74 Al 5.76635 4.83557 8.79842
75 Al 5.68817 8.07703 6.06491
76 Ni 3.71796 4.33233 4.95844
77 Ni 3.75322 6.07491 9.91617
78 Ni 3.80592 8.92776 7.42623
79 Ni 5.67238 5.4082 6.31181
80 Ni 5.69444 7.42525 8.55069
81 Al 3.77264 12.2228 2.38475
82 Al 5.65642 10.558 3.83546
83 Al 5.68792 13.7554 1.09642
84 Ni 3.75882 9.99314 0.0135701
85 Ni 3.84608 11.8169 5.01329
86 Ni 3.81957 14.6813 2.53687
87 Ni 5.71458 11.1767 1.35373
88 Ni 5.67929 13.1437 3.55805
89 Al 3.76934 11.4058 7.465
90 Al 5.64692 9.85984 8.86041
91 Al 5.76896 13.0424 6.06655
92 Ni 3.80628 9.30753 4.98515
93 Ni 3.78903 11.1567 9.91397
94 Ni 3.85319 13.9196 7.45254
95 Ni 5.71403 10.5186 6.33772
96 Ni 5.65862 12.4854 8.54103
97 Al 7.6096 2.17571 2.5645
98 Al 9.48903 0.531162 3.94726
99 Al 9.5129 3.68562 1.17174
100 Ni 7.54989 -0.0578186 0.0466612
101 Ni 7.58168 1.7596 5.04003
102 Ni 7.63417 4.6091 2.43039
103 Ni 9.45255 1.09824 1.42211
104 Ni 9.5386 3.13442 3.61527
105 Al 7.55032 1.42749 7.54917
106 Al 9.48293 -0.261289 8.91301
107 Al 9.5384 3.00531 6.08502
108 Ni 7.61117 -0.732194 4.99655
109 Ni 7.56968 0.973231 9.99456
110 Ni 7.55888 3.84859 7.41197
111 Ni 9.58938 0.463763 6.34068
112 Ni 9.58987 2.28278 8.5986
113 Al 7.65708 7.14739 2.44759
114 Al 9.45162 5.58925 3.89239
115 Al 9.49821 8.74773 1.05776
116 Ni 7.60486 4.86884 -0.0129658
117 Ni 7.62831 6.79778 4.94069
118 Ni 7.57085 9.69111 2.5065
119 Ni 9.50783 6.21713 1.34544
120 Ni 9.53245 8.14314 3.62463
121 Al 7.61204 6.51207 7.39952
122 Al 9.45804 4.78456 8.7954
123 Al 9.51175 8.05783 6.07413
124 Ni 7.60821 4.22292 4.9514
125 Ni 7.60507 6.00361 9.95387
126 Ni 7.58402 8.99007 7.47928
127 Ni 9.44682 5.44934 6.34462
128 Ni 9.5447 7.38154 8.55033
129 Al 7.56977 12.213 2.41085
130 Al 9.47795 10.5829 3.88817
131 Al 9.52061 13.7596 1.02939
132 Ni 7.56903 9.96954 -0.0328562
133 Ni 7.52963 11.8348 4.90528
134 Ni 7.54917 14.717 2.42049
135 Ni 9.52474 11.2331 1.38887
136 Ni 9.40722 13.1858 3.53057
137 Al 7.55443 11.4523 7.48648
138 Al 9.5266 9.80919 8.85767
139 Al 9.50579 13.0924 6.06417
140 Ni 7.57456 9.28664 4.96145
141 Ni 7.58674 11.0426 9.86171
142 Ni 7.62724 14.0152 7.45131
143 Ni 9.50381 10.4516 6.32616
144 Ni 9.55296 12.3844 8.50656
ITEM: TIMESTEP
200
ITEM: NUMBER OF ATOMS
144
ITEM: BOX BOUNDS xy xz yz pp pp pp
-2.0043706050207128e-02 1.1420912666282039e+01 -3.0489173474991427e-03
-1.4964423150776263e+00 1.5017970922582116e+01 8.8578792318719634e-03
4.5351570660434604e-03 9.8981830236739441e+00 -1.4889698157127791e+00
ITEM: ATOMS id element xu yu zu
1 Al -0.0676374 2.16405 2.50035
2 Al 1.89452 0.634776 3.84256
3 Al 1.87376 3.65806 1.04706
4 Ni -0.0658137 -0.054758 0.0821196
5 Ni -0.0639346 1.78982 4.93952
6 Ni 0.0506512 4.56327 2.46587
7 Ni 1.96395 1.17193 1.44545
8 Ni 1.98482 3.09168 3.60792
9 Al -0.0947938 1.43061 7.42657
10 Al 1.73592 -0.244649 8.85776
11 Al 1.86739 2.92828 6.01204
12 Ni -0.00934622 -0.649627 5.00436
13 Ni -0.0123552 1.0225 9.95277
14 Ni -0.021893 3.86719 7.45927
15 Ni 1.79637 0.422152 6.40335
16 Ni 1.82436 2.33878 8.5636
17 Al 0.01999 7.06746 2.46074
18 Al 1.88243 5.52157 3.9445
19 Al 1.93835 8.75242 1.02497
20 Ni 0.0607876 5.12003 0.0613325
21 Ni -0.0758614 6.75549 4.97081
22 Ni -0.0354384 9.55097 2.3955
23 Ni 1.98308 6.04274 1.37043
24 Ni 1.80331 8.09301 3.57708
25 Al -0.0433599 6.39172 7.41786
26 Al 1.91337 4.89408 8.84041
27 Al 1.84989 8.01105 6.04936
28 Ni -0.0671097 4.16985 4.95229
29 Ni -0.0594978 6.12179 9.9593
30 Ni 0.0419274 8.92505 7.38887
31 Ni 1.93641 5.3183 6.39293
32 Ni 1.85657 7.44146 8.46537
33 Al -0.0101783 12.0767 2.52671
34 Al 1.86771 10.5999 3.80212
35 Al 1.83347 13.6443 1.04646
36 Ni -0.000958286 10.0118 -0.00203596
37 Ni -0.0499058 11.8416 4.99145
38 Ni 0.00997315 14.629 2.59008
39 Ni 1.81157 11.1422 1.39878
40 Ni 1.89249 13.1966 3.5505
41 Al 0.0451924 11.4232 7.41734
42 Al 1.84191 9.75856 8.80789
43 Al 1.91941 13.035 6.00044
44 Ni -0.00853619 9.25463 4.91434
45 Ni -0.03791 11.035 9.94095
46 Ni -0.0256156 13.8346 7.35751
47 Ni 1.89932 10.3916 6.25755
48 Ni 1.82778 12.4388 8.58823
49 Al 3.82687 2.13642 2.52186
50 Al 5.74123 0.532167 3.75089
51 Al 5.70577 3.77592 1.17391
52 Ni 3.72272 -0.0758295 0.0327995
53 Ni 3.87417 1.73849 5.00908
54 Ni 3.77094 4.61844 2.50334
55 Ni 5.64042 1.23825 1.35182
56 Ni 5.74282 3.05512 3.63107
57 Al 3.77939 1.48047 7.39121
58 Al 5.57393 -0.338221 8.81688
59 Al 5.80169 3.05521 6.10406
60 Ni 3.7373 -0.720852 4.9391
61 Ni 3.741 1.06404 9.93965
62 Ni 3.71851 3.94555 7.44096
63 Ni 5.66709 0.409447 6.46332
64 Ni 5.75418 2.30091 8.61845
65 Al 3.75073 7.23571 2.44985
66 Al 5.60507 5.56112 3.85215
67 Al 5.68918 8.79857 1.09932
68 Ni 3.70339 4.91473 -0.0394381
69 Ni 3.74881 6.75437 4.96033
70 Ni 3.71611 9.70768 2.46817
71 Ni 5.70805 6.29733 1.3989
72 Ni 5.64327 8.12975 3.58788
73 Al 3.72054 6.44312 7.37082
74 Al 5.71222 4.74937 8.79768
75 Al 5.64258 8.06311 6.10514
76 Ni 3.89069 4.20609 5.03898
77 Ni 3.80474 6.01289 9.89263
78 Ni 3.73745 8.88734 7.46812
79 Ni 5.68757 5.48982 6.32605
80 Ni 5.67593 7.28214 8.54136
81 Al 3.75287 12.2504 2.41497
82 Al 5.71358 10.5466 3.84056
83 Al 5.73856 13.7919 1.15044
84 Ni 3.79975 10.0386 -0.00034142
85 Ni 3.72914 11.7795 4.92425
86 Ni 3.7263 14.6221 2.46148
87 Ni 5.66615 11.2283 1.3728
88 Ni 5.69606 13.0851 3.62199
89 Al 3.70511 11.4216 7.4727
90 Al 5.74053 9.72631 8.78668
91 Al 5.69398 12.9457 6.04984
92 Ni 3.77826 9.26588 4.91157
93 Ni 3.78591 10.9198 9.96402
94 Ni 3.61777 13.9525 7.44101
95 Ni 5.66474 10.424 6.29726
96 Ni 5.7505 12.2094 8.52993
97 Al 7.58722 2.11959 2.46687
98 Al 9.50247 0.52195 3.97723
99 Al 9.42233 3.72456 1.0905
100 Ni 7.65061 -0.0235935 -0.00723375
101 Ni 7.5749 1.81418 4.97885
102 Ni 7.56385 4.66309 2.53092
103 Ni 9.56286 1.25636 1.36169
104 Ni 9.48595 3.01566 3.58381
105 Al 7.49312 1.34028 7.52266
106 Al 9.52936 -0.277632 8.81681
107 Al 9.47522 3.00307 6.09076
108 Ni 7.57084 -0.721368 5.00483
109 Ni 7.5832 1.03614 9.92572
110 Ni 7.59915 3.94157 7.44095
111 Ni 9.35429 0.345612 6.36972
112 Ni 9.42685 2.33667 8.49706
113 Al 7.58805 7.17069 2.50405
114 Al 9.43321 5.50273 3.86574
115 Al 9.51609 8.69328 1.05268
116 Ni 7.57999 5.12159 -0.021633
117 Ni 7.51475 6.73744 5.01489
118 Ni 7.61113 9.62495 2.45047
119 Ni 9.46664 6.15623 1.4235
120 Ni 9.44188 8.10915 3.60057
121 Al 7.63458 6.41395 7.38651
122 Al 9.58963 4.81065 8.82394
123 Al 9.57621 8.07584 6.05203
124 Ni 7.53889 4.32079 4.95416
125 Ni 7.61588 6.02311 9.88956
126 Ni 7.59491 8.81514 7.39113
127 Ni 9.50145 5.46329 6.30595
128 Ni 9.42761 7.27352 8.56968
129 Al 7.62033 12.1479 2.50005
130 Al 9.49998 10.5542 3.84524
131 Al 9.52308 13.8255 1.17554
132 Ni 7.62115 10.0213 0.0369893
133 Ni 7.61968 11.8033 4.97295
134 Ni 7.64385 14.6085 2.58113
135 Ni 9.488 11.1981 1.34946
136 Ni 9.60323 13.0888 3.61771
137 Al 7.54029 11.2946 7.43106
138 Al 9.54418 9.72131 8.77032
139 Al 9.49362 13.0786 6.07493
140 Ni 7.66031 9.29098 4.9611
141 Ni 7.57647 11.0204 9.94003
142 Ni 7.53529 13.863 7.41452
143 Ni 9.49365 10.4643 6.31016
144 Ni 9.45768 12.3518 8.54815
ITEM: TIMESTEP
300
ITEM: NUMBER OF ATOMS
144
ITEM: BOX BOUNDS xy xz yz pp pp pp
-3.3684721470301257e-02 1.1425689051902021e+01 -5.9474333956667661e-03
-1.5652572662016859e+00 1.5030803331813324e+01 2.8917654799122112e-03
-1.6045525179412934e-02 9.9187637059193836e+00 -1.5449523576056197e+00
ITEM: ATOMS id element xu yu zu
1 Al -0.0943753 2.09699 2.47252
2 Al 1.84715 0.338021 3.84946
3 Al 1.91006 3.79427 0.976396
4 Ni -0.0474445 0.130936 0.0573496
5 Ni -0.0331928 1.69616 4.99823
6 Ni -0.108244 4.54567 2.47012
7 Ni 1.90011 1.1728 1.42218
8 Ni 1.74524 2.95252 3.60379
9 Al 0.018264 1.41063 7.45319
10 Al 1.81735 -0.337846 8.90185
11 Al 1.88684 3.04469 6.05516
12 Ni -0.112562 -0.876651 5.05265
13 Ni -0.132652 0.990602 9.89087
14 Ni -0.10796 3.8376 7.40898
15 Ni 1.98025 0.411019 6.39539
16 Ni 1.84386 2.34217 8.53662
17 Al 0.016915 7.03239 2.44187
18 Al 1.87786 5.46126 3.78791
19 Al 1.91369 8.8099 1.12183
20 Ni -0.135894 5.02322 0.0114803
21 Ni 0.0198949 6.73181 4.96727
22 Ni -0.0290692 9.61464 2.39661
23 Ni 1.91185 6.28626 1.43327
24 Ni 1.84441 8.00309 3.57358
25 Al -0.00137923 6.36533 7.48911
26 Al 1.91041 4.69037 8.86584
27 Al 1.79939 8.11194 6.11949
28 Ni 0.0126991 4.25067 4.96879
29 Ni -0.0468483 5.93918 9.9364
30 Ni -0.0993761 8.84349 7.35202
31 Ni 1.81906 5.52418 6.2841
32 Ni 1.89419 7.2648 8.67493
33 Al -0.0485885 12.1412 2.42784
34 Al 1.86635 10.4561 3.77728
35 Al 1.97911 13.7516 1.05349
36 Ni -0.0733368 10.0357 -0.0971094
37 Ni -0.0579174 11.6477 4.96509
38 Ni -0.0602526 14.6096 2.49862
39 Ni 1.96113 11.2414 1.28356
40 Ni 1.80188 12.9166 3.70226
41 Al -0.107609 11.4061 7.49922
42 Al 1.84247 9.62491 8.72917
43 Al 1.77857 13.1161 6.13972
44 Ni -0.0775096 9.23047 4.89958
45 Ni -0.020853 11.1044 9.90835
46 Ni -0.102808 13.9786 7.6155
47 Ni 1.75214 10.4782 6.36619
48 Ni 1.86057 12.3505 8.53584
49 Al 3.77485 2.15327 2.52189
50 Al 5.69915 0.531181 3.68488
51 Al 5.67038 3.59908 1.12145
52 Ni 3.82535 0.00407633 -0.0256136
53 Ni 3.71606 1.74395 4.95636
54 Ni 3.84115 4.67401 2.55148
55 Ni 5.71608 1.07238 1.3748
56 Ni 5.66581 3.15643 3.63014
57 Al 3.77941 1.30924 7.49928
58 Al 5.77643 -0.213958 8.81284
59 Al 5.69629 3.00488 5.94683
60 Ni 3.75603 -0.934165 5.01116
61 Ni 3.9002 0.875115 9.97884
62 Ni 3.75943 3.80354 7.44529
63 Ni 5.60033 0.410727 6.26128
64 Ni 5.72744 2.28727 8.48329
65 Al 3.83555 7.1946 2.54743
66 Al 5.77226 5.54123 3.98086
67 Al 5.64636 8.7666 1.0565
68 Ni 3.83117 4.93882 0.0489863
69 Ni 3.817 6.70992 5.02961
70 Ni 3.83577 9.66905 2.47164
71 Ni 5.63221 6.12301 1.36549
72 Ni 5.76469 8.08513 3.57337
73 Al 3.75508 6.32906 7.41854
74 Al 5.76483 4.71687 8.87104
75 Al 5.69167 7.94119 6.14443
76 Ni 3.64992 4.26033 4.90758
77 Ni 3.76951 5.93166 9.98567
78 Ni 3.75303 8.88465 7.36158
79 Ni 5.64959 5.32581 6.39195
80 Ni 5.70311 7.34356 8.49611
81 Al 3.76993 12.2068 2.53378
82 Al 5.67577 10.4915 3.97849
83 Al 5.64541 13.6562 1.181
84 Ni 3.71816 9.99774 -0.0878231
85 Ni 3.71944 11.6919 4.98323
86 Ni 3.83081 14.7396 2.53044
87 Ni 5.70502 11.2479 1.36551
88 Ni 5.67968 13.0604 3.58105
89 Al 3.72495 11.4578 7.37899
90 Al 5.6699 9.81455 8.84349
91 Al 5.81151 12.9467 5.99996
92 Ni 3.69957 9.18914 4.92209
93 Ni 3.76082 11.027 9.84993
94 Ni 3.91917 13.8864 7.492
95 Ni 5.6394 10.3966 6.38782
96 Ni 5.62474 12.4046 8.5739
97 Al 7.53433 2.18991 2.48508
98 Al 9.4662 0.468316 3.90107
99 Al 9.38441 3.67571 1.15978
100 Ni 7.54733 0.022219 0.00119859
101 Ni 7.52881 1.64576 4.86582
102 Ni 7.56588 4.57674 2.50618
103 Ni 9.41958 1.11123 1.40471
104 Ni 9.47528 3.07121 3.53096
105 Al 7.66506 1.32512 7.30679
106 Al 9.3852 -0.269457 8.84768
107 Al 9.56724 2.88862 6.05562
108 Ni 7.60362 -0.876267 4.95469
109 Ni 7.58121 0.993344 9.93399
110 Ni 7.56573 3.72248 7.51677
111 Ni 9.62415 0.414329 6.26559
112 Ni 9.51151 2.33639 8.55019
113 Al 7.58355 7.12625 2.41664
114 Al 9.45251 5.49927 3.89581
115 Al 9.53923 8.73906 0.948327
116 Ni 7.56827 4.9606 0.0650681
117 Ni 7.70483 6.70792 4.89901
118 Ni 7.58809 9.72388 2.52094
119 Ni 9.48279 6.27035 1.34447
120 Ni 9.5896 7.95826 3.51494
121 Al 7.63409 6.28568 7.40349
122 Al 9.53368 4.81474 8.884
123 Al 9.54091 7.9788 5.99042
124 Ni 7.65021 4.20412 5.03923
125 Ni 7.55687 5.98746 9.9805
126 Ni 7.54165 8.85341 7.37943
127 Ni 9.54269 5.35034 6.42456
128 Ni 9.55209 7.38585 8.4999
129 Al 7.59793 12.164 2.50092
130 Al 9.46776 10.5048 3.84668
131 Al 9.49435 13.8018 1.14768
132 Ni 7.51332 10.0709 -0.0357319
133 Ni 7.54081 11.6619 5.00236
134 Ni 7.49274 14.6479 2.45208
135 Ni 9.49053 11.1682 1.41794
136 Ni 9.4313 13.07 3.63942
137 Al 7.60602 11.372 7.42576
138 Al 9.43467 9.77765 8.8138
139 Al 9.54139 13.0736 6.12502
140 Ni 7.53221 9.30211 4.97469
141 Ni 7.59654 11.0689 9.95877
142 Ni 7.63932 13.7863 7.49139
143 Ni 9.5039 10.3226 6.29667
144 Ni 9.45154 12.3284 8.64065
ITEM: TIMESTEP
400
ITEM: NUMBER OF ATOMS
144
ITEM: BOX BOUNDS xy xz yz pp pp pp
-6.7673532380894824e-02 1.1480308067138974e+01 3.0260284208866076e-02
-1.5977789579055404e+00 1.5034102719648567e+01 -1.2685747798254515e-02
-5.0517057838828094e-04 9.9032233513183634e+00 -1.5741746614742291e+00
ITEM: ATOMS id element xu yu zu
1 Al -0.011352 2.08681 2.48188
2 Al 1.84441 0.510909 3.7767
3 Al 1.82541 3.69654 1.0593
4 Ni -0.08281 -0.0809878 2.89261e-05
5 Ni -0.119153 1.65192 4.90812
6 Ni -0.0339894 4.67901 2.56283
7 Ni 1.78436 1.19869 1.29647
8 Ni 1.83673 3.08957 3.59925
9 Al -0.107818 1.36099 7.45648
10 Al 1.71733 -0.405873 8.82607
11 Al 1.87851 2.90938 6.07013
12 Ni 0.0102463 -0.855148 4.95305
13 Ni 0.083565 0.919711 9.86616
14 Ni -0.00425922 3.91999 7.4923
15 Ni 1.73469 0.341175 6.26658
16 Ni 1.84646 2.27415 8.58791
17 Al -0.0761408 7.15808 2.48027
18 Al 1.90824 5.4643 3.93527
19 Al 1.84913 8.74311 1.01791
20 Ni 0.0560481 4.96825 -0.0212927
21 Ni -0.110291 6.68183 4.92309
22 Ni -0.074716 9.65173 2.59668
23 Ni 1.83699 6.10163 1.2939
24 Ni 1.91532 8.04582 3.57271
25 Al -0.107139 6.35068 7.36216
26 Al 1.89505 4.74113 8.79571
27 Al 1.8384 7.9652 6.08771
28 Ni -0.109131 4.17356 5.019
29 Ni -0.100941 5.99727 9.8661
30 Ni -0.0661845 8.90424 7.53117
31 Ni 1.87846 5.26372 6.4109
32 Ni 1.75305 7.37604 8.45005
33 Al -0.0901921 12.1224 2.49318
34 Al 1.89343 10.5122 3.86694
35 Al 1.84504 13.6935 1.12026
36 Ni -0.0330785 10.0423 0.115727
37 Ni -0.0369582 11.7552 4.94093
38 Ni -0.108386 14.5747 2.5158
39 Ni 1.7891 11.1798 1.45696
40 Ni 1.89177 13.162 3.55809
41 Al -0.030912 11.3252 7.46583
42 Al 1.92017 9.64547 8.86136
43 Al 1.86541 12.8885 5.97545
44 Ni -0.0357803 9.17379 5.06735
45 Ni -0.133779 10.8676 9.98171
46 Ni 0.0520606 13.7774 7.37499
47 Ni 1.98121 10.2957 6.3122
48 Ni 1.88557 12.3563 8.61521
49 Al 3.68158 2.00474 2.50687
50 Al 5.75808 0.484919 3.74505
51 Al 5.70535 3.7661 1.10441
52 Ni 3.6529 0.0203402 0.0134737
53 Ni 3.71322 1.69135 4.95262
54 Ni 3.68557 4.55765 2.41919
55 Ni 5.61175 1.30875 1.40565
56 Ni 5.69374 2.93983 3.60181
57 Al 3.74987 1.20244 7.38336
58 Al 5.58493 -0.372619 8.94617
59 Al 5.7025 2.90346 6.00124
60 Ni 3.69255 -0.749974 4.98554
61 Ni 3.70975 1.05829 9.92211
62 Ni 3.83443 3.92298 7.45883
63 Ni 5.73967 0.253472 6.54057
64 Ni 5.61891 2.3013 8.61783
65 Al 3.75321 7.03602 2.41247
66 Al 5.63096 5.31934 3.86989
67 Al 5.73896 8.69732 1.14872
68 Ni 3.76493 5.19669 -0.0404609
69 Ni 3.73912 6.65525 4.87768
70 Ni 3.70981 9.53132 2.43654
71 Ni 5.75872 6.28538 1.40493
72 Ni 5.61098 8.05038 3.49047
73 Al 3.84775 6.35696 7.39716
74 Al 5.80015 4.70437 8.86563
75 Al 5.75195 7.96256 6.20577
76 Ni 3.84392 4.14572 4.98726
77 Ni 3.75786 6.02565 9.9324
78 Ni 3.77326 8.82358 7.47494
79 Ni 5.67069 5.39162 6.27153
80 Ni 5.75513 7.2638 8.59125
81 Al 3.81465 12.0379 2.56282
82 Al 5.78052 10.4592 3.88855
83 Al 5.6948 13.813 1.18875
84 Ni 3.7917 9.97101 0.0626736
85 Ni 3.85436 11.7753 4.96082
86 Ni 3.73003 14.6056 2.50468
87 Ni 5.65492 11.1409 1.37072
88 Ni 5.64771 13.1261 3.62868
89 Al 3.82976 11.3436 7.4512
90 Al 5.67401 9.68978 8.82063
91 Al 5.71777 12.9739 6.01251
92 Ni 3.91774 9.28658 4.98304
93 Ni 3.72605 11.0397 10.0046
94 Ni 3.62009 13.8592 7.41857
95 Ni 5.78604 10.4271 6.22434
96 Ni 5.64791 12.2767 8.49786
97 Al 7.6389 2.17507 2.52166
98 Al 9.44506 0.424081 3.98951
99 Al 9.4834 3.61408 1.16016
100 Ni 7.62952 -0.00621283 0.010309
101 Ni 7.68923 1.722 5.07899
102 Ni 7.68013 4.67395 2.51383
103 Ni 9.47489 1.17124 1.34597
104 Ni 9.53465 2.95785 3.59
105 Al 7.66579 1.48377 7.53552
106 Al 9.51243 -0.325264 8.78146
107 Al 9.63838 2.88925 6.14784
108 Ni 7.58072 -0.730155 4.96254
109 Ni 7.58287 0.884448 9.94213
110 Ni 7.6019 3.92119 7.32591
111 Ni 9.46985 0.301422 6.41763
112 Ni 9.53246 2.22092 8.51899
113 Al 7.60891 7.07042 2.50806
114 Al 9.43747 5.53735 3.82471
115 Al 9.60163 8.72459 1.09795
116 Ni 7.63778 5.02072 -0.00890096
117 Ni 7.46679 6.58196 4.94589
118 Ni 7.51892 9.51114 2.46781
119 Ni 9.59932 6.12887 1.40605
120 Ni 9.51023 8.13654 3.63926
121 Al 7.57905 6.22899 7.43866
122 Al 9.66151 4.71305 8.86545
123 Al 9.49903 8.0451 6.13191
124 Ni 7.48286 4.17781 4.87244
125 Ni 7.65301 5.94742 9.83696
126 Ni 7.70217 8.89881 7.55641
127 Ni 9.43569 5.41686 6.20239
128 Ni 9.46528 7.25434 8.621
129 Al 7.56639 12.1057 2.4849
130 Al 9.45362 10.5989 3.90508
131 Al 9.4821 13.7673 1.05674
132 Ni 7.70479 10.0097 0.0104279
133 Ni 7.60045 11.7747 4.92183
134 Ni 7.64473 14.6311 2.47949
135 Ni 9.47893 11.2185 1.40914
136 Ni 9.51902 13.0047 3.53385
137 Al 7.73201 11.5118 7.38579
138 Al 9.49244 9.74946 8.76926
139 Al 9.601 13.1089 6.01293
140 Ni 7.61112 9.14296 4.90297
141 Ni 7.55599 10.8535 9.93731
142 Ni 7.62328 13.8932 7.42477
143 Ni 9.54095 10.4377 6.41034
144 Ni 9.61423 12.3596 8.45621
ITEM: TIMESTEP
500
ITEM: NUMBER OF ATOMS
144
ITEM: BOX BOUNDS xy xz yz pp pp pp
-4.7351141567425509e-02 1.1489314296761581e+01 5.6374043912416218e-02
-1.6009379416561618e+00 1.5017845452515427e+01 -9.4708870657369826e-03
6.6003366390807727e-03 9.8961178441009103e+00 -1.5935909123579932e+00
ITEM: ATOMS id element xu yu zu
1 Al 0.0521298 2.06475 2.63507
2 Al 1.92681 0.420953 3.93756
3 Al 1.79256 3.70861 1.05308
4 Ni -0.0150524 0.011415 -0.096428
5 Ni -0.0530989 1.79852 5.02774
6 Ni -0.0282427 4.59851 2.43311
7 Ni 1.88896 1.12054 1.41611
8 Ni 1.92045 2.99622 3.53326
9 Al -0.0495778 1.15837 7.51494
10 Al 1.81498 -0.346039 8.92974
11 Al 1.85334 2.98919 6.00942
12 Ni -0.204528 -0.757463 4.87067
13 Ni -0.203042 0.854523 9.94478
14 Ni -0.128025 3.67002 7.45079
15 Ni 1.93852 0.295662 6.32892
16 Ni 1.83956 2.32741 8.49497
17 Al -0.143222 7.13878 2.48435
18 Al 1.95928 5.51071 3.80843
19 Al 1.91568 8.70627 1.0848
20 Ni -0.0774232 5.05563 0.0528558
21 Ni -0.015317 6.75605 4.97353
22 Ni 0.0752145 9.6659 2.56566
23 Ni 1.82524 6.18372 1.43037
24 Ni 1.84573 8.09451 3.55197
25 Al 0.0468172 6.1899 7.47037
26 Al 1.83593 4.58782 8.83709
27 Al 1.83665 7.92976 6.15442
28 Ni -0.000481748 4.22198 4.92517
29 Ni -0.0779375 5.84232 9.88549
30 Ni 0.07455 8.70946 7.47512
31 Ni 1.88576 5.41279 6.24995
32 Ni 1.93874 7.19662 8.62361
33 Al -0.0490922 12.1951 2.52938
34 Al 1.9368 10.5639 3.92262
35 Al 2.04603 13.7379 1.07407
36 Ni -0.0199145 9.96333 0.0970272
37 Ni -0.0411869 11.7952 4.98626
38 Ni 0.0275107 14.6908 2.41304
39 Ni 1.86328 11.127 1.49302
40 Ni 1.91857 13.0353 3.57847
41 Al -0.110862 11.3084 7.41786
42 Al 1.86905 9.67131 8.81198
43 Al 1.89193 12.8975 6.06351
44 Ni 0.00779894 9.20304 5.0093
45 Ni 0.0684823 10.9678 9.83029
46 Ni -0.130155 13.7839 7.30427
47 Ni 1.8818 10.3237 6.4256
48 Ni 1.94736 12.2665 8.45563
49 Al 3.84756 1.97144 2.49417
50 Al 5.7671 0.351611 3.79392
51 Al 5.72036 3.55295 1.002
52 Ni 3.8531 0.0105238 0.0544134
53 Ni 3.81697 1.74401 4.91249
54 Ni 3.79379 4.60042 2.5489
55 Ni 5.80535 1.03722 1.4033
56 Ni 5.66741 3.08175 3.61443
57 Al 3.74557 1.26456 7.34523
58 Al 5.65333 -0.264235 8.85379
59 Al 5.68261 3.1062 5.99868
60 Ni 3.8424 -0.820084 4.90044
61 Ni 3.75042 0.881097 9.92657
62 Ni 3.58774 3.78412 7.39774
63 Ni 5.64838 0.552372 6.26836
64 Ni 5.60745 2.23839 8.54118
65 Al 3.84527 7.09742 2.42951
66 Al 5.79309 5.36643 3.94388
67 Al 5.73856 8.72444 1.16815
68 Ni 3.70425 4.86707 0.0843511
69 Ni 3.89006 6.73137 4.95118
70 Ni 3.7884 9.5865 2.55035
71 Ni 5.73474 6.11897 1.20669
72 Ni 5.77241 8.03689 3.61135
73 Al 3.87683 6.1943 7.35382
74 Al 5.66611 4.68947 8.72507
75 Al 5.66951 7.97085 6.10063
76 Ni 3.73368 4.2947 4.97651
77 Ni 3.79615 5.91469 9.84067
78 Ni 3.74585 8.76656 7.43873
79 Ni 5.81521 5.45965 6.28867
80 Ni 5.58972 7.30717 8.48866
81 Al 3.86323 12.1332 2.50933
82 Al 5.73897 10.477 3.97522
83 Al 5.78153 13.6833 1.20808
84 Ni 3.78665 10.1517 0.0369319
85 Ni 3.83506 11.6921 4.96695
86 Ni 3.84546 14.6104 2.44399
87 Ni 5.76617 11.278 1.35397
88 Ni 5.77186 13.0005 3.5524
89 Al 3.83529 11.2546 7.57435
90 Al 5.77541 9.61137 8.84882
91 Al 5.77498 12.9479 6.03861
92 Ni 3.66427 9.21072 4.97558
93 Ni 3.86245 10.9617 9.88596
94 Ni 3.93095 13.7585 7.41931
95 Ni 5.63582 10.3907 6.38892
96 Ni 5.7313 12.3001 8.58723
97 Al 7.61964 2.14414 2.64918
98 Al 9.43004 0.607842 3.89974
99 Al 9.43241 3.76612 1.17279
100 Ni 7.61027 0.0130856 0.000788593
101 Ni 7.44582 1.67643 5.01361
102 Ni 7.5533 4.49062 2.37658
103 Ni 9.53493 1.13864 1.43859
104 Ni 9.53776 3.09567 3.62639
105 Al 7.60467 1.32963 7.59848
106 Al 9.43652 -0.480915 8.7691
107 Al 9.46887 2.89708 6.10212
108 Ni 7.57915 -0.822612 5.02905
109 Ni 7.70131 0.876331 10.0805
110 Ni 7.54057 3.84128 7.39532
111 Ni 9.40307 0.44865 6.30992
112 Ni 9.52199 2.22855 8.50754
113 Al 7.56712 7.03204 2.52227
114 Al 9.47951 5.55559 3.83522
115 Al 9.56877 8.71589 1.01439
116 Ni 7.51531 4.9802 -0.217845
117 Ni 7.71906 6.86163 4.95872
118 Ni 7.70958 9.7519 2.64208
119 Ni 9.45157 6.28432 1.33499
120 Ni 9.50767 7.95547 3.61971
121 Al 7.56544 6.29215 7.51225
122 Al 9.5166 4.77826 8.75844
123 Al 9.55467 8.01922 6.13538
124 Ni 7.64513 4.30843 4.8986
125 Ni 7.57915 5.8845 9.97035
126 Ni 7.52719 8.84957 7.42425
127 Ni 9.53179 5.4336 6.41256
128 Ni 9.62044 7.24936 8.48862
129 Al 7.72367 12.1301 2.48783
130 Al 9.55806 10.5109 3.93729
131 Al 9.54872 13.7252 1.13446
132 Ni 7.57444 9.99565 0.0382366
133 Ni 7.58711 11.6612 4.97576
134 Ni 7.64294 14.6101 2.55473
135 Ni 9.63467 11.167 1.45103
136 Ni 9.54419 13.1659 3.60636
137 Al 7.65759 11.3553 7.43871
138 Al 9.49624 9.61879 8.78035
139 Al 9.46388 12.9784 6.07898
140 Ni 7.547 9.32914 5.02204
141 Ni 7.6907 10.9397 9.90952
142 Ni 7.68332 13.8526 7.43167
143 Ni 9.46037 10.363 6.35771
144 Ni 9.53088 12.1516 8.53278
ITEM: TIMESTEP
600
ITEM: NUMBER OF ATOMS
144
ITEM: BOX BOUNDS xy xz yz pp pp pp
-5.9665051588314810e-02 1.1479071735508390e+01 8.5703964570078700e-03
-1.6434723814972727e+00 1.5057944129486279e+01 1.5776289115584648e-02
-2.6217100810594474e-02 9.9289352815505829e+00 -1.5960266752282555e+00
ITEM: ATOMS id element xu yu zu
1 Al -0.00903217 2.16263 2.49303
2 Al 1.93453 0.504511 3.89177
3 Al 1.91551 3.79344 1.07105
4 Ni -0.112758 -0.0120643 0.0900767
5 Ni -0.111276 1.70798 4.89332
6 Ni -0.107429 4.61033 2.45137
7 Ni 1.80251 1.13078 1.31158
8 Ni 1.8116 3.09881 3.61925
9 Al -0.0876367 1.31333 7.44647
10 Al 1.78851 -0.499305 8.92016
11 Al 1.93338 2.94994 6.11352
12 Ni 0.0980505 -0.828986 5.07881
13 Ni 0.055392 0.848463 9.97287
14 Ni -0.00590094 3.84671 7.32582
15 Ni 1.8254 0.481936 6.33993
16 Ni 1.78316 2.09934 8.60314
17 Al -0.061661 7.05472 2.4731
18 Al 1.92628 5.46515 3.82528
19 Al 1.83197 8.80318 1.09357
20 Ni -0.0306026 4.95043 -0.106097
21 Ni -0.0677314 6.76722 4.94798
22 Ni -0.173189 9.55204 2.30644
23 Ni 1.89292 6.20594 1.34854
24 Ni 1.88612 8.0043 3.61215
25 Al -0.118979 6.35583 7.52938
26 Al 1.76191 4.52525 8.7502
27 Al 1.76477 8.06996 6.18216
28 Ni -0.0826152 4.15426 4.94668
29 Ni -0.00310891 5.99058 10.062
30 Ni -0.129298 8.89453 7.38051
31 Ni 1.75355 5.30521 6.37326
32 Ni 1.82536 7.26186 8.52542
33 Al 0.003399 11.9579 2.56126
34 Al 1.93443 10.4438 3.81643
35 Al 1.86946 13.8441 1.21117
36 Ni 0.00868236 10.0746 -0.158058
37 Ni 0.0213581 11.7674 5.0557
38 Ni -0.0180072 14.6783 2.56585
39 Ni 1.97145 11.253 1.27563
40 Ni 1.84643 13.1066 3.60659
41 Al -0.0827417 11.3563 7.54705
42 Al 1.85526 9.79185 8.6881
43 Al 1.84764 12.9659 6.21872
44 Ni -0.138691 9.3235 4.91573
45 Ni -0.113349 10.9162 10.0242
46 Ni -0.0188526 13.787 7.5922
47 Ni 1.83771 10.4844 6.30605
48 Ni 1.80242 12.1793 8.61938
49 Al 3.78679 2.03772 2.50312
50 Al 5.66682 0.474119 3.91493
51 Al 5.73523 3.71282 0.945653
52 Ni 3.69961 -0.0970025 -0.0593871
53 Ni 3.71896 1.63939 5.04869
54 Ni 3.85871 4.65213 2.48473
55 Ni 5.62209 1.1377 1.28682
56 Ni 5.6949 3.09598 3.5824
57 Al 3.7338 1.28364 7.37828
58 Al 5.65084 -0.331868 8.81584
59 Al 5.7448 2.82765 6.0294
60 Ni 3.67574 -0.772858 5.04991
61 Ni 3.81604 0.765422 9.87207
62 Ni 3.85203 3.78983 7.42557
63 Ni 5.63395 0.208871 6.41626
64 Ni 5.70594 2.2127 8.5446
65 Al 3.78358 7.16874 2.48629
66 Al 5.73168 5.45441 3.95521
67 Al 5.69577 8.6104 1.13243
68 Ni 3.80895 4.98164 -0.127167
69 Ni 3.67076 6.74167 4.92143
70 Ni 3.79605 9.62594 2.54679
71 Ni 5.61953 6.1968 1.49317
72 Ni 5.66379 8.18061 3.64982
73 Al 3.73806 6.27911 7.49745
74 Al 5.78552 4.66982 8.88207
75 Al 5.59511 7.88243 6.14716
76 Ni 3.80952 4.22598 4.90486
77 Ni 3.77866 5.84928 10.0532
78 Ni 3.79497 8.89645 7.49219
79 Ni 5.54286 5.28182 6.35514
80 Ni 5.77715 7.22411 8.6252
81 Al 3.82985 12.2127 2.47465
82 Al 5.81766 10.6989 3.92923
83 Al 5.67438 13.764 1.10399
84 Ni 3.80109 9.89384 -0.0295231
85 Ni 3.69185 11.7827 4.95427
86 Ni 3.82582 14.6544 2.45727
87 Ni 5.71942 11.1522 1.43169
88 Ni 5.67485 13.1903 3.56903
89 Al 3.79087 11.3647 7.59039
90 Al 5.73775 9.57823 8.86805
91 Al 5.71558 12.8618 6.0781
92 Ni 3.86911 9.26043 4.98386
93 Ni 3.74706 10.8767 9.97614
94 Ni 3.71232 13.9968 7.52699
95 Ni 5.71693 10.3338 6.29257
96 Ni 5.67528 12.3309 8.54775
97 Al 7.51826 2.09023 2.40009
98 Al 9.55211 0.441861 3.89023
99 Al 9.4687 3.63126 1.07858
100 Ni 7.62983 -0.119695 0.00346441
101 Ni 7.7236 1.79902 4.86005
102 Ni 7.61896 4.72898 2.56282
103 Ni 9.57472 1.17369 1.34101
104 Ni 9.44717 3.0215 3.46488
105 Al 7.5977 1.19146 7.29192
106 Al 9.51582 -0.406317 8.9152
107 Al 9.5766 2.88034 6.01506
108 Ni 7.59896 -0.721689 4.82552
109 Ni 7.49323 0.953037 9.72797
110 Ni 7.63243 3.72299 7.48971
111 Ni 9.59734 0.19054 6.37625
112 Ni 9.47918 2.20093 8.52999
113 Al 7.56825 7.17445 2.52548
114 Al 9.45065 5.57216 3.85351
115 Al 9.48977 8.63511 1.03075
116 Ni 7.61888 4.98318 0.126654
117 Ni 7.51685 6.62872 5.0204
118 Ni 7.52214 9.55837 2.37118
119 Ni 9.56076 6.11653 1.45328
120 Ni 9.61406 8.17811 3.46243
121 Al 7.61337 6.24201 7.37873
122 Al 9.47658 4.72919 8.77074
123 Al 9.50759 7.93774 5.99933
124 Ni 7.52677 4.20025 4.90671
125 Ni 7.60336 5.82487 9.90854
126 Ni 7.68938 8.80648 7.46728
127 Ni 9.54047 5.30924 6.30112
128 Ni 9.53901 7.21271 8.73059
129 Al 7.59212 12.1856 2.46565
130 Al 9.41269 10.5977 3.88112
131 Al 9.55719 13.681 1.11751
132 Ni 7.62816 10.0177 -0.0259995
133 Ni 7.66207 11.8049 4.92562
134 Ni 7.66209 14.6836 2.36425
135 Ni 9.48665 11.2299 1.34509
136 Ni 9.57811 13.0642 3.62466
137 Al 7.65802 11.2712 7.53698
138 Al 9.4734 9.63405 8.8188
139 Al 9.48184 12.9914 6.18133
140 Ni 7.67413 9.23723 4.9733
141 Ni 7.62044 10.9143 9.95727
142 Ni 7.56261 13.7944 7.4711
143 Ni 9.60924 10.4161 6.37733
144 Ni 9.54405 12.3666 8.54068
ITEM: TIMESTEP
700
ITEM: NUMBER OF ATOMS
144
ITEM: BOX BOUNDS xy xz yz pp pp pp
-6.5932513627427497e-02 1.1439294914069885e+01 -4.1275830005099629e-02
-1.5684819455144168e+00 1.5024119448724782e+01 1.9578232100072115e-02
1.0581029392607633e-02 9.8921371513473773e+00 -1.5548609200068992e+00
ITEM: ATOMS id element xu yu zu
1 Al -0.108451 2.09769 2.42976
2 Al 1.93856 0.519467 3.97226
3 Al 1.82048 3.70077 1.07388
4 Ni 0.0155606 -0.0450407 0.0578527
5 Ni -0.0124084 1.6277 4.95118
6 Ni -0.00135421 4.60392 2.47049
7 Ni 1.90858 1.13092 1.46916
8 Ni 1.82275 3.00887 3.50275
9 Al 0.0603406 1.51791 7.38095
10 Al 1.84875 -0.144794 8.94432
11 Al 1.82067 2.989 5.98313
12 Ni -0.128599 -0.770437 4.9598
13 Ni -0.138748 0.908718 9.86337
14 Ni -0.0445754 3.86218 7.56593
15 Ni 1.92835 0.321111 6.40565
16 Ni 1.91318 2.52983 8.46265
17 Al 0.0116908 7.17608 2.47426
18 Al 1.86617 5.51306 3.91632
19 Al 1.80387 8.62339 1.0687
20 Ni 0.0302158 4.96212 0.0627447
21 Ni -0.0585688 6.70387 5.03174
22 Ni 0.104005 9.63283 2.51628
23 Ni 1.88384 6.07404 1.41109
24 Ni 1.87034 8.17553 3.59005
25 Al -0.0886996 6.32669 7.44591
26 Al 1.75966 4.85901 8.7355
27 Al 1.80486 7.92343 6.15088
28 Ni -0.0918264 4.23518 5.03989
29 Ni -0.0534682 6.00488 9.78568
30 Ni -0.0290901 8.79926 7.38803
31 Ni 1.97622 5.4681 6.36974
32 Ni 1.84408 7.28197 8.48768
33 Al -0.0912328 12.2196 2.44872
34 Al 1.95218 10.6266 3.86514
35 Al 1.85377 13.8741 1.22672
36 Ni -0.219584 9.96151 0.0722685
37 Ni -0.113634 11.737 4.8853
38 Ni -0.116774 14.6113 2.52552
39 Ni 1.70463 11.1252 1.49234
40 Ni 1.80557 13.04 3.59013
41 Al 0.00738139 11.3819 7.42895
42 Al 1.84481 9.84325 8.82369
43 Al 1.73436 12.9334 6.02042
44 Ni -0.00469221 9.11347 4.92852
45 Ni -0.0478809 10.9237 9.85204
46 Ni -0.0520878 14.0051 7.43515
47 Ni 1.81905 10.3385 6.30448
48 Ni 1.9082 12.3447 8.55891
49 Al 3.86673 2.16613 2.48478
50 Al 5.5887 0.459251 3.91118
51 Al 5.75737 3.79077 1.00055
52 Ni 3.76426 -0.00333662 0.118096
53 Ni 3.78404 1.72192 4.90107
54 Ni 3.56881 4.70034 2.50008
55 Ni 5.62636 1.24561 1.4053
56 Ni 5.78641 3.06721 3.52816
57 Al 3.79087 1.29636 7.33571
58 Al 5.63617 -0.264449 8.7627
59 Al 5.6919 3.02168 6.08952
60 Ni 3.79964 -0.769172 4.90167
61 Ni 3.73366 0.965592 9.99378
62 Ni 3.72697 3.84591 7.45898
63 Ni 5.66344 0.478972 6.25774
64 Ni 5.82938 2.18406 8.54971
65 Al 3.7441 7.14548 2.47892
66 Al 5.74027 5.38203 3.86165
67 Al 5.74564 8.75652 1.12998
68 Ni 3.72438 5.052 0.0883138
69 Ni 3.86094 6.70365 5.1241
70 Ni 3.72175 9.59937 2.39451
71 Ni 5.70271 6.23338 1.36648
72 Ni 5.66806 7.94004 3.50566
73 Al 3.83326 6.34764 7.47958
74 Al 5.70281 4.6893 8.75058
75 Al 5.65482 8.01798 6.00019
76 Ni 3.69837 4.20089 4.99348
77 Ni 3.89578 6.01358 9.92846
78 Ni 3.73971 8.83669 7.374
79 Ni 5.83499 5.46105 6.34941
80 Ni 5.74418 7.21627 8.56198
81 Al 3.71368 12.3044 2.41921
82 Al 5.62401 10.5838 3.82583
83 Al 5.64191 13.8352 1.19431
84 Ni 3.75923 10.031 -0.00905886
85 Ni 3.8183 11.7314 4.9532
86 Ni 3.6515 14.7522 2.6296
87 Ni 5.63386 11.2734 1.36828
88 Ni 5.62492 13.1346 3.62426
89 Al 3.72043 11.3558 7.4484
90 Al 5.67732 9.59635 8.70702
91 Al 5.65225 12.9603 6.18035
92 Ni 3.69636 9.27083 4.92723
93 Ni 3.78446 10.9281 9.87532
94 Ni 3.73392 13.6962 7.43038
95 Ni 5.65028 10.4423 6.32555
96 Ni 5.68828 12.183 8.52536
97 Al 7.59172 2.08122 2.50325
98 Al 9.40364 0.512526 3.78296
99 Al 9.46537 3.80131 1.12855
100 Ni 7.53408 0.0352813 0.0428104
101 Ni 7.5431 1.62359 4.81049
102 Ni 7.58439 4.50893 2.54242
103 Ni 9.4314 1.11791 1.32692
104 Ni 9.52292 3.05205 3.60913
105 Al 7.56544 1.23464 7.3553
106 Al 9.52276 -0.402472 8.78559
107 Al 9.47656 2.98603 5.95325
108 Ni 7.61565 -0.844868 5.08583
109 Ni 7.66048 0.926799 9.91636
110 Ni 7.58278 3.77333 7.42965
111 Ni 9.60438 0.51913 6.26213
112 Ni 9.46865 2.22649 8.43436
113 Al 7.54634 7.15217 2.45857
114 Al 9.43993 5.48569 3.79171
115 Al 9.50806 8.74883 1.11634
116 Ni 7.56442 4.94495 0.00530112
117 Ni 7.62861 6.75891 4.9554
118 Ni 7.59417 9.7023 2.61284
119 Ni 9.43632 6.21944 1.41438
120 Ni 9.403 7.9345 3.71183
121 Al 7.6551 6.27475 7.40136
122 Al 9.34437 4.74187 8.7643
123 Al 9.43693 7.97617 6.0431
124 Ni 7.64802 4.27925 5.0618
125 Ni 7.64901 6.05049 9.94723
126 Ni 7.57639 8.76746 7.44052
127 Ni 9.49544 5.36505 6.41107
128 Ni 9.41241 7.35983 8.30595
129 Al 7.47798 12.1172 2.54671
130 Al 9.53301 10.4539 3.88362
131 Al 9.32342 13.6961 1.16496
132 Ni 7.58532 10.0488 -0.0021699
133 Ni 7.54609 11.7067 4.99853
134 Ni 7.46403 14.6784 2.61264
135 Ni 9.43198 11.2303 1.42043
136 Ni 9.41888 13.0417 3.57444
137 Al 7.50909 11.2525 7.50486
138 Al 9.45739 9.63539 8.79906
139 Al 9.4603 12.9666 6.17714
140 Ni 7.45997 9.28725 4.92275
141 Ni 7.57675 10.9902 9.96102
142 Ni 7.62448 13.8029 7.40821
143 Ni 9.45052 10.3783 6.27363
144 Ni 9.52252 12.2386 8.65828
ITEM: TIMESTEP
800
ITEM: NUMBER OF ATOMS
144
ITEM: BOX BOUNDS xy xz yz pp pp pp
-9.7412407079603178e-02 1.1448846700196983e+01 -1.5998224219102016e-02
-1.5213330404744292e+00 1.5029333465880949e+01 -2.7627481011000311e-02
-2.3789422125212845e-02 9.9265076028651897e+00 -1.5024979978107440e+00
ITEM: ATOMS id element xu yu zu
1 Al -0.101343 2.22182 2.49107
2 Al 1.93103 0.537493 3.82273
3 Al 1.86913 3.90127 1.20894
4 Ni -0.118963 0.00492865 -0.126944
5 Ni -0.111153 1.7903 5.02219
6 Ni -0.118796 4.61973 2.55616
7 Ni 1.81892 1.16417 1.27557
8 Ni 1.81316 3.1056 3.69883
9 Al -0.1644 1.33583 7.37486
10 Al 1.81953 -0.313282 8.81022
11 Al 1.8187 2.88168 6.20792
12 Ni -0.0299542 -0.864803 4.92947
13 Ni -0.0417756 0.992387 9.96417
14 Ni 0.0128519 3.85472 7.44727
15 Ni 1.76562 0.434683 6.2462
16 Ni 1.76688 2.13611 8.64548
17 Al -0.134064 7.17334 2.46297
18 Al 1.89066 5.42064 3.79738
19 Al 1.77592 8.76242 1.15286
20 Ni -0.134164 5.01521 0.0577021
21 Ni -0.0776861 6.79396 4.88114
22 Ni -0.251649 9.68468 2.53263
23 Ni 1.71702 6.25808 1.45509
24 Ni 1.76807 7.97787 3.47392
25 Al -0.106304 6.45907 7.50602
26 Al 1.74084 4.72317 8.79986
27 Al 1.7953 8.0158 6.01117
28 Ni -0.00439044 4.23959 4.95144
29 Ni -0.0627357 5.95953 10.0651
30 Ni -0.100124 8.95285 7.54422
31 Ni 1.82803 5.37203 6.36199
32 Ni 1.87187 7.28496 8.54433
33 Al -0.0331402 12.1959 2.46577
34 Al 1.7215 10.4028 3.91685
35 Al 1.84086 13.9309 1.09588
36 Ni 0.0581704 10.0452 0.101205
37 Ni -0.135227 11.6844 5.02942
38 Ni -0.0194443 14.6394 2.36419
39 Ni 1.94971 11.3075 1.27406
40 Ni 1.85675 13.1222 3.48813
41 Al -0.116443 11.3838 7.50038
42 Al 1.88673 9.93951 8.76265
43 Al 1.74647 13.0058 5.97183
44 Ni -0.158854 9.25822 5.05736
45 Ni -0.12576 11.0926 9.97619
46 Ni -0.142667 13.7534 7.37132
47 Ni 1.81937 10.426 6.3627
48 Ni 1.80855 12.2831 8.43094
49 Al 3.74077 1.93626 2.41675
50 Al 5.61978 0.455334 3.95496
51 Al 5.80926 3.67131 1.08545
52 Ni 3.76611 0.05972 -0.0278112
53 Ni 3.71955 1.68558 5.03029
54 Ni 3.86755 4.48099 2.4656
55 Ni 5.72677 1.10437 1.43279
56 Ni 5.5401 2.94706 3.63075
57 Al 3.69422 1.33659 7.36202
58 Al 5.67613 -0.0840658 8.90768
59 Al 5.63837 2.88627 6.17793
60 Ni 3.73412 -0.753399 4.93721
61 Ni 3.78734 1.05139 9.93437
62 Ni 3.75738 3.8701 7.39732
63 Ni 5.61931 0.360507 6.41613
64 Ni 5.57582 2.4172 8.57759
65 Al 3.79333 7.12298 2.30462
66 Al 5.79835 5.50419 3.76084
67 Al 5.64285 8.70719 0.994234
68 Ni 3.83952 4.92745 0.04348
69 Ni 3.71069 6.74679 4.77341
70 Ni 3.73718 9.61374 2.46132
71 Ni 5.7318 6.1246 1.32944
72 Ni 5.73202 8.1308 3.63352
73 Al 3.60741 6.40695 7.31514
74 Al 5.5499 4.89368 8.74271
75 Al 5.69834 7.92192 6.09742
76 Ni 3.78238 4.24987 4.94943
77 Ni 3.70883 6.0656 9.93107
78 Ni 3.76311 8.87588 7.4098
79 Ni 5.54649 5.38977 6.28839
80 Ni 5.61775 7.46404 8.53944
81 Al 3.68943 12.1068 2.60613
82 Al 5.74506 10.5781 3.86099
83 Al 5.66811 13.6972 1.16719
84 Ni 3.76769 10.1364 -0.0441437
85 Ni 3.68025 11.6781 4.99721
86 Ni 3.7725 14.5415 2.35922
87 Ni 5.64009 11.2033 1.41597
88 Ni 5.64186 12.9656 3.60707
89 Al 3.71221 11.5565 7.40783
90 Al 5.60355 9.9432 8.70034
91 Al 5.56544 13.1026 6.06803
92 Ni 3.77637 9.25145 4.94733
93 Ni 3.71908 11.1654 9.93266
94 Ni 3.79094 14.0331 7.49749
95 Ni 5.64396 10.3943 6.30654
96 Ni 5.57826 12.4603 8.6179
97 Al 7.55655 2.15702 2.63471
98 Al 9.49219 0.503509 3.88331
99 Al 9.51214 3.79959 1.14683
100 Ni 7.65439 -0.0346545 0.050763
101 Ni 7.64265 1.81354 5.16336
102 Ni 7.63747 4.67607 2.31432
103 Ni 9.58102 1.19186 1.43046
104 Ni 9.49608 3.03672 3.64818
105 Al 7.57807 1.48386 7.59341
106 Al 9.46728 -0.214542 8.89447
107 Al 9.49214 3.04779 6.02701
108 Ni 7.53713 -0.739028 5.02374
109 Ni 7.49414 1.0304 9.99182
110 Ni 7.58422 3.93205 7.34855
111 Ni 9.38404 0.317606 6.46484
112 Ni 9.58326 2.32542 8.69263
113 Al 7.61634 7.23873 2.42974
114 Al 9.40385 5.46879 3.85894
115 Al 9.47509 8.76817 1.15485
116 Ni 7.62639 5.0299 -0.0892277
117 Ni 7.58059 6.73543 4.99224
118 Ni 7.54036 9.57997 2.43393
119 Ni 9.52233 6.20001 1.33982
120 Ni 9.52155 8.15498 3.49103
121 Al 7.63926 6.38304 7.4971
122 Al 9.43706 4.77416 8.68052
123 Al 9.49039 7.9779 6.14603
124 Ni 7.55452 4.18865 4.79857
125 Ni 7.4961 5.99056 9.93245
126 Ni 7.52815 9.01816 7.51256
127 Ni 9.52801 5.46043 6.33317
128 Ni 9.59413 7.24052 8.82254
129 Al 7.58917 12.141 2.42308
130 Al 9.42637 10.603 3.91599
131 Al 9.48256 13.7017 0.999743
132 Ni 7.55815 10.0015 -0.0259942
133 Ni 7.54811 11.7277 4.93019
134 Ni 7.70106 14.6275 2.37866
135 Ni 9.53124 11.1889 1.35846
136 Ni 9.5218 13.0818 3.6196
137 Al 7.36043 11.538 7.38816
138 Al 9.42349 9.74844 8.86862
139 Al 9.38527 12.8887 6.08665
140 Ni 7.69095 9.15652 4.99469
141 Ni 7.5195 11.0828 9.86731
142 Ni 7.48392 13.9388 7.51813
143 Ni 9.46709 10.4547 6.42945
144 Ni 9.3822 12.4221 8.4728
ITEM: TIMESTEP
900
ITEM: NUMBER OF ATOMS
144
ITEM: BOX BOUNDS xy xz yz pp pp pp
-4.0395081122737708e-02 1.1456032941959201e+01 4.3362447792113026e-02
-1.5223759595931419e+00 1.5055236631059211e+01 -2.2784585303135093e-02
-1.3806588372984763e-02 9.9165247691129643e+00 -1.4776377517511941e+00
ITEM: ATOMS id element xu yu zu
1 Al -0.0406665 2.12643 2.55767
2 Al 1.96311 0.382988 3.87828
3 Al 1.89579 3.76327 1.18023
4 Ni -0.0144878 -0.0690777 0.0629635
5 Ni 0.0201171 1.76208 5.03771
6 Ni 0.0467096 4.63952 2.43013
7 Ni 1.80452 1.07132 1.42855
8 Ni 1.94647 2.99691 3.52223
9 Al -0.0502557 1.39879 7.45424
10 Al 1.92269 -0.268379 8.94395
11 Al 1.81333 2.92656 6.11737
12 Ni -0.0467314 -0.793849 4.95182
13 Ni -0.0567246 1.02406 10.0214
14 Ni -0.120658 3.87518 7.42433
15 Ni 1.95267 0.402049 6.35953
16 Ni 1.83129 2.42358 8.50751
17 Al 0.0593066 7.21562 2.43066
18 Al 1.80417 5.4061 3.86696
19 Al 1.90458 8.68938 1.07808
20 Ni 0.0628502 5.05979 -0.0497296
21 Ni -0.0912282 6.74989 5.073
22 Ni 0.139226 9.52053 2.47325
23 Ni 1.93769 6.19322 1.28899
24 Ni 1.98239 8.1629 3.72529
25 Al -0.153626 6.40578 7.43768
26 Al 1.69901 4.9441 8.64106
27 Al 1.89587 8.008 6.12065
28 Ni -0.102864 4.17331 4.99036
29 Ni -0.0268343 6.14911 9.8632
30 Ni -0.0705894 8.85263 7.4106
31 Ni 1.86248 5.48653 6.24974
32 Ni 1.83505 7.39141 8.48658
33 Al -0.0176576 12.1904 2.48082
34 Al 1.87678 10.595 3.96637
35 Al 1.8549 13.7827 1.27589
36 Ni -0.140784 10.0099 -0.0388402
37 Ni 0.0694577 11.9042 4.96667
38 Ni -0.0829701 14.6869 2.48742
39 Ni 1.85715 11.1583 1.47675
40 Ni 1.94245 13.0695 3.62036
41 Al -0.00764135 11.454 7.35991
42 Al 1.86021 9.89498 8.90828
43 Al 1.89045 13.0336 6.0634
44 Ni 0.0442119 9.36579 4.96562
45 Ni -0.0172795 11.0038 9.87889
46 Ni 0.00111819 13.9721 7.40211
47 Ni 1.87822 10.4972 6.30002
48 Ni 1.86273 12.3778 8.62849
49 Al 3.82372 1.94339 2.46793
50 Al 5.6209 0.522857 3.9486
51 Al 5.69038 3.71926 1.06999
52 Ni 3.75743 -0.068383 0.0304011
53 Ni 3.76695 1.64774 4.99845
54 Ni 3.67677 4.65569 2.50181
55 Ni 5.73086 1.19055 1.38709
56 Ni 5.79853 3.1024 3.53566
57 Al 3.74419 1.35332 7.39377
58 Al 5.63453 -0.145435 8.85918
59 Al 5.61187 3.02445 6.13926
60 Ni 3.80436 -0.825308 5.02019
61 Ni 3.63878 1.00169 9.91766
62 Ni 3.76443 3.94738 7.47504
63 Ni 5.6604 0.483363 6.35863
64 Ni 5.60143 2.36928 8.53662
65 Al 3.67101 7.14189 2.46611
66 Al 5.73326 5.50746 3.88238
67 Al 5.73714 8.65717 1.03127
68 Ni 3.74867 5.08478 -0.0607238
69 Ni 3.79859 6.73476 5.09191
70 Ni 3.86032 9.60942 2.50196
71 Ni 5.64241 6.14953 1.37216
72 Ni 5.62169 7.97912 3.49932
73 Al 3.68464 6.33353 7.4151
74 Al 5.72245 4.82773 8.77458
75 Al 5.69563 8.01069 6.10727
76 Ni 3.73425 4.27862 4.99685
77 Ni 3.83712 6.06332 9.84799
78 Ni 3.75454 8.89714 7.54341
79 Ni 5.76154 5.52944 6.35212
80 Ni 5.63207 7.33192 8.54574
81 Al 3.81166 12.1589 2.49183
82 Al 5.6873 10.5562 3.83212
83 Al 5.7161 13.7913 1.04754
84 Ni 3.78504 9.9203 0.079175
85 Ni 3.90794 11.8695 4.84293
86 Ni 3.8264 14.6834 2.4668
87 Ni 5.86206 11.1481 1.38633
88 Ni 5.74213 13.1997 3.46412
89 Al 3.77923 11.4682 7.56306
90 Al 5.74077 9.85846 8.73833
91 Al 5.69459 13.1914 6.06785
92 Ni 3.74956 9.2358 4.95998
93 Ni 3.83386 11.0032 9.96171
94 Ni 3.77282 13.8999 7.39717
95 Ni 5.69139 10.5205 6.36845
96 Ni 5.74588 12.4375 8.45788
97 Al 7.62838 2.12972 2.53249
98 Al 9.44436 0.526851 3.85634
99 Al 9.58369 3.89388 1.11032
100 Ni 7.56447 -0.0618271 -0.0410937
101 Ni 7.53204 1.67454 4.99057
102 Ni 7.52997 4.49518 2.50908
103 Ni 9.51332 1.10862 1.46595
104 Ni 9.541 3.07999 3.61905
105 Al 7.59007 1.40008 7.57431
106 Al 9.51538 -0.22082 8.84202
107 Al 9.39903 2.90517 6.04754
108 Ni 7.56347 -0.873173 4.87309
109 Ni 7.68318 1.04027 10.0968
110 Ni 7.63827 3.95362 7.48907
111 Ni 9.48046 0.513517 6.37367
112 Ni 9.48455 2.34274 8.56686
113 Al 7.64697 7.11315 2.47444
114 Al 9.49383 5.44668 3.85644
115 Al 9.50276 8.75407 1.13536
116 Ni 7.63008 4.94887 0.0395748
117 Ni 7.51727 6.75604 4.93823
118 Ni 7.65779 9.66148 2.50494
119 Ni 9.51806 6.15125 1.42964
120 Ni 9.43295 8.06499 3.71385
121 Al 7.5612 6.3639 7.50142
122 Al 9.49528 4.8257 8.78946
123 Al 9.44706 8.04543 6.03877
124 Ni 7.67458 4.18357 4.9869
125 Ni 7.65638 6.03165 9.91299
126 Ni 7.53451 8.89419 7.40328
127 Ni 9.34275 5.4183 6.34307
128 Ni 9.4618 7.45279 8.36775
129 Al 7.62703 12.1942 2.4698
130 Al 9.49151 10.5501 3.82824
131 Al 9.45239 13.8144 1.01673
132 Ni 7.69849 9.9608 0.0548719
133 Ni 7.58458 11.7899 4.9269
134 Ni 7.60572 14.7018 2.505
135 Ni 9.48758 11.2023 1.39364
136 Ni 9.45984 13.1549 3.42532
137 Al 7.59169 11.511 7.34553
138 Al 9.45381 9.9103 8.72588
139 Al 9.50783 13.0036 6.00921
140 Ni 7.46323 9.36108 4.98941
141 Ni 7.68356 11.0182 9.9624
142 Ni 7.59368 14.0148 7.41281
143 Ni 9.51524 10.5149 6.27508
144 Ni 9.59393 12.4013 8.56269
ITEM: TIMESTEP
1000
ITEM: NUMBER OF ATOMS
144
ITEM: BOX BOUNDS xy xz yz pp pp pp
-7.6889244422204683e-03 1.1483574152459742e+01 3.1359025384342744e-02
-1.4413104036263207e+00 1.5004315129390729e+01 4.9466204285708852e-02
-1.8951061971741012e-02 9.9216692427117152e+00 -1.4474936974528421e+00
ITEM: ATOMS id element xu yu zu
1 Al 0.0180737 2.03255 2.43815
2 Al 1.95951 0.581077 3.95805
3 Al 1.83165 3.65893 1.18703
4 Ni 0.0104512 0.0177984 0.0844468
5 Ni -0.109935 1.81921 4.94367
6 Ni -0.111516 4.54588 2.45527
7 Ni 2.0089 1.16477 1.40641
8 Ni 1.8003 3.20242 3.57432
9 Al -0.0387295 1.51638 7.4405
10 Al 2.09797 -0.115068 8.93915
11 Al 1.77924 2.99202 6.08907
12 Ni 0.0301121 -0.694439 5.04449
13 Ni -0.0087878 1.03792 9.8077
14 Ni 0.090576 3.97915 7.50353
15 Ni 1.86121 0.522591 6.42353
16 Ni 1.95717 2.35597 8.49315
17 Al -0.120215 7.21479 2.32694
18 Al 1.94049 5.52831 3.88178
19 Al 1.87315 8.66655 1.08676
20 Ni -0.161049 4.87579 0.0154128
21 Ni 0.0513795 6.84595 4.92614
22 Ni -0.0252228 9.74485 2.41445
23 Ni 1.88148 6.07027 1.43134
24 Ni 1.77558 8.13844 3.43506
25 Al -0.00505524 6.47008 7.56677
26 Al 1.96131 4.82383 8.88227
27 Al 1.97112 8.03969 5.97884
28 Ni 0.0614923 4.49734 4.89206
29 Ni 0.0647425 5.95901 9.92723
30 Ni 0.0479267 8.96168 7.41454
31 Ni 1.99821 5.56771 6.49548
32 Ni 1.83271 7.31921 8.58789
33 Al 0.0211341 12.1417 2.48638
34 Al 1.8268 10.5322 3.94842
35 Al 1.91149 13.7377 1.09465
36 Ni 0.0778645 10.0237 -0.0411056
37 Ni 0.0268563 11.7103 4.9248
38 Ni 0.1491 14.5622 2.52561
39 Ni 1.92571 11.1322 1.27069
40 Ni 1.92435 13.1785 3.57899
41 Al -0.0197648 11.5451 7.42644
42 Al 1.91052 9.83445 8.78999
43 Al 1.92837 13.0316 6.05107
44 Ni -0.00418873 9.22101 4.81613
45 Ni 0.0770628 11.1119 10.0075
46 Ni 0.10329 13.9842 7.58009
47 Ni 1.9609 10.4579 6.33867
48 Ni 2.03567 12.4314 8.48581
49 Al 3.71553 2.07765 2.52509
50 Al 5.66811 0.622487 3.82694
51 Al 5.78331 3.75004 1.18326
52 Ni 3.79612 -0.0162618 0.0365885
53 Ni 3.83904 1.90649 4.91552
54 Ni 3.78373 4.67864 2.41027
55 Ni 5.56823 1.16106 1.33769
56 Ni 5.62375 3.07641 3.59195
57 Al 3.84228 1.42977 7.31733
58 Al 5.8238 -0.294776 8.69902
59 Al 5.67924 2.92698 6.15307
60 Ni 3.77825 -0.637609 4.97418
61 Ni 4.00799 0.919519 9.93249
62 Ni 3.8456 3.91313 7.4453
63 Ni 5.66932 0.413668 6.25945
64 Ni 5.88558 2.28134 8.51489
65 Al 3.83135 7.17957 2.49692
66 Al 5.69775 5.61593 3.90747
67 Al 5.64252 8.72604 1.12509
68 Ni 3.80378 4.90227 0.0555175
69 Ni 3.80555 6.89742 4.90274
70 Ni 3.74793 9.60086 2.48209
71 Ni 5.75478 6.17872 1.45244
72 Ni 5.78769 8.1615 3.69921
73 Al 3.83837 6.45469 7.60649
74 Al 5.70302 4.76597 8.91146
75 Al 5.84009 8.00275 6.1962
76 Ni 3.81193 4.3597 4.89758
77 Ni 3.83065 5.98893 10.1131
78 Ni 3.85747 9.01631 7.39139
79 Ni 5.60569 5.47312 6.39085
80 Ni 5.81369 7.36587 8.62477
81 Al 3.72424 12.2006 2.54739
82 Al 5.69831 10.5795 3.85891
83 Al 5.67225 13.7724 1.1577
84 Ni 3.80523 9.94018 -0.0609333
85 Ni 3.73421 11.8391 5.0569
86 Ni 3.79589 14.6665 2.55094
87 Ni 5.58755 11.2501 1.35818
88 Ni 5.69525 12.9695 3.70339
89 Al 3.89274 11.4084 7.55279
90 Al 5.73767 9.80858 8.73873
91 Al 5.72018 13.062 6.14303
92 Ni 3.83115 9.35665 5.00403
93 Ni 3.83034 11.0509 9.78982
94 Ni 3.85769 14.0076 7.50795
95 Ni 5.83378 10.4916 6.36569
96 Ni 5.75303 12.2302 8.59012
97 Al 7.51815 2.21099 2.37438
98 Al 9.43341 0.517958 3.75877
99 Al 9.43783 3.75445 1.06406
100 Ni 7.61791 0.0156744 -0.0625227
101 Ni 7.61967 1.84394 4.87643
102 Ni 7.68789 4.70584 2.57356
103 Ni 9.42894 1.17585 1.29144
104 Ni 9.45974 3.08098 3.58628
105 Al 7.7234 1.32452 7.27225
106 Al 9.57441 -0.131077 8.73239
107 Al 9.47077 3.09091 6.04751
108 Ni 7.62662 -0.615712 5.03756
109 Ni 7.52941 1.00002 9.75257
110 Ni 7.53664 3.83952 7.5061
111 Ni 9.59564 0.504928 6.32944
112 Ni 9.46273 2.33725 8.56226
113 Al 7.6658 7.13134 2.57762
114 Al 9.57211 5.47347 3.9042
115 Al 9.39289 8.78769 1.05567
116 Ni 7.59332 5.01507 0.0654657
117 Ni 7.6631 6.8078 5.01397
118 Ni 7.60714 9.64672 2.42427
119 Ni 9.46382 6.17041 1.35177
120 Ni 9.53219 8.11204 3.40626
121 Al 7.59869 6.27834 7.41079
122 Al 9.43965 4.78549 8.75846
123 Al 9.6399 7.98534 6.05962
124 Ni 7.53055 4.42331 5.0435
125 Ni 7.52049 6.11755 9.93739
126 Ni 7.71899 8.95976 7.4297
127 Ni 9.66799 5.54274 6.34859
128 Ni 9.52958 7.2322 8.63622
129 Al 7.61789 12.1422 2.43246
130 Al 9.4273 10.5215 3.77081
131 Al 9.48651 13.7962 1.18444
132 Ni 7.50313 10.0622 -0.0221581
133 Ni 7.73046 11.7975 4.93999
134 Ni 7.63072 14.5804 2.4998
135 Ni 9.53014 11.1952 1.30839
136 Ni 9.61971 13.0412 3.73143
137 Al 7.69654 11.3919 7.45029
138 Al 9.64288 9.90674 8.843
139 Al 9.61843 12.9227 6.16113
140 Ni 7.78913 9.27441 4.90566
141 Ni 7.60848 11.0732 9.89899
142 Ni 7.74092 13.8213 7.44017
143 Ni 9.52209 10.4836 6.32691
144 Ni 9.51694 12.3713 8.60219
ITEM: TIMESTEP
1100
ITEM: NUMBER OF ATOMS
144
ITEM: BOX BOUNDS xy xz yz pp pp pp
-1.3192338689641314e-01 1.1499016188742251e+01 -6.0623890980245690e-02
-1.5328467496332867e+00 1.5065086884187773e+01 3.2656694478620622e-02
-2.3741135440876526e-02 9.9264593161808534e+00 -1.4782582886627655e+00
ITEM: ATOMS id element xu yu zu
1 Al -0.0479161 2.21964 2.4794
2 Al 1.9087 0.455868 3.68879
3 Al 1.81028 3.76203 1.24404
4 Ni -0.139507 -0.136491 -0.0724417
5 Ni 0.0323457 1.72419 4.86589
6 Ni -0.0454801 4.65326 2.5842
7 Ni 1.76809 1.16672 1.30718
8 Ni 1.86786 3.01866 3.53306
9 Al -0.104055 1.33379 7.409
10 Al 1.92024 -0.322173 8.80161
11 Al 1.76848 2.91714 6.14148
12 Ni -0.0672753 -0.713002 4.89111
13 Ni -0.149634 1.00233 9.92808
14 Ni -0.14202 3.95476 7.49582
15 Ni 1.85116 0.513423 6.24473
16 Ni 1.78165 2.23812 8.51661
17 Al -0.164606 7.1502 2.47774
18 Al 1.84814 5.33236 3.86245
19 Al 1.79329 8.71678 1.08464
20 Ni 0.0029676 5.01387 0.0144092
21 Ni -0.132755 6.75516 4.96356
22 Ni -0.152919 9.5334 2.50088
23 Ni 1.87985 6.21962 1.39861
24 Ni 1.85605 8.04731 3.69588
25 Al -0.0611133 6.41309 7.53187
26 Al 1.84268 4.82329 8.82673
27 Al 1.85967 8.05553 6.06289
28 Ni -0.120331 4.17129 5.02234
29 Ni -0.0985303 6.01044 9.92231
30 Ni -0.0987182 8.94138 7.5002
31 Ni 1.79427 5.43507 6.27455
32 Ni 1.89131 7.42313 8.51045
33 Al -0.18271 12.2121 2.56113
34 Al 1.7132 10.5796 3.84945
35 Al 1.66403 13.8296 1.10825
36 Ni -0.149126 9.95934 -0.0625162
37 Ni -0.133295 11.9449 5.06407
38 Ni -0.240306 14.8404 2.46153
39 Ni 1.79738 11.2746 1.32607
40 Ni 1.79253 13.1768 3.60712
41 Al -0.0896051 11.4954 7.47447
42 Al 1.7986 9.72524 8.85118
43 Al 1.83546 13.0605 6.11358
44 Ni -0.0374766 9.41387 5.07808
45 Ni -0.0868129 10.9081 9.85652
46 Ni -0.258791 13.9688 7.41721
47 Ni 1.78405 10.567 6.27037
48 Ni 1.79998 12.31 8.65195
49 Al 3.76048 1.98681 2.46099
50 Al 5.62214 0.663522 3.93993
51 Al 5.69678 3.66172 1.09774
52 Ni 3.77928 -0.0617257 -0.084837
53 Ni 3.73245 1.6656 5.0173
54 Ni 3.85328 4.6392 2.57262
55 Ni 5.74286 1.10055 1.42425
56 Ni 5.77609 3.11768 3.52223
57 Al 3.70221 1.27526 7.38464
58 Al 5.75109 -0.21163 8.93337
59 Al 5.65129 2.89583 6.0669
60 Ni 3.7354 -0.786911 4.9276
61 Ni 3.60455 0.983773 9.93173
62 Ni 3.76971 3.90167 7.40933
63 Ni 5.64344 0.441828 6.41384
64 Ni 5.59149 2.3527 8.49052
65 Al 3.71446 7.17929 2.50105
66 Al 5.70973 5.6199 3.98498
67 Al 5.63748 8.70627 0.970891
68 Ni 3.78774 5.01606 -0.0497762
69 Ni 3.77573 6.75811 5.12576
70 Ni 3.7735 9.72089 2.33535
71 Ni 5.55795 6.16631 1.34041
72 Ni 5.61923 8.13515 3.49212
73 Al 3.83096 6.24909 7.50518
74 Al 5.80189 4.83081 8.78347
75 Al 5.67003 8.04253 6.01503
76 Ni 3.81492 4.25018 4.98836
77 Ni 3.8229 6.00905 9.87629
78 Ni 3.77277 8.87575 7.34634
79 Ni 5.735 5.45531 6.3866
80 Ni 5.69591 7.32097 8.53623
81 Al 3.75681 12.331 2.50057
82 Al 5.57147 10.6074 3.81133
83 Al 5.61228 13.7818 1.08231
84 Ni 3.75103 10.0644 -0.0645599
85 Ni 3.79536 11.7972 4.83653
86 Ni 3.68503 14.7756 2.48414
87 Ni 5.75682 11.1551 1.39571
88 Ni 5.59583 13.2774 3.53567
89 Al 3.73514 11.3138 7.65325
90 Al 5.66996 9.85607 8.91612
91 Al 5.59709 13.113 6.04967
92 Ni 3.70968 9.34081 4.85598
93 Ni 3.81325 10.9719 10.0649
94 Ni 3.74385 13.8486 7.46149
95 Ni 5.56535 10.4506 6.36488
96 Ni 5.57852 12.4177 8.55167
97 Al 7.71985 2.09475 2.48787
98 Al 9.46171 0.557584 3.85933
99 Al 9.55527 3.80324 0.991938
100 Ni 7.54533 -0.132858 0.097076
101 Ni 7.65017 1.72651 4.97087
102 Ni 7.51691 4.6448 2.33496
103 Ni 9.58806 1.04703 1.37807
104 Ni 9.49367 3.15854 3.50587
105 Al 7.54662 1.36925 7.50368
106 Al 9.51578 -0.273564 8.82475
107 Al 9.54377 2.84202 6.05843
108 Ni 7.67398 -0.75725 4.95725
109 Ni 7.61365 0.938593 9.98156
110 Ni 7.64644 3.80774 7.41689
111 Ni 9.41728 0.448793 6.36301
112 Ni 9.51913 2.27337 8.47044
113 Al 7.56824 7.15541 2.53219
114 Al 9.52888 5.47912 3.89019
115 Al 9.47314 8.69831 1.16079
116 Ni 7.55192 4.99529 -0.065481
117 Ni 7.52538 6.83076 4.92432
118 Ni 7.57957 9.66766 2.58047
119 Ni 9.4984 6.12848 1.45382
120 Ni 9.5349 8.21759 3.68368
121 Al 7.60211 6.40255 7.41684
122 Al 9.51998 4.78496 8.8364
123 Al 9.56043 8.02358 6.13576
124 Ni 7.73818 4.26083 4.85056
125 Ni 7.70173 5.95856 9.9513
126 Ni 7.41797 8.8326 7.45717
127 Ni 9.42071 5.42058 6.35892
128 Ni 9.62266 7.38813 8.50294
129 Al 7.52862 12.1849 2.60513
130 Al 9.42106 10.6154 3.95388
131 Al 9.50656 13.7726 1.11625
132 Ni 7.64389 9.94802 -0.00903197
133 Ni 7.57712 11.8121 5.08047
134 Ni 7.59874 14.7125 2.43741
135 Ni 9.52362 11.1906 1.49661
136 Ni 9.43845 13.2079 3.47909
137 Al 7.63716 11.2908 7.53742
138 Al 9.48619 9.86541 8.95107
139 Al 9.40405 12.9727 6.04774
140 Ni 7.4807 9.38376 4.98623
141 Ni 7.60432 11.0296 10.0464
142 Ni 7.43666 13.9685 7.54986
143 Ni 9.59398 10.5364 6.41053
144 Ni 9.521 12.3144 8.54409
ITEM: TIMESTEP
1200
ITEM: NUMBER OF ATOMS
144
ITEM: BOX BOUNDS xy xz yz pp pp pp
-9.8514087110843737e-02 1.1412688942763033e+01 -4.0679323845249950e-02
-1.5344045398318922e+00 1.4999936848857176e+01 -4.0205818850020288e-02
1.1284276908932078e-02 9.8914339038310501e+00 -1.5449661141919753e+00
ITEM: ATOMS id element xu yu zu
1 Al 0.0122201 2.18845 2.51816
2 Al 1.86244 0.478478 3.83034
3 Al 1.76615 3.76741 1.12682
4 Ni -0.0784924 -0.0100949 -0.00281643
5 Ni -0.160159 1.89859 4.98099
6 Ni -0.0284464 4.69238 2.40986
7 Ni 1.85415 1.23164 1.33699
8 Ni 1.80903 3.18429 3.59752
9 Al 0.00881533 1.28713 7.31683
10 Al 1.87728 -0.220663 8.7349
11 Al 1.90128 2.87902 6.04894
12 Ni -0.133952 -0.787775 4.90422
13 Ni 0.00972563 0.90975 9.90575
14 Ni -0.0769716 3.65886 7.34174
15 Ni 1.90695 0.260969 6.3768
16 Ni 1.75586 2.32418 8.49015
17 Al -0.0821259 7.24501 2.58262
18 Al 1.71995 5.47752 3.85716
19 Al 1.85446 8.71032 1.17935
20 Ni -0.0853869 5.02738 0.0200855
21 Ni -0.0796713 6.80283 4.99942
22 Ni 0.0392602 9.79919 2.62863
23 Ni 1.87134 6.25248 1.33738
24 Ni 1.90013 8.20494 3.54384
25 Al -0.078952 6.3311 7.50583
26 Al 1.80891 4.77258 8.75981
27 Al 1.88497 7.9286 5.98033
28 Ni -0.00151024 4.2744 4.95286
29 Ni -0.00240415 5.9874 9.92425
30 Ni -0.11414 8.78057 7.53782
31 Ni 1.81024 5.43837 6.39069
32 Ni 1.72821 7.13914 8.5821
33 Al -0.188548 12.1761 2.52849
34 Al 1.8306 10.5778 4.05641
35 Al 1.81398 13.6688 1.11914
36 Ni -0.0437637 10.0829 0.129485
37 Ni -0.103479 11.67 4.9748
38 Ni -0.0564209 14.5199 2.43136
39 Ni 1.86619 11.1623 1.54486
40 Ni 1.9113 13.006 3.57697
41 Al -0.0988538 11.1974 7.46059
42 Al 1.81426 9.61466 8.97099
43 Al 1.73272 12.7676 6.00775
44 Ni -0.148399 9.19315 4.9919
45 Ni -0.118846 11.0145 9.99826
46 Ni -0.0186895 13.6359 7.31315
47 Ni 1.80683 10.264 6.46846
48 Ni 1.74331 12.3252 8.49537
49 Al 3.66929 2.08818 2.43084
50 Al 5.53405 0.517241 3.82038
51 Al 5.77206 3.80471 1.20264
52 Ni 3.6746 0.107332 0.065833
53 Ni 3.76735 1.68619 4.92236
54 Ni 3.6073 4.68645 2.4239
55 Ni 5.63233 1.28079 1.3965
56 Ni 5.57593 2.96325 3.57121
57 Al 3.74075 1.31978 7.33271
58 Al 5.70502 -0.302872 8.82641
59 Al 5.51885 2.91676 6.07816
60 Ni 3.81438 -0.743752 4.9512
61 Ni 3.69231 1.0303 9.84956
62 Ni 3.69825 3.77799 7.44641
63 Ni 5.70104 0.441 6.39079
64 Ni 5.57195 2.23501 8.52684
65 Al 3.85657 7.05485 2.36468
66 Al 5.63981 5.51692 3.79699
67 Al 5.6048 8.79368 1.09768
68 Ni 3.65579 5.08605 -0.0205952
69 Ni 3.79295 6.71477 4.76257
70 Ni 3.82332 9.49357 2.64457
71 Ni 5.85635 6.20715 1.32426
72 Ni 5.77738 7.98386 3.64826
73 Al 3.7994 6.25259 7.27242
74 Al 5.60562 4.75142 8.76285
75 Al 5.74386 7.99064 6.08363
76 Ni 3.68368 4.36297 4.94868
77 Ni 3.716 6.01607 9.91103
78 Ni 3.67888 8.8107 7.52173
79 Ni 5.65844 5.45273 6.22197
80 Ni 5.55975 7.23926 8.51072
81 Al 3.77788 12.1359 2.48644
82 Al 5.56824 10.3805 3.89387
83 Al 5.76033 13.7784 1.14515
84 Ni 3.7679 10.0269 0.127083
85 Ni 3.65271 11.7726 5.06847
86 Ni 3.75806 14.502 2.51263
87 Ni 5.63522 11.2178 1.43043
88 Ni 5.68057 12.8992 3.57821
89 Al 3.7045 11.4903 7.53884
90 Al 5.48122 9.79468 8.8295
91 Al 5.59354 12.9616 6.06298
92 Ni 3.7538 9.12078 5.05945
93 Ni 3.67957 11.078 9.89393
94 Ni 3.59012 13.9395 7.41613
95 Ni 5.62608 10.3496 6.30691
96 Ni 5.61 12.3363 8.60426
97 Al 7.60146 2.09566 2.71134
98 Al 9.45025 0.56103 3.89102
99 Al 9.52796 3.67858 1.14432
100 Ni 7.6252 0.0387545 -0.0345914
101 Ni 7.51329 1.75622 5.09144
102 Ni 7.68407 4.58719 2.50245
103 Ni 9.40007 1.26844 1.40711
104 Ni 9.53482 3.06771 3.60729
105 Al 7.51248 1.51579 7.55551
106 Al 9.59183 -0.258336 8.72808
107 Al 9.3911 2.91856 6.14275
108 Ni 7.45263 -0.781349 4.94386
109 Ni 7.55694 0.98741 10.0077
110 Ni 7.56508 4.00398 7.35568
111 Ni 9.40004 0.457308 6.3511
112 Ni 9.59289 2.25357 8.58647
113 Al 7.56952 7.19948 2.43969
114 Al 9.47276 5.38336 3.85579
115 Al 9.58834 8.78917 1.24307
116 Ni 7.66737 4.92355 -0.12461
117 Ni 7.61646 6.67206 5.05596
118 Ni 7.64108 9.66892 2.50243
119 Ni 9.54905 6.23253 1.30038
120 Ni 9.42173 7.9925 3.60095
121 Al 7.50651 6.40247 7.4053
122 Al 9.49389 4.8174 8.79509
123 Al 9.51086 7.92876 6.11287
124 Ni 7.42969 4.23258 4.89313
125 Ni 7.51982 5.89163 9.83483
126 Ni 7.57377 8.94598 7.47421
127 Ni 9.46235 5.42066 6.26439
128 Ni 9.41975 7.21518 8.65595
129 Al 7.55237 12.1154 2.46779
130 Al 9.38286 10.4702 3.88966
131 Al 9.38411 13.8513 1.18658
132 Ni 7.46306 10.0391 0.0214946
133 Ni 7.49471 11.7648 4.83738
134 Ni 7.57477 14.7401 2.50067
135 Ni 9.39853 11.1493 1.34075
136 Ni 9.44479 13.0849 3.65565
137 Al 7.44067 11.3682 7.44727
138 Al 9.42959 9.72311 8.91445
139 Al 9.40718 12.874 6.04172
140 Ni 7.57874 9.2211 4.94684
141 Ni 7.48158 10.9222 9.77818
142 Ni 7.44959 13.9447 7.33969
143 Ni 9.2221 10.4293 6.34838
144 Ni 9.38934 12.2782 8.45102
ITEM: TIMESTEP
1300
ITEM: NUMBER OF ATOMS
144
ITEM: BOX BOUNDS xy xz yz pp pp pp
-9.0316975764578533e-02 1.1529512590420792e+01 6.6377302378233347e-02
-1.6996968867112265e+00 1.5063522981880682e+01 -2.2241686069476525e-02
-1.9820030573551861e-02 9.9225382113135261e+00 -1.6466723280478108e+00
ITEM: ATOMS id element xu yu zu
1 Al -0.183156 2.13911 2.42637
2 Al 1.86021 0.485174 3.83477
3 Al 1.81324 3.63491 0.990867
4 Ni -0.0805959 0.0615671 0.0493716
5 Ni -0.0795246 1.51536 4.9624
6 Ni -0.104352 4.53033 2.424
7 Ni 1.85898 1.10126 1.47253
8 Ni 1.80584 2.96608 3.50872
9 Al -0.0595826 1.38113 7.43838
10 Al 1.86967 -0.448361 8.78807
11 Al 1.76361 2.90454 5.99521
12 Ni -0.00854824 -0.938432 5.07466
13 Ni -0.233993 0.905405 9.95967
14 Ni -0.047275 3.80047 7.42882
15 Ni 1.79255 0.370881 6.35704
16 Ni 1.89799 2.08597 8.47816
17 Al -0.128583 7.0396 2.44984
18 Al 1.81989 5.27982 3.82828
19 Al 1.82982 8.66646 1.0913
20 Ni -0.00373645 4.96064 -0.101179
21 Ni -0.0572668 6.67949 4.96877
22 Ni -0.0793929 9.4872 2.49312
23 Ni 1.77905 6.0914 1.38226
24 Ni 1.8755 7.92075 3.66816
25 Al 0.0322584 6.26299 7.50609
26 Al 1.91912 4.66544 8.90465
27 Al 1.94264 7.93326 6.05244
28 Ni -0.146882 4.20467 4.81089
29 Ni -0.200282 5.86598 9.90775
30 Ni -0.00410069 8.6969 7.43507
31 Ni 1.83618 5.26069 6.25357
32 Ni 1.8747 7.45404 8.59153
33 Al -0.04625 12.1999 2.49478
34 Al 1.82011 10.5224 3.87712
35 Al 1.92576 13.7129 1.0827
36 Ni -0.0594477 10.0158 0.0489632
37 Ni -0.0396204 11.8029 4.94677
38 Ni -0.0636978 14.6949 2.55711
39 Ni 1.8099 11.255 1.36907
40 Ni 1.81649 13.08 3.65903
41 Al 0.0304576 11.4481 7.43966
42 Al 1.8521 9.75611 8.86866
43 Al 1.89616 12.9357 6.16826
44 Ni 0.0530364 9.12833 4.99384
45 Ni -0.0279403 10.9556 9.90705
46 Ni -0.150969 13.9847 7.56938
47 Ni 1.88521 10.3446 6.37641
48 Ni 1.96081 12.2357 8.59373
49 Al 3.7845 2.06639 2.49901
50 Al 5.56403 0.470859 3.78141
51 Al 5.78906 3.63898 1.15328
52 Ni 3.827 -0.0618244 -0.000218586
53 Ni 3.78277 1.66349 4.97146
54 Ni 3.86127 4.45164 2.53851
55 Ni 5.68297 1.08817 1.39417
56 Ni 5.68303 2.96158 3.62251
57 Al 3.85033 1.20518 7.35573
58 Al 5.73873 -0.440274 8.79415
59 Al 5.67404 2.80623 6.0503
60 Ni 3.71766 -0.939582 4.96822
61 Ni 3.79066 0.740543 10.0111
62 Ni 3.74863 3.84819 7.40129
63 Ni 5.64259 0.293231 6.27368
64 Ni 5.73086 2.28669 8.55684
65 Al 3.69268 7.06398 2.4534
66 Al 5.6001 5.50066 3.96911
67 Al 5.58966 8.77148 1.12962
68 Ni 3.84892 4.98902 0.0635419
69 Ni 3.7641 6.68598 5.07367
70 Ni 3.75658 9.67484 2.50646
71 Ni 5.63299 6.16028 1.33374
72 Ni 5.62272 8.08688 3.56629
73 Al 3.77752 6.28192 7.37538
74 Al 5.62987 4.8035 8.80596
75 Al 5.69761 8.00303 6.04173
76 Ni 3.81173 4.00961 4.92092
77 Ni 3.7538 5.84866 9.92212
78 Ni 3.80247 8.79465 7.58102
79 Ni 5.67467 5.3685 6.35204
80 Ni 5.68442 7.2861 8.64154
81 Al 3.72494 12.261 2.57591
82 Al 5.74852 10.4461 3.91575
83 Al 5.74086 13.7324 1.07937
84 Ni 3.80574 10.0411 0.02481
85 Ni 3.99969 11.6713 4.95576
86 Ni 3.71383 14.762 2.49687
87 Ni 5.66742 11.1629 1.31209
88 Ni 5.74313 13.1992 3.6644
89 Al 3.85475 11.3447 7.39316
90 Al 5.69286 9.81371 8.85047
91 Al 5.95624 12.932 6.04901
92 Ni 3.83068 9.26822 5.06836
93 Ni 3.83511 10.8533 9.98267
94 Ni 3.90845 13.6807 7.45044
95 Ni 5.84548 10.4329 6.39651
96 Ni 5.7364 12.2137 8.4975
97 Al 7.58917 2.03149 2.49195
98 Al 9.48175 0.405104 3.81487
99 Al 9.47026 3.64404 1.11682
100 Ni 7.50829 -0.0482412 0.00754742
101 Ni 7.63514 1.62964 4.8445
102 Ni 7.59387 4.65674 2.41305
103 Ni 9.45664 1.05868 1.39302
104 Ni 9.48145 2.96252 3.54504
105 Al 7.47954 1.2216 7.31641
106 Al 9.50759 -0.399331 8.97296
107 Al 9.64635 2.8001 6.0642
108 Ni 7.72742 -0.977859 5.00667
109 Ni 7.5492 0.89212 9.84761
110 Ni 7.53531 3.66735 7.46032
111 Ni 9.48596 0.269939 6.35983
112 Ni 9.45437 2.14444 8.4472
113 Al 7.51554 7.19217 2.42053
114 Al 9.45525 5.45126 3.79026
115 Al 9.60763 8.80827 1.13082
116 Ni 7.57242 5.07104 0.0393619
117 Ni 7.55336 6.62759 4.83787
118 Ni 7.54526 9.5384 2.47184
119 Ni 9.52841 6.20476 1.34567
120 Ni 9.66203 8.14448 3.62793
121 Al 7.61688 6.2784 7.43915
122 Al 9.5137 4.61844 8.89106
123 Al 9.52394 7.82989 6.04981
124 Ni 7.72108 4.15482 4.921
125 Ni 7.65435 5.90931 9.95739
126 Ni 7.53537 8.83461 7.43585
127 Ni 9.43116 5.34527 6.33242
128 Ni 9.64793 7.26389 8.50469
129 Al 7.55614 12.0561 2.46663
130 Al 9.49307 10.5117 3.79153
131 Al 9.62137 13.8409 1.20577
132 Ni 7.69186 10.0966 0.0450472
133 Ni 7.73384 11.6577 5.03858
134 Ni 7.58806 14.563 2.39317
135 Ni 9.65371 11.3075 1.33452
136 Ni 9.54785 13.0215 3.49906
137 Al 7.74117 11.2865 7.46031
138 Al 9.59739 9.67327 8.88337
139 Al 9.67884 12.9783 5.91616
140 Ni 7.59535 9.08605 5.00008
141 Ni 7.59669 10.9807 9.89951
142 Ni 7.72057 13.8 7.52639
143 Ni 9.6554 10.3313 6.26122
144 Ni 9.5695 12.297 8.60413
ITEM: TIMESTEP
1400
ITEM: NUMBER OF ATOMS
144
ITEM: BOX BOUNDS xy xz yz pp pp pp
-6.4828075741132807e-02 1.1485344872233837e+01 1.8914605754135831e-03
-1.6756920087231291e+00 1.5021309877331465e+01 2.3565337569835421e-02
2.1298052372186405e-02 9.8814201283677896e+00 -1.6648805546089460e+00
ITEM: ATOMS id element xu yu zu
1 Al -0.0970827 2.15546 2.49939
2 Al 1.84689 0.418227 3.85007
3 Al 1.78213 3.71664 1.13555
4 Ni -0.107585 -0.0586064 0.0645855
5 Ni -0.118166 1.66769 4.97272
6 Ni -0.118955 4.50107 2.52832
7 Ni 1.94109 1.19828 1.39153
8 Ni 1.87172 2.91351 3.69888
9 Al -0.0560618 1.43202 7.45451
10 Al 1.88007 -0.342863 8.82013
11 Al 1.88179 2.96704 6.1441
12 Ni -0.154697 -0.818722 5.0128
13 Ni 0.000745466 0.821921 9.88846
14 Ni -0.167001 3.796 7.40339
15 Ni 1.83603 0.399301 6.4336
16 Ni 1.73816 2.27407 8.60951
17 Al -0.0495236 7.11758 2.4193
18 Al 1.71876 5.33203 3.84112
19 Al 1.85997 8.69968 1.07274
20 Ni -0.209962 5.03257 -0.00904957
21 Ni -0.0367798 6.59836 4.99181
22 Ni -0.0276879 9.59172 2.40011
23 Ni 1.87053 6.16092 1.3513
24 Ni 1.73333 8.09425 3.62622
25 Al -0.0950139 6.42097 7.4797
26 Al 1.83713 4.63978 8.7678
27 Al 1.8003 7.97376 6.09283
28 Ni 0.0261919 4.0882 5.03738
29 Ni 0.0171424 5.87432 9.90615
30 Ni -0.0444758 8.95815 7.40172
31 Ni 1.8904 5.40875 6.42358
32 Ni 1.79372 6.99799 8.5428
33 Al 0.00628714 12.0564 2.49745
34 Al 1.83877 10.4675 3.81361
35 Al 1.94087 13.6321 1.11495
36 Ni -0.0865916 10.0129 -0.0901019
37 Ni -0.00467086 11.6712 4.98773
38 Ni -0.0726082 14.544 2.55273
39 Ni 1.95557 11.1323 1.31803
40 Ni 1.88458 12.9878 3.55828
41 Al 0.00135479 11.4454 7.40855
42 Al 1.91484 9.54492 8.69239
43 Al 1.79842 13.061 6.04495
44 Ni -0.101018 9.15873 4.96499
45 Ni 0.0351562 10.8025 9.91577
46 Ni 0.0355337 13.8315 7.48536
47 Ni 1.88236 10.4799 6.27737
48 Ni 1.83181 12.2804 8.54632
49 Al 3.85363 2.05089 2.56104
50 Al 5.70033 0.451381 3.7957
51 Al 5.59657 3.80599 1.04982
52 Ni 3.735 -0.0431077 -0.000175805
53 Ni 3.81186 1.65468 4.99556
54 Ni 3.67125 4.66244 2.49898
55 Ni 5.63934 1.12304 1.30759
56 Ni 5.7594 3.06494 3.48576
57 Al 3.76381 1.3084 7.32919
58 Al 5.68683 -0.455027 8.77222
59 Al 5.62208 2.80244 5.95017
60 Ni 3.82147 -0.795089 4.96061
61 Ni 3.75931 0.892245 9.85043
62 Ni 3.83938 3.7246 7.39593
63 Ni 5.66165 0.237536 6.40072
64 Ni 5.6795 2.08494 8.47817
65 Al 3.75243 7.18819 2.53536
66 Al 5.58518 5.4834 4.02103
67 Al 5.67037 8.7896 1.13798
68 Ni 3.68508 5.01058 -0.0750843
69 Ni 3.67238 6.67585 5.01907
70 Ni 3.83777 9.52911 2.36276
71 Ni 5.70261 6.20872 1.42162
72 Ni 5.71685 8.06874 3.647
73 Al 3.77581 6.25089 7.46252
74 Al 5.62213 4.59446 8.86737
75 Al 5.64133 7.78185 5.96998
76 Ni 3.71364 4.17338 4.96051
77 Ni 3.76322 5.71966 10.0219
78 Ni 3.81523 8.79255 7.29054
79 Ni 5.60769 5.28116 6.43379
80 Ni 5.7789 7.11897 8.47794
81 Al 3.76677 12.0761 2.52077
82 Al 5.65519 10.4515 3.87783
83 Al 5.73193 13.71 1.12528
84 Ni 3.73502 9.979 -0.0525286
85 Ni 3.59364 11.7665 4.96847
86 Ni 3.86299 14.5673 2.56076
87 Ni 5.77816 11.1571 1.48066
88 Ni 5.69318 12.9164 3.57678
89 Al 3.77287 11.4348 7.48708
90 Al 5.74911 9.65436 8.86411
91 Al 5.71269 12.7988 5.97237
92 Ni 3.68621 9.12959 4.85639
93 Ni 3.74677 10.7882 9.83793
94 Ni 3.6692 13.8588 7.49723
95 Ni 5.68342 10.1944 6.22313
96 Ni 5.82065 12.1988 8.63034
97 Al 7.55493 2.09664 2.35504
98 Al 9.47947 0.534216 3.82737
99 Al 9.52721 3.59914 1.12682
100 Ni 7.67677 0.0117018 0.137341
101 Ni 7.60381 1.67894 4.98937
102 Ni 7.58728 4.5165 2.5157
103 Ni 9.66709 1.16862 1.33289
104 Ni 9.42957 3.0004 3.45417
105 Al 7.64448 1.26328 7.35748
106 Al 9.5856 -0.369657 8.80275
107 Al 9.56569 2.87389 5.975
108 Ni 7.55748 -0.815204 5.02015
109 Ni 7.54816 0.83146 9.81633
110 Ni 7.59932 3.81223 7.42309
111 Ni 9.63752 0.384477 6.3083
112 Ni 9.47057 2.28991 8.50496
113 Al 7.5085 7.07174 2.55409
114 Al 9.48564 5.39221 3.93164
115 Al 9.60902 8.65852 1.08884
116 Ni 7.553 5.05495 0.0579935
117 Ni 7.64986 6.75727 5.10045
118 Ni 7.63733 9.66765 2.50556
119 Ni 9.39864 6.13306 1.39293
120 Ni 9.44915 7.8759 3.55947
121 Al 7.68627 6.08325 7.40361
122 Al 9.52944 4.73975 8.93334
123 Al 9.52905 8.00002 5.91071
124 Ni 7.48312 4.21297 5.04009
125 Ni 7.57422 5.87953 9.90265
126 Ni 7.78963 8.65472 7.3912
127 Ni 9.58178 5.35201 6.32147
128 Ni 9.44328 7.20638 8.49524
129 Al 7.67668 12.1928 2.56023
130 Al 9.5655 10.439 3.86955
131 Al 9.68116 13.6604 1.30398
132 Ni 7.58373 9.97228 0.0296677
133 Ni 7.59696 11.7341 4.95135
134 Ni 7.72002 14.6128 2.56634
135 Ni 9.5017 11.0135 1.49772
136 Ni 9.61204 12.9778 3.7358
137 Al 7.56103 11.2097 7.37942
138 Al 9.53842 9.66046 8.89571
139 Al 9.63928 13.0378 6.064
140 Ni 7.64677 9.28991 4.91123
141 Ni 7.73619 10.8431 10.0389
142 Ni 7.55448 13.7406 7.37797
143 Ni 9.59514 10.4022 6.38761
144 Ni 9.62619 12.2567 8.58526
ITEM: TIMESTEP
1500
ITEM: NUMBER OF ATOMS
144
ITEM: BOX BOUNDS xy xz yz pp pp pp
-1.3175805960078502e-01 1.1472590589048821e+01 -7.8330670789654958e-02
-1.6393515554294797e+00 1.5003875941770289e+01 2.4103201890238662e-02
1.1312217723832063e-02 9.8914059630161510e+00 -1.6459740368764804e+00
ITEM: ATOMS id element xu yu zu
1 Al -0.109884 2.08357 2.5291
2 Al 1.85516 0.528255 3.81771
3 Al 1.82446 3.66328 1.06345
4 Ni -0.0597755 0.015943 -0.0559732
5 Ni -0.0774565 1.83049 4.98531
6 Ni -0.117717 4.56944 2.51937
7 Ni 1.78003 1.09663 1.38432
8 Ni 1.78059 3.15859 3.5355
9 Al -0.0747929 1.24496 7.39955
10 Al 1.84867 -0.411235 8.77796
11 Al 1.83247 2.97528 5.9986
12 Ni 0.0829706 -0.815224 4.92771
13 Ni -0.122225 0.816139 9.98159
14 Ni -0.00472485 3.78104 7.53225
15 Ni 1.88876 0.299362 6.3248
16 Ni 1.85591 2.15225 8.52665
17 Al -0.0776348 7.1802 2.42209
18 Al 1.7935 5.56614 3.91308
19 Al 1.7584 8.70856 1.04873
20 Ni 0.00203567 4.98489 0.146322
21 Ni -0.165649 6.82421 4.94751
22 Ni -0.193523 9.5362 2.50555
23 Ni 1.85471 6.19994 1.493
24 Ni 1.86594 8.02828 3.46395
25 Al -0.0766564 6.27477 7.52667
26 Al 1.86832 4.68254 8.97866
27 Al 1.78577 7.85272 5.98052
28 Ni -0.242465 4.27348 4.98843
29 Ni -0.184893 5.74829 9.92494
30 Ni -0.0861188 8.63283 7.47803
31 Ni 1.79217 5.34399 6.31245
32 Ni 1.8504 7.42215 8.545
33 Al -0.0865623 12.0984 2.53068
34 Al 1.85957 10.4832 3.89412
35 Al 1.85348 13.5447 0.9789
36 Ni -0.0973866 9.96996 0.118053
37 Ni -0.208696 11.7577 5.0317
38 Ni -0.0529653 14.5358 2.41754
39 Ni 1.7029 11.1261 1.43032
40 Ni 1.83767 12.98 3.57212
41 Al -0.189972 11.278 7.3853
42 Al 1.87697 9.76102 8.91918
43 Al 1.78284 12.8005 6.0938
44 Ni -0.0911006 9.34559 4.94637
45 Ni -0.17254 10.8763 9.87248
46 Ni -0.220308 13.6889 7.33184
47 Ni 1.77978 10.2097 6.34933
48 Ni 1.86467 12.1979 8.45909
49 Al 3.72682 2.01202 2.58511
50 Al 5.64011 0.464095 3.81243
51 Al 5.65714 3.637 1.08934
52 Ni 3.78546 0.00721051 0.0803229
53 Ni 3.69185 1.7463 4.98306
54 Ni 3.85839 4.56625 2.50621
55 Ni 5.70883 1.20402 1.52648
56 Ni 5.61172 2.9724 3.73182
57 Al 3.74348 1.2883 7.39484
58 Al 5.62578 -0.377547 8.86297
59 Al 5.57305 2.98132 6.04811
60 Ni 3.72272 -0.847791 4.93769
61 Ni 3.77064 0.791561 9.98736
62 Ni 3.59702 3.80915 7.51538
63 Ni 5.58541 0.517538 6.25673
64 Ni 5.65066 2.22641 8.57599
65 Al 3.81017 7.15362 2.43957
66 Al 5.738 5.39834 3.82293
67 Al 5.73177 8.67844 1.25326
68 Ni 3.77506 4.97184 0.117772
69 Ni 3.87411 6.70503 5.00579
70 Ni 3.70423 9.59033 2.44723
71 Ni 5.65278 6.04974 1.405
72 Ni 5.68214 7.97743 3.63309
73 Al 3.65649 6.18173 7.34981
74 Al 5.57285 4.65686 8.80794
75 Al 5.58577 7.99948 5.99833
76 Ni 3.72874 4.31762 4.99174
77 Ni 3.75434 5.93312 9.86502
78 Ni 3.67832 8.75892 7.33684
79 Ni 5.7489 5.39646 6.21617
80 Ni 5.63776 7.18088 8.53186
81 Al 3.7527 12.1043 2.52518
82 Al 5.76541 10.4527 3.85219
83 Al 5.62492 13.8026 1.11437
84 Ni 3.82656 10.0499 0.0209576
85 Ni 3.86446 11.6914 4.94244
86 Ni 3.63939 14.5648 2.46134
87 Ni 5.61889 11.1981 1.27526
88 Ni 5.63022 13.0633 3.69569
89 Al 3.64633 11.2163 7.43861
90 Al 5.58644 9.64015 8.81846
91 Al 5.69455 12.9585 6.08236
92 Ni 3.76427 9.17303 4.88774
93 Ni 3.85719 10.9299 9.93817
94 Ni 3.70302 13.81 7.42127
95 Ni 5.63182 10.4955 6.32232
96 Ni 5.51484 12.2108 8.51738
97 Al 7.58038 2.18745 2.5588
98 Al 9.58836 0.426117 3.88344
99 Al 9.57099 3.65163 1.25096
100 Ni 7.52278 0.0356168 -0.030116
101 Ni 7.56699 1.72782 4.91745
102 Ni 7.57005 4.55905 2.49491
103 Ni 9.43173 1.12472 1.48586
104 Ni 9.64209 2.95132 3.72262
105 Al 7.59319 1.2371 7.44202
106 Al 9.57673 -0.461986 8.94894
107 Al 9.55272 2.87423 6.15551
108 Ni 7.61594 -0.756453 4.95142
109 Ni 7.7175 0.803553 9.98006
110 Ni 7.61783 3.73298 7.40316
111 Ni 9.40751 0.32905 6.33265
112 Ni 9.516 2.08527 8.55356
113 Al 7.65554 6.9882 2.46895
114 Al 9.55017 5.55135 3.87569
115 Al 9.46313 8.70306 1.08239
116 Ni 7.60819 4.90614 -0.00575494
117 Ni 7.61993 6.7033 4.9017
118 Ni 7.55384 9.50043 2.49086
119 Ni 9.5529 6.11355 1.3694
120 Ni 9.49377 8.16331 3.63912
121 Al 7.57528 6.23676 7.45983
122 Al 9.4952 4.52005 8.86926
123 Al 9.40638 8.01002 6.04491
124 Ni 7.64626 4.20484 4.92211
125 Ni 7.64128 5.72023 9.85091
126 Ni 7.46151 8.89751 7.46363
127 Ni 9.48781 5.4096 6.35971
128 Ni 9.52303 7.15271 8.59815
129 Al 7.56404 12.1146 2.47828
130 Al 9.4549 10.6006 3.80121
131 Al 9.47089 13.7276 1.09845
132 Ni 7.59038 10.0365 -0.0784615
133 Ni 7.48839 11.6846 5.05375
134 Ni 7.49767 14.5034 2.5181
135 Ni 9.44196 11.2621 1.25898
136 Ni 9.45107 13.0659 3.53521
137 Al 7.44309 11.3357 7.41757
138 Al 9.50407 9.62358 8.67652
139 Al 9.47469 13.0013 5.90634
140 Ni 7.60003 9.17046 4.99797
141 Ni 7.41871 10.8395 9.8563
142 Ni 7.52055 13.7746 7.48983
143 Ni 9.38855 10.3361 6.3203
144 Ni 9.35803 12.1366 8.49173
ITEM: TIMESTEP
1600
ITEM: NUMBER OF ATOMS
144
ITEM: BOX BOUNDS xy xz yz pp pp pp
-9.2685510844292565e-02 1.1442622075263277e+01 -3.3233671641536906e-02
-1.6665171506393617e+00 1.5079847709185984e+01 -1.1889762286936070e-02
-2.5655522243351214e-02 9.9283737029833414e+00 -1.5971678646706589e+00
ITEM: ATOMS id element xu yu zu
1 Al -0.0775425 2.06295 2.5564
2 Al 1.88675 0.428293 3.8296
3 Al 1.77757 3.63047 1.10879
4 Ni -0.115593 -0.0471209 -0.00573331
5 Ni -0.0477281 1.59525 4.97869
6 Ni -0.0480179 4.59421 2.5386
7 Ni 1.87561 1.17233 1.36199
8 Ni 1.89261 2.85767 3.70794
9 Al -0.0950797 1.18435 7.51847
10 Al 1.81121 -0.463962 8.84629
11 Al 1.89921 2.78102 6.21013
12 Ni -0.265415 -0.883858 4.94099
13 Ni -0.0635745 0.815016 9.94597
14 Ni -0.0668174 3.6067 7.394
15 Ni 1.81644 0.306108 6.32176
16 Ni 1.83479 2.21149 8.62557
17 Al -0.00236897 7.17108 2.49651
18 Al 1.8709 5.47325 3.9118
19 Al 1.77825 8.75628 1.15101
20 Ni -0.129755 4.97863 -0.0569119
21 Ni -0.0392723 6.6562 5.01797
22 Ni 0.00238524 9.73468 2.57172
23 Ni 1.69377 6.13226 1.31566
24 Ni 1.85683 8.11438 3.65302
25 Al -0.111828 6.18964 7.41823
26 Al 1.86904 4.61395 8.81433
27 Al 1.82753 8.00342 6.22213
28 Ni 0.118878 4.20251 4.99493
29 Ni -0.00101641 5.97471 9.91772
30 Ni -0.104706 8.8163 7.4226
31 Ni 1.97863 5.32928 6.36002
32 Ni 1.83652 7.073 8.50099
33 Al -0.115525 12.2737 2.41351
34 Al 1.85831 10.5598 3.91312
35 Al 1.74703 13.8722 1.08109
36 Ni -0.10875 10.0346 -0.0644821
37 Ni -0.0866369 11.81 4.83714
38 Ni -0.351569 14.7316 2.46597
39 Ni 1.79018 11.2187 1.42677
40 Ni 1.67357 13.1779 3.55098
41 Al -0.162746 11.3544 7.3342
42 Al 1.7509 9.62006 8.83155
43 Al 1.79206 13.0175 6.09399
44 Ni -0.113583 9.13198 5.00337
45 Ni -0.111833 10.9008 9.92793
46 Ni -0.0377202 13.7982 7.40251
47 Ni 1.91711 10.4807 6.34501
48 Ni 1.71545 12.2743 8.60518
49 Al 3.7954 1.99381 2.50771
50 Al 5.7354 0.455437 3.93879
51 Al 5.60063 3.75956 1.17684
52 Ni 3.70713 -0.0651924 -0.0702513
53 Ni 3.80978 1.6587 4.99245
54 Ni 3.68212 4.55027 2.5989
55 Ni 5.64506 1.02441 1.27237
56 Ni 5.63624 3.07836 3.6277
57 Al 3.72077 1.15416 7.4305
58 Al 5.56384 -0.432645 8.89166
59 Al 5.72171 2.88437 6.03196
60 Ni 3.82093 -0.810813 4.99965
61 Ni 3.73927 0.929605 9.93003
62 Ni 3.86191 3.80754 7.42899
63 Ni 5.76338 0.304846 6.57267
64 Ni 5.59825 2.24425 8.74093
65 Al 3.66457 7.04213 2.31399
66 Al 5.73092 5.45043 3.8701
67 Al 5.59162 8.6451 1.11982
68 Ni 3.74963 5.02804 0.0773101
69 Ni 3.75301 6.76329 4.84865
70 Ni 3.73108 9.54306 2.52571
71 Ni 5.72996 6.21438 1.27059
72 Ni 5.64424 8.12291 3.49642
73 Al 3.74802 6.24292 7.39889
74 Al 5.64674 4.67592 8.85061
75 Al 5.52811 7.86511 5.8864
76 Ni 3.78099 4.06471 5.04477
77 Ni 3.75876 5.84389 9.83233
78 Ni 3.73811 8.86326 7.57822
79 Ni 5.65136 5.38478 6.39314
80 Ni 5.64074 7.41975 8.52033
81 Al 3.72917 12.2189 2.47122
82 Al 5.66492 10.6444 3.82575
83 Al 5.56049 13.7338 0.955991
84 Ni 3.56013 9.9608 -0.0451567
85 Ni 3.68062 11.7947 4.88949
86 Ni 3.71964 14.7349 2.42548
87 Ni 5.59612 11.125 1.34505
88 Ni 5.61096 13.1538 3.44144
89 Al 3.75751 11.3492 7.59298
90 Al 5.61408 9.79965 8.9742
91 Al 5.68962 12.8935 5.96785
92 Ni 3.76279 9.31081 5.06703
93 Ni 3.46134 10.9274 9.89522
94 Ni 3.72679 13.8525 7.43727
95 Ni 5.69597 10.371 6.27253
96 Ni 5.69963 12.3759 8.53048
97 Al 7.53331 2.08527 2.51967
98 Al 9.40693 0.445992 3.94797
99 Al 9.56599 3.68221 1.14208
100 Ni 7.60693 -0.132923 -0.0688332
101 Ni 7.5995 1.64369 5.2829
102 Ni 7.64102 4.63983 2.46114
103 Ni 9.50434 1.13253 1.26169
104 Ni 9.46972 3.1144 3.54371
105 Al 7.66479 1.36887 7.67339
106 Al 9.43155 -0.38601 8.96098
107 Al 9.61017 2.9088 5.95938
108 Ni 7.60056 -0.868361 4.91507
109 Ni 7.46681 0.827901 10.0183
110 Ni 7.55855 3.91919 7.54291
111 Ni 9.5241 0.345183 6.42381
112 Ni 9.61331 2.18081 8.58888
113 Al 7.70654 7.1674 2.46079
114 Al 9.5741 5.55119 3.94873
115 Al 9.59655 8.70957 1.08368
116 Ni 7.60622 5.01064 -0.0436521
117 Ni 7.58462 6.72517 4.92336
118 Ni 7.47506 9.71773 2.43604
119 Ni 9.52016 6.21019 1.34438
120 Ni 9.54419 7.98631 3.64955
121 Al 7.52426 6.37368 7.48669
122 Al 9.52333 4.67929 8.87189
123 Al 9.43059 8.02984 6.02512
124 Ni 7.57096 4.16818 4.98197
125 Ni 7.63018 5.90603 9.96626
126 Ni 7.65774 8.90665 7.48977
127 Ni 9.42276 5.34558 6.31562
128 Ni 9.62321 7.23479 8.5504
129 Al 7.56886 12.2521 2.32375
130 Al 9.56015 10.4585 3.89235
131 Al 9.47723 13.6769 1.01566
132 Ni 7.5338 9.98252 0.0100713
133 Ni 7.51063 11.8387 4.7557
134 Ni 7.52416 14.8004 2.47156
135 Ni 9.48251 11.1459 1.46594
136 Ni 9.34665 13.1629 3.53158
137 Al 7.63896 11.4134 7.35912
138 Al 9.49894 9.70422 8.81525
139 Al 9.52868 13.0168 6.05056
140 Ni 7.47811 9.25425 4.92566
141 Ni 7.59514 10.8152 9.81264
142 Ni 7.55574 13.9757 7.4466
143 Ni 9.49313 10.4066 6.32126
144 Ni 9.5924 12.3396 8.47586
ITEM: TIMESTEP
1700
ITEM: NUMBER OF ATOMS
144
ITEM: BOX BOUNDS xy xz yz pp pp pp
-3.1924824622695566e-02 1.1465860429631377e+01 5.1857152473353846e-02
-1.4424678337648746e+00 1.4976307945852426e+01 -1.2981545812119896e-02
7.7302674002908134e-03 9.8949879133397189e+00 -1.4766583111297216e+00
ITEM: ATOMS id element xu yu zu
1 Al 0.0072748 2.2474 2.5418
2 Al 1.96628 0.650855 3.93296
3 Al 1.88306 3.75268 1.12711
4 Ni 0.0190086 0.0746147 0.062952
5 Ni -0.0907986 1.7689 5.00402
6 Ni -0.13284 4.68526 2.42165
7 Ni 1.84155 1.24443 1.44119
8 Ni 1.8943 3.15881 3.52346
9 Al -0.0866397 1.54515 7.46028
10 Al 1.78573 -0.214646 8.91075
11 Al 1.91532 2.9138 6.06134
12 Ni 0.0374606 -0.681017 5.06776
13 Ni -0.0174649 1.13328 9.93457
14 Ni 0.0229887 4.03579 7.45381
15 Ni 2.00641 0.456073 6.39431
16 Ni 1.90603 2.27738 8.56907
17 Al -0.0356817 7.12462 2.47387
18 Al 1.90389 5.51096 3.87713
19 Al 1.90052 8.70767 1.18899
20 Ni 0.0155906 4.94555 -0.00866582
21 Ni -0.037325 6.72061 4.87347
22 Ni -0.121815 9.58906 2.42318
23 Ni 2.05022 6.24305 1.3547
24 Ni 1.90002 8.02073 3.55236
25 Al -0.0765627 6.47105 7.46905
26 Al 1.87195 4.82301 8.7743
27 Al 1.83247 7.99827 6.12377
28 Ni -0.230753 4.19555 4.94885
29 Ni -0.089008 6.00472 9.87888
30 Ni 0.0162894 8.83069 7.41952
31 Ni 1.85448 5.4989 6.28332
32 Ni 1.8255 7.396 8.54594
33 Al 0.0152049 12.1918 2.46781
34 Al 1.87094 10.5057 3.81627
35 Al 1.96355 13.7715 1.07956
36 Ni -0.0136806 9.95632 0.0313939
37 Ni -0.0562359 11.6643 4.9999
38 Ni 0.16541 14.6645 2.60155
39 Ni 1.824 11.1934 1.26752
40 Ni 2.0096 12.9589 3.59395
41 Al -0.0496447 11.3729 7.5062
42 Al 1.96818 9.82209 8.79293
43 Al 1.77469 12.9705 6.1528
44 Ni 0.000593501 9.22445 4.95224
45 Ni -0.0211976 11.1238 9.8575
46 Ni -0.0359123 13.9797 7.51844
47 Ni 1.77632 10.3204 6.25255
48 Ni 1.94637 12.3856 8.50829
49 Al 3.7751 2.15277 2.55486
50 Al 5.70184 0.550083 3.78377
51 Al 5.70438 3.71085 1.03975
52 Ni 3.81153 -0.0373532 -0.00867825
53 Ni 3.79451 1.76961 4.98045
54 Ni 3.89845 4.69821 2.40593
55 Ni 5.72954 1.27809 1.51708
56 Ni 5.71554 3.13144 3.68937
57 Al 3.82843 1.27978 7.50063
58 Al 5.6854 -0.244649 8.8774
59 Al 5.6401 3.04136 6.0277
60 Ni 3.74075 -0.694778 4.84841
61 Ni 3.83101 0.941257 10.0086
62 Ni 3.73969 3.92093 7.55198
63 Ni 5.65718 0.45357 6.12829
64 Ni 5.74015 2.3664 8.49691
65 Al 3.8243 7.2227 2.58808
66 Al 5.73958 5.52965 3.88736
67 Al 5.72944 8.69031 1.19223
68 Ni 3.81578 4.97818 -0.0333962
69 Ni 3.7449 6.76469 5.06827
70 Ni 3.76957 9.71429 2.46593
71 Ni 5.6578 6.20619 1.46308
72 Ni 5.63115 8.07803 3.73537
73 Al 3.8154 6.31032 7.50049
74 Al 5.68286 4.69077 8.87099
75 Al 5.64038 7.97891 6.00172
76 Ni 3.79364 4.30088 4.95812
77 Ni 3.75395 5.98911 9.97398
78 Ni 3.78215 8.95736 7.33044
79 Ni 5.72091 5.47419 6.3264
80 Ni 5.80325 7.2262 8.56318
81 Al 3.84027 12.153 2.45195
82 Al 5.69124 10.5322 3.91239
83 Al 5.70304 13.7611 1.1106
84 Ni 3.974 10.053 -0.0233943
85 Ni 3.78661 11.7445 4.95381
86 Ni 3.87018 14.5966 2.53137
87 Ni 5.66671 11.2806 1.44621
88 Ni 5.75545 12.9932 3.5388
89 Al 3.71965 11.3994 7.4437
90 Al 5.7644 9.74596 8.86637
91 Al 5.7507 12.9227 6.03473
92 Ni 3.74342 9.17434 4.90314
93 Ni 3.92603 10.9777 9.82707
94 Ni 3.84973 13.9017 7.42748
95 Ni 5.66036 10.5581 6.31868
96 Ni 5.64545 12.3099 8.45555
97 Al 7.6039 2.14808 2.54011
98 Al 9.56686 0.352331 3.97669
99 Al 9.48415 3.81845 1.12434
100 Ni 7.60531 0.156501 0.02812
101 Ni 7.52527 1.83043 4.77156
102 Ni 7.5272 4.74191 2.58069
103 Ni 9.42448 1.29706 1.5185
104 Ni 9.43764 3.06477 3.6734
105 Al 7.5296 1.32258 7.3598
106 Al 9.44526 -0.126119 9.00424
107 Al 9.46372 3.0123 6.04225
108 Ni 7.53745 -0.694259 4.9361
109 Ni 7.6878 1.03915 9.9237
110 Ni 7.57032 3.92646 7.39833
111 Ni 9.46022 0.46118 6.25277
112 Ni 9.41569 2.41264 8.52613
113 Al 7.61619 7.21198 2.54217
114 Al 9.48156 5.57903 3.92787
115 Al 9.53228 8.68467 1.08839
116 Ni 7.57802 5.07341 0.074989
117 Ni 7.59312 6.76814 5.04716
118 Ni 7.53469 9.63433 2.55382
119 Ni 9.40908 6.2345 1.49074
120 Ni 9.44948 8.10756 3.5464
121 Al 7.57609 6.32999 7.37905
122 Al 9.45445 4.82868 8.86295
123 Al 9.60269 7.95409 5.99112
124 Ni 7.57395 4.27775 4.95499
125 Ni 7.53753 6.04172 9.92978
126 Ni 7.67282 8.88991 7.44007
127 Ni 9.58113 5.42128 6.33571
128 Ni 9.41241 7.33646 8.59715
129 Al 7.65596 12.0537 2.53196
130 Al 9.6577 10.4774 3.82831
131 Al 9.63826 13.7693 1.138
132 Ni 7.67494 10.0932 0.0439001
133 Ni 7.61239 11.6418 4.98834
134 Ni 7.62676 14.511 2.47736
135 Ni 9.5058 11.2985 1.197
136 Ni 9.53064 13.0709 3.57028
137 Al 7.72534 11.308 7.41632
138 Al 9.5199 9.77076 8.68604
139 Al 9.65652 12.9426 6.0915
140 Ni 7.74347 9.19108 4.98829
141 Ni 7.63659 11.143 9.91056
142 Ni 7.64107 13.8273 7.39303
143 Ni 9.53074 10.3539 6.2703
144 Ni 9.50143 12.3379 8.53948
ITEM: TIMESTEP
1800
ITEM: NUMBER OF ATOMS
144
ITEM: BOX BOUNDS xy xz yz pp pp pp
-8.4568890217829679e-02 1.1477683975180552e+01 -1.8365894689963660e-02
-1.5392572391108912e+00 1.5093265418371249e+01 1.6420981305218376e-02
-1.9836601344182192e-02 9.9225547820841911e+00 -1.4564902439569156e+00
ITEM: ATOMS id element xu yu zu
1 Al 0.0320885 2.09478 2.44008
2 Al 1.88354 0.470499 3.9026
3 Al 1.79716 3.71599 0.975082
4 Ni 0.00755501 -0.130515 0.00652708
5 Ni -0.0632849 1.73492 4.9365
6 Ni 0.0661434 4.58257 2.50022
7 Ni 1.87121 1.06553 1.36187
8 Ni 1.85296 3.01073 3.5992
9 Al -0.127796 1.40837 7.55049
10 Al 1.78924 -0.219162 8.90552
11 Al 1.79265 2.91877 6.06079
12 Ni -0.0828779 -0.813058 4.94369
13 Ni -0.0732295 0.983698 9.98177
14 Ni -0.161573 3.85242 7.42742
15 Ni 1.73176 0.424567 6.332
16 Ni 1.76733 2.52066 8.47995
17 Al -0.155967 7.08178 2.48856
18 Al 1.81298 5.65196 4.03282
19 Al 1.85564 8.69413 1.08739
20 Ni -0.15779 5.04083 0.10192
21 Ni -0.207746 6.75977 5.01412
22 Ni 0.00269136 9.6519 2.35184
23 Ni 1.80163 6.14151 1.5032
24 Ni 1.73894 8.15602 3.4809
25 Al -0.0967336 6.5032 7.45609
26 Al 1.88659 4.91092 8.86078
27 Al 1.74328 8.21516 5.97111
28 Ni 0.0453458 4.26738 4.92867
29 Ni -0.112918 6.17908 9.96119
30 Ni -0.102266 9.1425 7.33436
31 Ni 1.77744 5.51196 6.43003
32 Ni 1.7424 7.47572 8.50153
33 Al -0.00398438 12.1217 2.52104
34 Al 1.87756 10.5704 3.9451
35 Al 1.77078 13.8567 1.08701
36 Ni -0.134884 10.0767 -0.0365663
37 Ni -0.00681255 11.8527 4.93868
38 Ni -0.145331 14.6375 2.47291
39 Ni 1.95316 11.2341 1.46946
40 Ni 1.80068 13.2505 3.53934
41 Al -0.0403615 11.5285 7.48867
42 Al 1.86692 9.94807 8.84206
43 Al 1.76745 13.1173 6.10757
44 Ni -0.17905 9.38869 4.89708
45 Ni -0.0877414 11.1245 9.93456
46 Ni 0.0229877 13.9419 7.45666
47 Ni 1.91878 10.5968 6.36966
48 Ni 1.89848 12.4535 8.54904
49 Al 3.72819 2.06746 2.43984
50 Al 5.59821 0.528759 3.89548
51 Al 5.5652 3.70468 1.10577
52 Ni 3.76979 0.0136566 0.000273379
53 Ni 3.67702 1.69188 4.9692
54 Ni 3.67955 4.58453 2.53328
55 Ni 5.56356 1.13837 1.18566
56 Ni 5.72635 2.97468 3.49614
57 Al 3.66668 1.42053 7.35783
58 Al 5.65249 -0.248625 8.74092
59 Al 5.69921 3.00215 5.90257
60 Ni 3.8204 -0.781015 5.01317
61 Ni 3.77682 1.13118 9.81079
62 Ni 3.66469 3.94055 7.32888
63 Ni 5.5541 0.477602 6.4716
64 Ni 5.70044 2.31548 8.54678
65 Al 3.76309 7.22595 2.60247
66 Al 5.79228 5.43603 3.83299
67 Al 5.77339 8.71015 1.14508
68 Ni 3.75828 5.03002 -0.0477091
69 Ni 3.80278 6.77618 5.07057
70 Ni 3.83183 9.60951 2.44023
71 Ni 5.58174 6.21832 1.38809
72 Ni 5.75605 8.09828 3.58735
73 Al 3.72502 6.36801 7.47119
74 Al 5.62723 4.71276 8.87233
75 Al 5.61726 7.8505 5.97098
76 Ni 3.69926 4.32029 4.84416
77 Ni 3.81978 6.05504 10.0708
78 Ni 3.65963 8.90009 7.40699
79 Ni 5.5156 5.39937 6.4466
80 Ni 5.58341 7.45967 8.58411
81 Al 3.81767 12.2023 2.48835
82 Al 5.67784 10.637 3.7682
83 Al 5.67871 13.844 1.21201
84 Ni 3.66984 10.078 -0.0239956
85 Ni 3.82958 11.762 4.84346
86 Ni 3.63556 14.7292 2.47512
87 Ni 5.75729 11.2971 1.28878
88 Ni 5.66345 13.2051 3.661
89 Al 3.86483 11.525 7.46189
90 Al 5.52554 9.92015 8.77246
91 Al 5.69858 13.0661 6.15307
92 Ni 3.75254 9.26414 4.95607
93 Ni 3.80531 11.1506 9.97853
94 Ni 3.73812 13.9849 7.53709
95 Ni 5.7268 10.3644 6.32255
96 Ni 5.76026 12.4482 8.63744
97 Al 7.65181 1.91512 2.37526
98 Al 9.66673 0.375317 3.9891
99 Al 9.55568 3.72296 1.01442
100 Ni 7.64025 -0.0352285 0.0328691
101 Ni 7.605 1.61426 4.94439
102 Ni 7.55625 4.43459 2.42818
103 Ni 9.64052 1.12309 1.23272
104 Ni 9.563 3.03446 3.5071
105 Al 7.55152 1.23947 7.39496
106 Al 9.39994 -0.296367 8.8294
107 Al 9.62088 3.02507 5.98523
108 Ni 7.70602 -0.80113 5.00965
109 Ni 7.49737 1.02829 9.84418
110 Ni 7.61775 3.70777 7.53795
111 Ni 9.65335 0.34974 6.35746
112 Ni 9.50978 2.23818 8.55937
113 Al 7.6504 7.05079 2.44284
114 Al 9.5477 5.44345 3.92746
115 Al 9.6006 8.74498 1.05922
116 Ni 7.57711 4.98675 -0.00651916
117 Ni 7.54374 6.72322 4.94476
118 Ni 7.70838 9.63835 2.46169
119 Ni 9.55773 6.20488 1.22372
120 Ni 9.54054 8.03474 3.60997
121 Al 7.52216 6.30298 7.49344
122 Al 9.54278 4.8114 8.70751
123 Al 9.50633 8.08717 6.11065
124 Ni 7.62618 4.20027 5.02647
125 Ni 7.60099 6.10438 10.0142
126 Ni 7.55638 8.80555 7.46804
127 Ni 9.45858 5.45087 6.38853
128 Ni 9.53063 7.35323 8.54651
129 Al 7.62979 12.2453 2.62394
130 Al 9.57844 10.4738 3.96182
131 Al 9.52834 13.7223 1.10175
132 Ni 7.55388 10.0703 -0.107682
133 Ni 7.61955 11.8326 5.0385
134 Ni 7.64528 14.8494 2.52433
135 Ni 9.59789 11.2052 1.52254
136 Ni 9.70541 13.1627 3.64269
137 Al 7.63111 11.366 7.46017
138 Al 9.47225 9.91318 8.90695
139 Al 9.60181 13.0688 6.15004
140 Ni 7.49935 9.36064 4.96254
141 Ni 7.62336 11.1211 9.94381
142 Ni 7.58766 13.9197 7.51782
143 Ni 9.49101 10.6106 6.38233
144 Ni 9.46569 12.4154 8.61678
ITEM: TIMESTEP
1900
ITEM: NUMBER OF ATOMS
144
ITEM: BOX BOUNDS xy xz yz pp pp pp
-1.1538142064047298e-01 1.1430873000303809e+01 -1.0799795958604465e-01
-1.4814124622343332e+00 1.5000907452940496e+01 2.8429540901907524e-02
-1.9137061331258032e-02 9.9218552420712705e+00 -1.4910034325111035e+00
ITEM: ATOMS id element xu yu zu
1 Al -0.135531 2.19462 2.40748
2 Al 1.9409 0.433186 3.7768
3 Al 1.7405 3.81154 1.15236
4 Ni -0.124312 0.0227549 -0.0299643
5 Ni -0.0209396 1.74526 4.91888
6 Ni -0.174941 4.59103 2.43767
7 Ni 1.83084 1.21171 1.23568
8 Ni 1.80569 3.05558 3.56336
9 Al 0.0101569 1.47343 7.35592
10 Al 1.82917 -0.22229 8.75244
11 Al 1.80542 2.94331 6.04781
12 Ni -0.0246297 -0.738551 4.87202
13 Ni -0.00313078 1.01041 9.78502
14 Ni 0.0179625 3.94248 7.4345
15 Ni 1.98901 0.449632 6.18307
16 Ni 1.90019 2.23523 8.63351
17 Al -0.0589117 7.19751 2.50773
18 Al 1.795 5.46831 3.85071
19 Al 1.78747 8.78086 1.15889
20 Ni -0.0495556 4.95681 -0.106773
21 Ni 0.0653972 6.78996 4.9803
22 Ni -0.183191 9.6351 2.68202
23 Ni 1.77056 6.23643 1.24365
24 Ni 1.90568 8.03517 3.75335
25 Al -0.0194989 6.32061 7.4574
26 Al 2.00295 4.7494 8.66953
27 Al 1.95598 8.07581 6.22038
28 Ni -0.161446 4.31152 4.99877
29 Ni -0.103458 5.96193 9.96212
30 Ni -0.0385069 8.70751 7.57431
31 Ni 1.90122 5.45473 6.25202
32 Ni 1.85368 7.2523 8.61075
33 Al -0.240946 12.127 2.59898
34 Al 1.76521 10.5626 3.89546
35 Al 1.73695 13.7698 1.24853
36 Ni -0.0985134 9.96539 0.0686038
37 Ni -0.102683 11.8523 5.01109
38 Ni -0.139094 14.6222 2.38451
39 Ni 1.74155 11.2093 1.40316
40 Ni 1.84203 12.965 3.64416
41 Al 0.00453848 11.4254 7.40803
42 Al 1.78957 9.78434 8.75943
43 Al 1.73797 12.9969 6.17968
44 Ni 0.0628829 9.20681 5.08936
45 Ni -0.0661707 10.9941 10.0543
46 Ni -0.145968 13.9349 7.30982
47 Ni 1.81477 10.4034 6.32496
48 Ni 1.71548 12.3546 8.60994
49 Al 3.73262 2.12027 2.40073
50 Al 5.69199 0.602539 3.90075
51 Al 5.65183 3.69692 1.07469
52 Ni 3.72374 0.0229378 0.0585877
53 Ni 3.77218 1.71901 4.79672
54 Ni 3.80046 4.55331 2.46373
55 Ni 5.77792 1.18353 1.52141
56 Ni 5.54419 3.15818 3.57616
57 Al 3.83849 1.51588 7.26319
58 Al 5.67581 -0.123328 8.92305
59 Al 5.77488 2.98998 6.00745
60 Ni 3.80876 -0.680281 4.94916
61 Ni 3.73288 0.951522 9.99908
62 Ni 3.81245 3.97977 7.55713
63 Ni 5.78444 0.411238 6.32288
64 Ni 5.65138 2.3517 8.55162
65 Al 3.72276 7.20402 2.31559
66 Al 5.63297 5.59946 3.81715
67 Al 5.58505 8.6467 1.04254
68 Ni 3.70286 5.01439 0.00302516
69 Ni 3.69994 6.67784 4.91108
70 Ni 3.68435 9.66125 2.52861
71 Ni 5.72588 6.16118 1.3477
72 Ni 5.60605 8.00846 3.53991
73 Al 3.92204 6.36805 7.25009
74 Al 5.60081 4.81517 8.84494
75 Al 5.58483 8.04245 5.8951
76 Ni 3.81968 4.15379 5.0729
77 Ni 3.67186 6.11145 9.8487
78 Ni 3.81936 8.95882 7.55093
79 Ni 5.73274 5.5059 6.26255
80 Ni 5.74335 7.31681 8.51169
81 Al 3.66744 12.1385 2.58313
82 Al 5.58611 10.4864 3.93725
83 Al 5.5079 13.7207 1.09267
84 Ni 3.73968 10.0573 -0.0435577
85 Ni 3.74549 11.766 5.12735
86 Ni 3.84271 14.6847 2.5259
87 Ni 5.55782 11.119 1.50808
88 Ni 5.70054 12.9889 3.56026
89 Al 3.68327 11.4373 7.62122
90 Al 5.67608 9.83339 8.90271
91 Al 5.58791 13.0034 6.22525
92 Ni 3.76907 9.33201 4.94665
93 Ni 3.69827 10.9686 9.94787
94 Ni 3.71412 13.9769 7.42697
95 Ni 5.61979 10.6108 6.39208
96 Ni 5.5609 12.3312 8.60488
97 Al 7.62816 2.2298 2.52225
98 Al 9.53811 0.480723 3.92411
99 Al 9.4923 3.74758 0.955862
100 Ni 7.56964 -0.0756351 0.00761357
101 Ni 7.56724 1.84129 4.98301
102 Ni 7.58342 4.79641 2.47677
103 Ni 9.3794 1.12803 1.4416
104 Ni 9.42696 3.11292 3.61483
105 Al 7.49103 1.50872 7.56509
106 Al 9.3812 -0.13269 8.81899
107 Al 9.51236 3.05708 6.12521
108 Ni 7.55323 -0.695924 5.00657
109 Ni 7.72432 0.992803 9.94711
110 Ni 7.47648 4.08599 7.35941
111 Ni 9.38892 0.530158 6.27407
112 Ni 9.53026 2.36219 8.52411
113 Al 7.48137 7.20778 2.47382
114 Al 9.474 5.59195 3.91258
115 Al 9.49777 8.63831 1.10145
116 Ni 7.54693 4.96359 -0.0942978
117 Ni 7.58095 6.7778 4.98103
118 Ni 7.38231 9.5799 2.47351
119 Ni 9.45622 6.11968 1.54373
120 Ni 9.4415 8.10636 3.54138
121 Al 7.59805 6.47491 7.38896
122 Al 9.47563 4.83507 8.82343
123 Al 9.5586 7.85509 6.10162
124 Ni 7.48895 4.2987 4.80628
125 Ni 7.52991 6.00009 9.88311
126 Ni 7.58954 9.03897 7.41285
127 Ni 9.41729 5.41003 6.26653
128 Ni 9.36209 7.30806 8.57966
129 Al 7.50097 11.9793 2.44081
130 Al 9.41628 10.4638 3.97698
131 Al 9.38419 13.6855 1.02377
132 Ni 7.54388 9.92117 0.100735
133 Ni 7.4857 11.7695 4.95293
134 Ni 7.46707 14.5095 2.48887
135 Ni 9.36897 11.1468 1.2495
136 Ni 9.18553 13.0559 3.60112
137 Al 7.5117 11.5418 7.41661
138 Al 9.38166 9.87545 8.78794
139 Al 9.34686 13.0249 6.05201
140 Ni 7.57266 9.23573 4.8954
141 Ni 7.50398 10.9297 9.98844
142 Ni 7.50937 13.9688 7.52017
143 Ni 9.43998 10.3778 6.36381
144 Ni 9.50224 12.3434 8.5483
ITEM: TIMESTEP
2000
ITEM: NUMBER OF ATOMS
144
ITEM: BOX BOUNDS xy xz yz pp pp pp
-8.1651861720482000e-02 1.1443590339138781e+01 -3.6164606285252095e-02
-1.5993792676138996e+00 1.5048870757243053e+01 3.0430853560648131e-03
-1.6757064780330566e-03 9.9043938872180277e+00 -1.5610069335881140e+00
ITEM: ATOMS id element xu yu zu
1 Al -0.129177 2.17551 2.42558
2 Al 1.87647 0.521336 3.93713
3 Al 1.87296 3.69002 1.02607
4 Ni 0.0364244 -0.0773594 0.0689964
5 Ni -0.138326 1.70049 4.9137
6 Ni -0.00264616 4.66091 2.44511
7 Ni 1.86795 1.14907 1.39534
8 Ni 1.90639 3.02631 3.49731
9 Al -0.0526908 1.344 7.41191
10 Al 1.86963 -0.360937 8.9084
11 Al 1.85407 2.82891 5.96664
12 Ni -0.0839156 -0.806718 5.09496
13 Ni -0.026399 0.990983 9.98969
14 Ni -0.0448694 3.71986 7.34812
15 Ni 1.83999 0.331663 6.36862
16 Ni 1.84978 2.28013 8.40462
17 Al -0.161684 7.22154 2.42877
18 Al 1.74744 5.60558 3.92868
19 Al 1.8483 8.65754 1.08892
20 Ni -0.0925451 4.92178 0.0636677
21 Ni -0.133938 6.68887 4.96627
22 Ni -0.0203094 9.67238 2.50145
23 Ni 1.81845 6.09708 1.44398
24 Ni 1.84864 8.06455 3.44731
25 Al 0.095704 6.31818 7.41942
26 Al 1.90654 4.60636 8.8068
27 Al 1.80094 7.95366 5.9107
28 Ni 0.0582361 4.1243 4.90795
29 Ni 0.031564 5.95401 9.90541
30 Ni -0.0528764 8.89625 7.46466
31 Ni 1.8355 5.34522 6.32982
32 Ni 1.79578 7.31819 8.58503
33 Al -0.0684474 12.1976 2.48539
34 Al 1.75461 10.5079 4.02898
35 Al 1.69841 13.7961 1.17771
36 Ni 0.00192449 10.0422 0.0673866
37 Ni -0.1436 11.652 5.03101
38 Ni -0.192446 14.712 2.52084
39 Ni 1.83228 11.1847 1.49363
40 Ni 1.76486 13.2207 3.60456
41 Al -0.116655 11.4832 7.45813
42 Al 1.87279 9.73616 8.87508
43 Al 1.70492 12.9524 6.12232
44 Ni -0.189584 9.23421 4.93724
45 Ni -0.173488 11.0046 9.86937
46 Ni -0.0812326 13.8026 7.54938
47 Ni 1.78595 10.4573 6.52856
48 Ni 1.85451 12.2038 8.51622
49 Al 3.83651 2.03718 2.47939
50 Al 5.56037 0.423194 3.88218
51 Al 5.61243 3.74192 1.15201
52 Ni 3.83221 -0.116642 -0.0199669
53 Ni 3.79292 1.68589 5.02342
54 Ni 3.72051 4.57984 2.3513
55 Ni 5.6131 1.04937 1.32904
56 Ni 5.7198 2.93583 3.62115
57 Al 3.7582 1.24407 7.44813
58 Al 5.71617 -0.281165 8.70465
59 Al 5.72946 2.97918 6.11528
60 Ni 3.72816 -0.837815 4.9835
61 Ni 3.83208 0.838863 9.86099
62 Ni 3.76137 3.75736 7.42211
63 Ni 5.63466 0.475496 6.33191
64 Ni 5.66893 2.26509 8.57048
65 Al 3.73771 7.15415 2.39129
66 Al 5.69375 5.42961 3.86903
67 Al 5.70051 8.65003 1.10568
68 Ni 3.76966 4.98492 -0.0461944
69 Ni 3.80771 6.83952 4.9058
70 Ni 3.70628 9.53392 2.59987
71 Ni 5.64291 6.15212 1.30088
72 Ni 5.5602 8.14963 3.55957
73 Al 3.76546 6.22393 7.33096
74 Al 5.77104 4.76383 8.64275
75 Al 5.65375 7.94449 6.14335
76 Ni 3.7212 4.33616 4.776
77 Ni 3.83049 5.73314 9.88106
78 Ni 3.61589 8.86753 7.50259
79 Ni 5.6863 5.50558 6.32871
80 Ni 5.56665 7.30863 8.58925
81 Al 3.63948 12.078 2.51124
82 Al 5.51495 10.5064 4.00212
83 Al 5.57857 13.8116 1.03661
84 Ni 3.70951 9.88771 0.173093
85 Ni 3.64904 11.7278 4.88716
86 Ni 3.60654 14.5912 2.46134
87 Ni 5.61041 11.1828 1.3299
88 Ni 5.54981 13.1047 3.54896
89 Al 3.76751 11.3454 7.49179
90 Al 5.55819 9.85974 8.85115
91 Al 5.64793 13.0316 6.11959
92 Ni 3.6249 9.19151 5.0805
93 Ni 3.71657 10.9969 9.98086
94 Ni 3.76342 13.8114 7.40386
95 Ni 5.68256 10.4394 6.44652
96 Ni 5.69556 12.2918 8.47627
97 Al 7.5847 2.03714 2.42296
98 Al 9.51103 0.572142 3.90695
99 Al 9.54585 3.71005 1.03993
100 Ni 7.62295 -0.00982928 -0.0538118
101 Ni 7.55664 1.7384 4.95933
102 Ni 7.57461 4.51431 2.46893
103 Ni 9.43686 1.22656 1.34366
104 Ni 9.5805 3.09028 3.49164
105 Al 7.6245 1.35713 7.53462
106 Al 9.42126 -0.195232 8.72962
107 Al 9.55894 3.00594 6.0982
108 Ni 7.64799 -0.847239 4.89103
109 Ni 7.51212 0.871881 9.98689
110 Ni 7.72069 3.80575 7.4104
111 Ni 9.54469 0.321956 6.3436
112 Ni 9.57906 2.25687 8.56867
113 Al 7.43414 7.11153 2.47744
114 Al 9.45309 5.50753 3.83101
115 Al 9.46131 8.80796 1.11293
116 Ni 7.62722 4.94706 0.053851
117 Ni 7.51498 6.83452 4.8868
118 Ni 7.60555 9.67386 2.58095
119 Ni 9.50414 6.30962 1.17763
120 Ni 9.4754 8.13034 3.65358
121 Al 7.63877 6.32487 7.51189
122 Al 9.69767 4.68433 8.66993
123 Al 9.53332 7.92379 6.20666
124 Ni 7.68073 4.28876 5.06616
125 Ni 7.61218 5.93741 9.91603
126 Ni 7.55053 8.82732 7.54773
127 Ni 9.60292 5.47551 6.4237
128 Ni 9.67132 7.2109 8.58035
129 Al 7.53183 12.2079 2.52681
130 Al 9.45587 10.5453 3.85493
131 Al 9.49933 13.8872 1.02592
132 Ni 7.54047 10.0607 0.00621389
133 Ni 7.56967 11.7396 5.00701
134 Ni 7.49731 14.6474 2.41179
135 Ni 9.46251 11.2615 1.54727
136 Ni 9.59022 13.1074 3.5539
137 Al 7.51365 11.385 7.42049
138 Al 9.47209 9.78314 8.91199
139 Al 9.43687 12.9549 6.04714
140 Ni 7.49382 9.31478 5.06434
141 Ni 7.6384 11.0036 9.89618
142 Ni 7.58395 13.9853 7.317
143 Ni 9.40251 10.468 6.38189
144 Ni 9.46289 12.3522 8.55774
ITEM: TIMESTEP
2100
ITEM: NUMBER OF ATOMS
144
ITEM: BOX BOUNDS xy xz yz pp pp pp
-1.0074054145636725e-01 1.1529699473224129e+01 6.0397935968430058e-02
-1.6237319535303956e+00 1.5036262524566272e+01 -2.6499002548154307e-02
-3.0074080964075378e-03 9.9057255888363898e+00 -1.5979678521813885e+00
ITEM: ATOMS id element xu yu zu
1 Al -0.0684012 2.15184 2.57566
2 Al 1.96893 0.49712 3.95332
3 Al 1.76964 3.72287 1.20016
4 Ni -0.131871 -0.105538 0.148533
5 Ni 0.0043676 1.65214 5.04951
6 Ni -0.0574611 4.53874 2.45104
7 Ni 1.85447 1.07895 1.40252
8 Ni 1.84639 3.13684 3.6459
9 Al -0.125924 1.40428 7.42735
10 Al 1.79804 -0.262537 8.8748
11 Al 1.7767 2.93731 6.11704
12 Ni -0.0360313 -0.808353 4.91122
13 Ni -0.161013 0.849286 9.86312
14 Ni -0.144518 3.85852 7.40719
15 Ni 1.84202 0.358483 6.39441
16 Ni 1.81231 2.19324 8.56015
17 Al 0.0170917 7.13993 2.47725
18 Al 1.83262 5.51859 3.81621
19 Al 1.80554 8.73623 1.14662
20 Ni -0.0646603 5.10521 -0.0209069
21 Ni -0.0649166 6.70099 4.94061
22 Ni -0.152352 9.57052 2.44345
23 Ni 1.953 6.27226 1.32464
24 Ni 1.85497 8.01667 3.72902
25 Al -0.164398 6.30899 7.40449
26 Al 1.91118 4.70523 8.75253
27 Al 1.8538 7.8191 6.11264
28 Ni -0.170782 4.26081 4.91595
29 Ni -0.215313 6.01784 9.9407
30 Ni -0.14526 8.82054 7.41972
31 Ni 1.79112 5.40516 6.26878
32 Ni 1.78462 7.2864 8.53165
33 Al -0.0762154 12.1509 2.47737
34 Al 1.85896 10.4971 3.75374
35 Al 1.87913 13.7248 1.16907
36 Ni -0.195349 9.97113 -0.0304754
37 Ni -0.00737649 11.7645 4.90095
38 Ni 0.157222 14.6108 2.58221
39 Ni 1.8529 11.1743 1.37874
40 Ni 1.88822 13.0204 3.58709
41 Al -0.0811743 11.4271 7.4755
42 Al 1.87722 9.63989 8.70973
43 Al 1.87409 12.9857 6.08556
44 Ni -0.0421168 9.29304 4.98938
45 Ni -0.095094 10.9387 10.042
46 Ni -0.0425278 13.8385 7.41528
47 Ni 1.8391 10.387 6.15234
48 Ni 1.75677 12.3953 8.57089
49 Al 3.72776 2.12159 2.48695
50 Al 5.65727 0.591183 3.83687
51 Al 5.68509 3.81328 1.02479
52 Ni 3.68861 -0.0371515 0.0230627
53 Ni 3.80063 1.73146 4.97512
54 Ni 3.90175 4.60953 2.54596
55 Ni 5.74716 1.18725 1.28322
56 Ni 5.70249 3.14832 3.53145
57 Al 3.78057 1.25506 7.4361
58 Al 5.73422 -0.339023 8.79038
59 Al 5.77126 2.76708 6.04764
60 Ni 3.79919 -0.716178 4.86915
61 Ni 3.73864 0.939947 9.97747
62 Ni 3.74017 3.85191 7.33055
63 Ni 5.66204 0.25384 6.34164
64 Ni 5.7622 2.10807 8.47351
65 Al 3.74815 7.29524 2.58803
66 Al 5.7244 5.55275 4.03876
67 Al 5.6762 8.71366 1.1172
68 Ni 3.76107 4.96798 -0.0505599
69 Ni 3.71868 6.65094 5.06819
70 Ni 3.82874 9.73363 2.43645
71 Ni 5.68935 6.16499 1.44948
72 Ni 5.86177 8.00385 3.6925
73 Al 3.74682 6.19157 7.46139
74 Al 5.59252 4.66392 8.79355
75 Al 5.71544 7.80558 6.13827
76 Ni 3.81698 4.18151 4.98355
77 Ni 3.74395 6.03029 9.97387
78 Ni 3.85186 8.80604 7.39179
79 Ni 5.62962 5.32809 6.35189
80 Ni 5.81488 7.11035 8.59316
81 Al 3.82371 12.1735 2.44658
82 Al 5.62182 10.4834 3.95384
83 Al 5.64133 13.8856 1.06072
84 Ni 3.82022 10.1229 -0.00400232
85 Ni 3.81237 11.8274 4.9967
86 Ni 3.90329 14.6725 2.4315
87 Ni 5.80706 11.2558 1.50544
88 Ni 5.69062 13.137 3.58942
89 Al 3.65384 11.2995 7.52747
90 Al 5.69416 9.65671 8.87492
91 Al 5.71453 12.9303 6.14534
92 Ni 3.82246 9.22395 4.95051
93 Ni 3.83619 10.8956 9.84073
94 Ni 3.80345 13.8395 7.45501
95 Ni 5.7631 10.3262 6.31161
96 Ni 5.63485 12.182 8.57479
97 Al 7.61279 2.18028 2.24905
98 Al 9.60082 0.51094 3.83494
99 Al 9.62603 3.6395 1.02123
100 Ni 7.57252 0.00478023 0.0271835
101 Ni 7.61647 1.62623 4.91652
102 Ni 7.54466 4.61768 2.39123
103 Ni 9.68421 1.14751 1.48187
104 Ni 9.4841 2.93656 3.60489
105 Al 7.69369 1.20347 7.40751
106 Al 9.39848 -0.351773 8.72005
107 Al 9.545 2.89265 6.17587
108 Ni 7.54499 -0.8031 4.9642
109 Ni 7.70522 0.982285 9.75226
110 Ni 7.53987 3.812 7.46428
111 Ni 9.4943 0.344568 6.32773
112 Ni 9.51711 2.22497 8.5199
113 Al 7.61502 7.1022 2.43704
114 Al 9.41297 5.43143 3.79723
115 Al 9.41767 8.6249 1.1591
116 Ni 7.59892 5.09139 0.0278816
117 Ni 7.64132 6.64581 4.98207
118 Ni 7.67744 9.6515 2.53509
119 Ni 9.59331 6.07453 1.51435
120 Ni 9.53665 8.00099 3.48935
121 Al 7.60076 6.14485 7.46015
122 Al 9.54851 4.67517 8.82921
123 Al 9.58169 7.85495 6.00494
124 Ni 7.51776 4.09694 4.94548
125 Ni 7.54859 5.9545 9.90876
126 Ni 7.56477 8.73623 7.43348
127 Ni 9.3814 5.23739 6.2547
128 Ni 9.32582 7.28974 8.51174
129 Al 7.69573 12.2178 2.53211
130 Al 9.55829 10.5268 3.83282
131 Al 9.59271 13.8049 1.10711
132 Ni 7.63077 10.0014 0.0534212
133 Ni 7.69972 11.8125 5.0406
134 Ni 7.7331 14.69 2.4131
135 Ni 9.57767 11.1955 1.34538
136 Ni 9.58278 13.0422 3.70486
137 Al 7.58003 11.2 7.44975
138 Al 9.47879 9.77718 8.87823
139 Al 9.57465 12.9159 6.15412
140 Ni 7.64113 9.2862 4.97016
141 Ni 7.55244 10.9286 10.0092
142 Ni 7.56927 13.6014 7.43308
143 Ni 9.64751 10.4163 6.36601
144 Ni 9.56962 12.1476 8.60952
ITEM: TIMESTEP
2200
ITEM: NUMBER OF ATOMS
144
ITEM: BOX BOUNDS xy xz yz pp pp pp
-2.5814717555676530e-02 1.1453482894020549e+01 3.9847409725030432e-02
-1.6369297079523346e+00 1.5018360650418181e+01 -7.2392316076211717e-03
3.7514679513721561e-03 9.8989667127886047e+00 -1.6290674807514176e+00
ITEM: ATOMS id element xu yu zu
1 Al -0.0439909 2.10024 2.43057
2 Al 1.7542 0.485286 3.76006
3 Al 1.76741 3.72353 1.18591
4 Ni 0.0221988 0.0672898 -0.11524
5 Ni -0.0951892 1.6332 4.92253
6 Ni -0.0213409 4.60212 2.55813
7 Ni 1.91155 1.32979 1.31113
8 Ni 1.82642 2.97421 3.5931
9 Al -0.0225855 1.38492 7.52117
10 Al 1.93135 -0.39974 8.71945
11 Al 1.85945 2.88045 6.15543
12 Ni 0.0245597 -0.859247 4.98418
13 Ni 0.0129359 0.901854 10.0356
14 Ni -0.118454 3.72235 7.51468
15 Ni 1.85082 0.414191 6.25352
16 Ni 1.87719 2.20905 8.57599
17 Al -0.0862154 7.06677 2.50548
18 Al 1.7674 5.4156 4.00655
19 Al 1.85101 8.77418 1.18628
20 Ni -0.092156 4.8828 -0.0242469
21 Ni 0.0150679 6.72673 5.03301
22 Ni 0.0306426 9.64384 2.50477
23 Ni 1.80305 6.21647 1.44347
24 Ni 1.70361 8.07779 3.49465
25 Al 0.0385705 6.23996 7.37743
26 Al 1.86653 4.6354 8.86976
27 Al 1.98132 7.79738 6.01136
28 Ni 0.0353873 4.20008 5.06356
29 Ni 0.0103089 5.72325 9.93485
30 Ni -0.00231571 8.73151 7.42325
31 Ni 1.93898 5.36801 6.46363
32 Ni 1.80697 7.12376 8.6405
33 Al 0.0604527 12.1393 2.43864
34 Al 1.84275 10.5044 3.86281
35 Al 1.83099 13.9698 1.1328
36 Ni 0.107836 10.025 0.0136323
37 Ni 0.0527145 11.7001 5.03428
38 Ni -0.140089 14.6172 2.34306
39 Ni 1.97976 11.3164 1.3139
40 Ni 1.94 13.0664 3.58329
41 Al -0.111051 11.2688 7.46247
42 Al 1.99173 9.60888 8.71329
43 Al 1.93523 12.8304 6.07403
44 Ni 0.0419746 9.13147 4.94751
45 Ni -0.0160318 10.9383 9.80152
46 Ni 0.0538952 13.7729 7.43817
47 Ni 1.98283 10.4264 6.37608
48 Ni 2.02749 12.113 8.46175
49 Al 3.71055 2.18933 2.49227
50 Al 5.6079 0.392164 3.98551
51 Al 5.74411 3.82258 1.16008
52 Ni 3.88026 0.0834734 0.0471323
53 Ni 3.66985 1.56197 4.8992
54 Ni 3.67081 4.73648 2.40765
55 Ni 5.65417 1.20604 1.54933
56 Ni 5.67613 3.003 3.55271
57 Al 3.77947 1.18877 7.45698
58 Al 5.77664 -0.333596 8.8894
59 Al 5.67248 2.88214 6.00369
60 Ni 3.74687 -0.918656 5.03353
61 Ni 3.75476 0.8878 9.87384
62 Ni 3.81717 3.79378 7.55846
63 Ni 5.62573 0.327849 6.23743
64 Ni 5.63316 2.22683 8.55841
65 Al 3.68822 7.14842 2.61443
66 Al 5.63904 5.48528 3.94326
67 Al 5.58069 8.68557 1.01692
68 Ni 3.75754 5.0404 0.0586157
69 Ni 3.78115 6.6776 5.02138
70 Ni 3.7918 9.61858 2.46927
71 Ni 5.73296 6.25995 1.42497
72 Ni 5.64402 8.16851 3.46666
73 Al 3.70506 6.20471 7.47908
74 Al 5.70945 4.80376 8.79738
75 Al 5.65544 7.95242 6.00225
76 Ni 3.71752 4.17289 4.99825
77 Ni 3.72012 5.93424 9.92429
78 Ni 3.76464 8.89019 7.35279
79 Ni 5.58883 5.31906 6.3868
80 Ni 5.59736 7.34369 8.51531
81 Al 3.92148 12.1883 2.46189
82 Al 5.69749 10.4676 3.87138
83 Al 5.71271 13.8809 1.14144
84 Ni 3.7429 10.017 -0.144806
85 Ni 3.82233 11.5465 4.84345
86 Ni 3.78191 14.7195 2.57873
87 Ni 5.69534 11.2247 1.24735
88 Ni 5.82344 12.983 3.6167
89 Al 3.87933 11.3284 7.52988
90 Al 5.68009 9.77785 8.80319
91 Al 5.82768 13.0215 6.13371
92 Ni 3.78462 9.24437 4.82646
93 Ni 3.79088 10.9659 9.95402
94 Ni 3.80829 13.7904 7.42552
95 Ni 5.72952 10.3729 6.32254
96 Ni 5.77484 12.2957 8.57419
97 Al 7.53149 2.02551 2.52614
98 Al 9.55045 0.542918 3.86382
99 Al 9.43921 3.68814 1.14251
100 Ni 7.63285 -0.0643869 0.106665
101 Ni 7.60122 1.64024 4.93151
102 Ni 7.66381 4.66792 2.61114
103 Ni 9.37725 1.1286 1.34557
104 Ni 9.62047 3.10267 3.52691
105 Al 7.58254 1.20895 7.45491
106 Al 9.43386 -0.190679 8.83574
107 Al 9.48909 2.93912 6.14318
108 Ni 7.68727 -0.876673 5.09296
109 Ni 7.50638 0.752258 10.0095
110 Ni 7.52505 3.58528 7.33914
111 Ni 9.60805 0.333693 6.35405
112 Ni 9.36057 2.16489 8.48461
113 Al 7.64257 7.18262 2.51498
114 Al 9.51487 5.56273 3.88733
115 Al 9.57177 8.73174 1.13957
116 Ni 7.58197 4.83401 -0.0216919
117 Ni 7.6164 6.65493 4.97051
118 Ni 7.64038 9.57191 2.41511
119 Ni 9.40746 6.28493 1.3252
120 Ni 9.56026 8.05534 3.63362
121 Al 7.54279 6.25494 7.44742
122 Al 9.40179 4.58564 8.73035
123 Al 9.56387 7.82733 6.06609
124 Ni 7.64524 4.29935 4.89587
125 Ni 7.58803 5.87569 9.97109
126 Ni 7.65198 8.78714 7.36954
127 Ni 9.57413 5.41542 6.42231
128 Ni 9.55105 7.09459 8.49714
129 Al 7.57951 12.0611 2.46817
130 Al 9.5518 10.5183 3.84311
131 Al 9.52186 13.6961 1.0432
132 Ni 7.62444 10.0187 -0.0278854
133 Ni 7.62298 11.5949 5.00443
134 Ni 7.60493 14.5593 2.68081
135 Ni 9.4839 11.1788 1.44398
136 Ni 9.55921 12.976 3.54514
137 Al 7.64281 11.3117 7.47323
138 Al 9.50541 9.63803 8.87375
139 Al 9.5714 12.8387 6.09109
140 Ni 7.61483 9.08362 4.88148
141 Ni 7.72746 10.8846 9.92447
142 Ni 7.7166 13.9004 7.53283
143 Ni 9.44221 10.26 6.34656
144 Ni 9.5823 12.2637 8.50737
ITEM: TIMESTEP
2300
ITEM: NUMBER OF ATOMS
144
ITEM: BOX BOUNDS xy xz yz pp pp pp
-1.3330732784822288e-01 1.1483369930512422e+01 -6.3203760053549801e-02
-1.6325578907781038e+00 1.5055567251496990e+01 1.8206364370294888e-02
-9.2474193475036159e-03 9.9119656000874805e+00 -1.5874890624983864e+00
ITEM: ATOMS id element xu yu zu
1 Al -0.0327595 2.15863 2.53731
2 Al 1.8213 0.503435 3.9442
3 Al 1.78462 3.57214 1.09223
4 Ni -0.0804893 -0.0989002 0.139971
5 Ni -0.0926363 1.7091 4.99108
6 Ni -0.169128 4.61238 2.53321
7 Ni 1.73863 1.0091 1.48209
8 Ni 1.7307 3.11891 3.56922
9 Al -0.0711256 1.19622 7.38422
10 Al 1.87085 -0.347349 8.81179
11 Al 1.86603 2.8319 6.05829
12 Ni -0.186385 -0.819464 4.92568
13 Ni -0.107842 0.92208 9.84214
14 Ni 0.0385767 3.70511 7.41793
15 Ni 1.87725 0.147833 6.36944
16 Ni 1.80357 2.16353 8.49248
17 Al -0.123974 7.18271 2.51849
18 Al 1.68973 5.4484 3.87242
19 Al 1.79981 8.722 1.08856
20 Ni -0.0832919 5.0849 0.124535
21 Ni -0.215536 6.77087 4.92187
22 Ni -0.135998 9.65384 2.55631
23 Ni 1.84948 6.19207 1.40741
24 Ni 1.97632 8.04409 3.60109
25 Al -0.132798 6.29013 7.23559
26 Al 1.79424 4.82661 8.86507
27 Al 1.79653 7.73977 6.00269
28 Ni -0.138756 4.22234 4.93862
29 Ni -0.127809 6.0709 9.89332
30 Ni -0.0873823 8.77668 7.49736
31 Ni 1.85977 5.31565 6.2764
32 Ni 1.8873 7.3693 8.43078
33 Al -0.161282 12.1201 2.47908
34 Al 1.82587 10.4537 3.91047
35 Al 1.77382 13.6655 1.14294
36 Ni -0.185756 10.0772 0.00737984
37 Ni -0.197104 11.7879 4.79927
38 Ni -0.0748364 14.6805 2.5469
39 Ni 1.72466 11.0894 1.50279
40 Ni 1.67532 13.1177 3.53934
41 Al -0.110982 11.3415 7.4429
42 Al 1.92486 9.74391 8.852
43 Al 1.76628 12.833 5.94232
44 Ni -0.219083 9.2637 4.96456
45 Ni -0.0876925 10.9428 9.96658
46 Ni -0.181224 13.7559 7.36732
47 Ni 1.85995 10.3731 6.2807
48 Ni 1.71731 12.4011 8.55642
49 Al 3.72642 1.99461 2.53651
50 Al 5.65673 0.472363 3.95503
51 Al 5.71168 3.61411 1.07818
52 Ni 3.65665 -0.0688466 -0.0203338
53 Ni 3.8391 1.65239 4.98352
54 Ni 3.76568 4.49364 2.63654
55 Ni 5.69557 1.10234 1.25554
56 Ni 5.67609 3.01937 3.71843
57 Al 3.77477 1.18856 7.48248
58 Al 5.72757 -0.359806 8.87216
59 Al 5.72817 2.95263 6.25113
60 Ni 3.83887 -0.740827 4.90272
61 Ni 3.7412 0.861703 9.97777
62 Ni 3.70566 3.84765 7.4519
63 Ni 5.72654 0.315727 6.48303
64 Ni 5.63432 2.19914 8.60765
65 Al 3.76021 7.04212 2.43897
66 Al 5.78435 5.45793 3.87499
67 Al 5.66666 8.62115 1.1131
68 Ni 3.77402 5.04822 0.111099
69 Ni 3.75941 6.65064 4.84537
70 Ni 3.71589 9.61765 2.46173
71 Ni 5.64679 6.12898 1.39761
72 Ni 5.57293 7.91158 3.63713
73 Al 3.77826 6.22499 7.29241
74 Al 5.63521 4.78881 8.74216
75 Al 5.70314 7.99644 6.09198
76 Ni 3.72498 4.14459 4.96958
77 Ni 3.8639 5.87954 9.8456
78 Ni 3.84415 8.778 7.51589
79 Ni 5.71846 5.39996 6.30204
80 Ni 5.83224 7.23 8.58391
81 Al 3.75922 12.1406 2.46575
82 Al 5.5092 10.4801 3.86246
83 Al 5.63756 13.7948 1.07669
84 Ni 3.78502 9.99568 0.0324904
85 Ni 3.76235 11.7701 5.06484
86 Ni 3.71547 14.6306 2.41595
87 Ni 5.65237 11.1405 1.45436
88 Ni 5.61439 13.1735 3.58319
89 Al 3.66642 11.3328 7.48942
90 Al 5.56376 9.68964 8.8186
91 Al 5.6906 13.0541 6.05887
92 Ni 3.76363 9.15766 4.94954
93 Ni 3.8121 10.95 9.79225
94 Ni 3.71951 13.8394 7.4122
95 Ni 5.71656 10.3796 6.21393
96 Ni 5.59104 12.2515 8.54178
97 Al 7.44848 1.99666 2.53194
98 Al 9.47144 0.594572 3.89466
99 Al 9.46586 3.62417 1.19592
100 Ni 7.54584 0.0373629 -0.0293022
101 Ni 7.53865 1.66903 5.12342
102 Ni 7.52859 4.57895 2.41171
103 Ni 9.4944 1.18645 1.46265
104 Ni 9.42455 2.99049 3.7148
105 Al 7.60994 1.4577 7.66177
106 Al 9.42241 -0.407439 8.90165
107 Al 9.53464 2.88369 6.31686
108 Ni 7.45465 -0.795127 4.91698
109 Ni 7.63971 0.939648 9.94776
110 Ni 7.63215 3.99617 7.62248
111 Ni 9.36443 0.360969 6.4135
112 Ni 9.74435 2.2389 8.59226
113 Al 7.6355 7.13983 2.39937
114 Al 9.34227 5.46967 3.84952
115 Al 9.42673 8.73965 1.20584
116 Ni 7.58911 5.10085 0.0100778
117 Ni 7.57094 6.74296 4.95789
118 Ni 7.62077 9.69382 2.45605
119 Ni 9.51871 6.08007 1.47291
120 Ni 9.49791 8.0895 3.62251
121 Al 7.68333 6.4107 7.43293
122 Al 9.60985 4.6926 8.82039
123 Al 9.47561 7.9999 6.00209
124 Ni 7.51717 4.11667 5.02461
125 Ni 7.62126 5.86724 9.91114
126 Ni 7.62107 8.90133 7.4088
127 Ni 9.45241 5.31034 6.32577
128 Ni 9.57158 7.35327 8.56182
129 Al 7.52233 12.1562 2.38493
130 Al 9.42125 10.5581 3.77997
131 Al 9.43709 13.7502 1.07832
132 Ni 7.60861 10.1085 -0.0760984
133 Ni 7.55132 11.828 4.79015
134 Ni 7.54844 14.7575 2.34519
135 Ni 9.55636 11.2668 1.24202
136 Ni 9.43188 13.1247 3.54686
137 Al 7.59043 11.3782 7.32407
138 Al 9.47678 9.82946 8.72567
139 Al 9.3812 13.0509 6.0879
140 Ni 7.54643 9.3503 4.97276
141 Ni 7.53313 10.9157 9.74368
142 Ni 7.4312 13.8526 7.47312
143 Ni 9.52787 10.5366 6.28528
144 Ni 9.53544 12.2226 8.52241
ITEM: TIMESTEP
2400
ITEM: NUMBER OF ATOMS
144
ITEM: BOX BOUNDS xy xz yz pp pp pp
-6.7902621466999422e-02 1.1428738841606178e+01 -2.8892413038407116e-02
-1.5343947197327321e+00 1.5007732232887770e+01 -5.3313651698618045e-03
-2.2867831581976361e-03 9.9050049638981790e+00 -1.5371609100622401e+00
ITEM: ATOMS id element xu yu zu
1 Al 0.123815 2.12929 2.63966
2 Al 1.84975 0.450598 3.85852
3 Al 1.86699 3.6399 1.18206
4 Ni -0.11789 0.0223774 0.016673
5 Ni -0.0527151 1.74632 5.0157
6 Ni 0.0862997 4.62648 2.49528
7 Ni 1.91166 1.23049 1.4153
8 Ni 1.95412 3.04937 3.73053
9 Al -0.0759043 1.4416 7.59078
10 Al 1.91516 -0.339248 8.78756
11 Al 1.73451 3.04752 6.1931
12 Ni 0.0714686 -0.674565 5.11425
13 Ni -0.0347744 0.994272 10.1185
14 Ni -0.221046 3.89238 7.43114
15 Ni 1.87087 0.599331 6.4044
16 Ni 1.75231 2.21644 8.68091
17 Al -0.101143 7.09808 2.50804
18 Al 1.96039 5.45458 3.85634
19 Al 1.88264 8.79205 1.20307
20 Ni -0.0456455 5.00853 -0.0397326
21 Ni 0.0844882 6.66738 4.9345
22 Ni -0.0788027 9.58657 2.33252
23 Ni 1.86262 6.17541 1.33993
24 Ni 1.75698 8.04969 3.54119
25 Al -0.121059 6.37755 7.4309
26 Al 1.77225 4.71572 8.71103
27 Al 1.76131 7.80957 6.0624
28 Ni -0.0240188 4.25688 4.97163
29 Ni 0.0450446 5.92042 9.97226
30 Ni -0.0608225 8.85019 7.36615
31 Ni 1.77871 5.40908 6.33507
32 Ni 1.85973 7.20184 8.61344
33 Al -0.0394232 12.0576 2.49374
34 Al 1.79963 10.4403 3.79896
35 Al 1.77102 13.7978 1.12598
36 Ni -0.0256073 9.98921 -0.0312609
37 Ni -0.0331516 11.808 5.02742
38 Ni -0.108582 14.6548 2.54706
39 Ni 1.82724 11.2241 1.30526
40 Ni 1.87437 13.0377 3.60741
41 Al -0.142742 11.4639 7.43061
42 Al 1.76114 9.68896 8.83664
43 Al 1.83766 13.0109 6.07367
44 Ni 0.0357785 9.26903 4.88003
45 Ni -0.185839 11.0737 9.77052
46 Ni -0.0789483 13.862 7.49968
47 Ni 1.69046 10.3859 6.34834
48 Ni 1.76044 12.1851 8.53347
49 Al 3.81522 2.01406 2.61652
50 Al 5.66321 0.396683 3.92709
51 Al 5.74974 3.61761 1.14881
52 Ni 3.78043 -0.0519805 -0.037058
53 Ni 3.7635 1.76416 5.11865
54 Ni 3.7648 4.66439 2.50762
55 Ni 5.67678 1.19262 1.50582
56 Ni 5.61108 3.0174 3.59733
57 Al 3.78529 1.35674 7.58289
58 Al 5.71453 -0.259122 8.87009
59 Al 5.77338 3.06972 6.13056
60 Ni 3.66654 -0.803461 4.94161
61 Ni 3.7076 0.974223 10.0015
62 Ni 3.80394 3.82234 7.42667
63 Ni 5.57923 0.471382 6.26993
64 Ni 5.71334 2.22866 8.61983
65 Al 3.86831 7.17208 2.47979
66 Al 5.72301 5.55331 3.85931
67 Al 5.6871 8.58511 1.04163
68 Ni 3.71713 4.90935 -0.0596015
69 Ni 3.78429 6.89038 5.05685
70 Ni 3.80731 9.57539 2.57475
71 Ni 5.77149 6.13748 1.31594
72 Ni 5.79493 8.1812 3.59264
73 Al 3.74454 6.22757 7.36138
74 Al 5.67884 4.75452 8.78794
75 Al 5.70378 8.07892 6.02104
76 Ni 3.79832 4.33257 5.08654
77 Ni 3.66046 5.85109 9.93686
78 Ni 3.59981 8.87945 7.49182
79 Ni 5.71278 5.47824 6.41163
80 Ni 5.56575 7.32233 8.48128
81 Al 3.73349 11.9849 2.44818
82 Al 5.60286 10.5681 3.918
83 Al 5.62337 13.739 1.02802
84 Ni 3.71749 10.0793 0.0499365
85 Ni 3.61059 11.7343 4.83716
86 Ni 3.68453 14.5431 2.46054
87 Ni 5.64907 11.1897 1.30912
88 Ni 5.57094 12.9969 3.44193
89 Al 3.70924 11.3605 7.54819
90 Al 5.56213 9.81097 8.81104
91 Al 5.65773 13.065 5.89002
92 Ni 3.76853 9.28617 5.01675
93 Ni 3.62296 10.8914 10.009
94 Ni 3.66034 13.8401 7.48445
95 Ni 5.52151 10.3839 6.43019
96 Ni 5.61675 12.3756 8.39171
97 Al 7.54656 1.99445 2.54938
98 Al 9.44601 0.601367 3.85642
99 Al 9.57045 3.7613 1.19415
100 Ni 7.60353 0.0975951 -0.100865
101 Ni 7.59776 1.84961 4.91667
102 Ni 7.64543 4.56502 2.53457
103 Ni 9.51176 1.15708 1.35153
104 Ni 9.54755 3.06201 3.50142
105 Al 7.49517 1.33895 7.57609
106 Al 9.43851 -0.178309 8.92402
107 Al 9.51509 2.93685 6.06201
108 Ni 7.61899 -0.789657 4.89611
109 Ni 7.58731 0.873429 10.0536
110 Ni 7.66557 3.80959 7.34209
111 Ni 9.49913 0.466436 6.34089
112 Ni 9.44877 2.32901 8.54724
113 Al 7.63265 7.00089 2.43431
114 Al 9.56228 5.52561 3.83606
115 Al 9.45742 8.79154 1.08452
116 Ni 7.64217 4.94872 0.0674932
117 Ni 7.63135 6.81581 4.99678
118 Ni 7.56523 9.55445 2.50553
119 Ni 9.50412 6.3131 1.26422
120 Ni 9.50615 8.04451 3.47837
121 Al 7.59168 6.38671 7.46601
122 Al 9.4021 4.71679 8.7842
123 Al 9.56048 7.97781 5.90032
124 Ni 7.63582 4.3654 4.98761
125 Ni 7.57636 5.92599 9.87677
126 Ni 7.52085 8.85892 7.4657
127 Ni 9.56934 5.57594 6.34326
128 Ni 9.4946 7.25083 8.4821
129 Al 7.48728 12.0268 2.54494
130 Al 9.50879 10.4596 3.82865
131 Al 9.50304 13.6734 1.11036
132 Ni 7.54515 9.93433 0.0355304
133 Ni 7.54748 11.7454 4.98756
134 Ni 7.51646 14.5768 2.39843
135 Ni 9.44573 11.1693 1.41961
136 Ni 9.46251 12.9949 3.49589
137 Al 7.54428 11.3685 7.42023
138 Al 9.42523 9.75575 8.83349
139 Al 9.52273 13.0232 5.99677
140 Ni 7.61752 9.23624 4.9776
141 Ni 7.61823 11.0391 9.99694
142 Ni 7.59433 13.937 7.26392
143 Ni 9.38591 10.37 6.26822
144 Ni 9.39471 12.4123 8.42176
ITEM: TIMESTEP
2500
ITEM: NUMBER OF ATOMS
144
ITEM: BOX BOUNDS xy xz yz pp pp pp
-5.8762577439874022e-02 1.1513625691371178e+01 7.6601747771651379e-02
-1.5566178426425255e+00 1.5057354115392403e+01 -1.6798632187800994e-02
-5.1112423004457952e-03 9.9078294230404307e+00 -1.5097621504673933e+00
ITEM: ATOMS id element xu yu zu
1 Al -0.0190421 2.09948 2.52494
2 Al 1.80946 0.425996 3.87289
3 Al 1.86423 3.61704 1.04259
4 Ni -0.0599628 -0.0299214 -0.0420699
5 Ni -0.0249327 1.76679 4.99295
6 Ni -0.120482 4.56071 2.48537
7 Ni 1.87215 1.09866 1.45667
8 Ni 1.82492 3.06587 3.56585
9 Al -0.0260375 1.55312 7.4839
10 Al 1.93741 -0.200752 8.82228
11 Al 1.87119 3.04893 6.03904
12 Ni -0.154464 -0.915104 4.89041
13 Ni -0.0516646 0.951596 9.87533
14 Ni 0.131877 3.91295 7.50865
15 Ni 1.88075 0.30296 6.41186
16 Ni 1.95922 2.31607 8.57827
17 Al -0.0182563 7.13887 2.49261
18 Al 1.80874 5.49989 3.87686
19 Al 1.86161 8.73402 1.14427
20 Ni -0.0185011 4.91489 0.00753584
21 Ni -0.168222 6.83839 5.0373
22 Ni 0.0262279 9.59104 2.53847
23 Ni 1.92825 6.14441 1.44582
24 Ni 1.94746 8.15982 3.63092
25 Al -0.132283 6.34927 7.36305
26 Al 1.90604 4.76811 8.94943
27 Al 1.75169 8.05449 6.1273
28 Ni 0.00715036 4.25047 5.02742
29 Ni -0.0630724 5.92525 9.81824
30 Ni -0.135712 8.92573 7.41414
31 Ni 1.97017 5.51101 6.3919
32 Ni 1.8161 7.41848 8.52007
33 Al -0.0569045 12.1711 2.48488
34 Al 1.86471 10.6424 3.81554
35 Al 2.00035 13.721 1.05839
36 Ni -0.0599612 9.93798 0.0231447
37 Ni -0.0767306 11.7017 4.89412
38 Ni 0.0197308 14.6779 2.39076
39 Ni 1.85887 11.0986 1.31021
40 Ni 1.94141 13.1785 3.56072
41 Al 0.144074 11.5618 7.50628
42 Al 1.95178 9.87738 8.79835
43 Al 1.90525 13.1232 5.91504
44 Ni -0.158138 9.23625 5.02978
45 Ni -0.0183586 10.9233 9.95108
46 Ni -0.0501031 13.9441 7.41647
47 Ni 1.93545 10.6525 6.263
48 Ni 1.92532 12.5147 8.48336
49 Al 3.88354 2.1355 2.513
50 Al 5.75067 0.551209 3.87912
51 Al 5.80666 3.61931 1.07214
52 Ni 3.71843 0.0369981 0.00459496
53 Ni 3.76153 1.77785 4.92276
54 Ni 3.81635 4.56047 2.43908
55 Ni 5.68593 1.05586 1.32363
56 Ni 5.80983 3.14251 3.57738
57 Al 3.82701 1.34037 7.42634
58 Al 5.76823 -0.324212 8.81544
59 Al 5.71157 2.92894 6.07477
60 Ni 3.83099 -0.741422 5.01388
61 Ni 3.84233 0.946507 9.97062
62 Ni 3.80507 3.88373 7.50665
63 Ni 5.70792 0.268449 6.39132
64 Ni 5.74061 2.32285 8.47813
65 Al 3.73234 7.21939 2.41333
66 Al 5.74039 5.53516 3.79254
67 Al 5.76026 8.69366 1.22184
68 Ni 3.89025 4.96506 0.0588308
69 Ni 3.76643 6.67079 4.99175
70 Ni 3.76303 9.7169 2.40632
71 Ni 5.63558 6.26502 1.47144
72 Ni 5.57385 8.0287 3.58636
73 Al 3.89478 6.4192 7.44165
74 Al 5.63324 4.81109 8.92499
75 Al 5.7339 8.09167 5.93243
76 Ni 3.75172 4.21194 4.91069
77 Ni 3.87476 6.05246 9.94952
78 Ni 3.98771 8.96457 7.37481
79 Ni 5.64557 5.33519 6.255
80 Ni 5.77483 7.34582 8.60467
81 Al 3.791 12.1402 2.51624
82 Al 5.77296 10.5483 3.78472
83 Al 5.72151 13.7211 1.26297
84 Ni 3.74786 10.0117 -0.125753
85 Ni 3.8795 11.8698 5.00685
86 Ni 3.84184 14.7469 2.51899
87 Ni 5.67822 11.1579 1.48066
88 Ni 5.80333 13.1729 3.71434
89 Al 3.90882 11.4563 7.44276
90 Al 5.68638 9.77603 8.79721
91 Al 5.87199 12.9992 6.08593
92 Ni 3.78785 9.38233 4.8993
93 Ni 3.83498 11.0816 9.73396
94 Ni 3.83725 13.9808 7.44692
95 Ni 5.83053 10.5259 6.32684
96 Ni 5.69323 12.3075 8.63473
97 Al 7.61332 2.05982 2.42605
98 Al 9.45817 0.496983 3.82471
99 Al 9.52693 3.67798 1.13359
100 Ni 7.62731 -0.170681 0.0626064
101 Ni 7.67733 1.67022 4.9137
102 Ni 7.58692 4.68673 2.40714
103 Ni 9.49019 1.14172 1.44795
104 Ni 9.51342 3.0737 3.60072
105 Al 7.58128 1.23932 7.44709
106 Al 9.45366 -0.280916 8.96818
107 Al 9.52248 2.93825 6.10234
108 Ni 7.55322 -0.742145 5.03797
109 Ni 7.52884 1.02108 9.77793
110 Ni 7.49286 3.84085 7.39743
111 Ni 9.66052 0.335989 6.26888
112 Ni 9.40684 2.2972 8.48255
113 Al 7.60132 7.09822 2.46679
114 Al 9.56557 5.53549 3.87524
115 Al 9.58302 8.68309 1.16023
116 Ni 7.56825 5.03952 -0.0304486
117 Ni 7.58254 6.75928 4.8652
118 Ni 7.67534 9.69646 2.35514
119 Ni 9.50907 6.04972 1.50781
120 Ni 9.55912 8.07783 3.6238
121 Al 7.51463 6.23739 7.42956
122 Al 9.41066 4.67311 8.87558
123 Al 9.33533 7.93514 6.10181
124 Ni 7.61002 4.20676 4.92055
125 Ni 7.53562 6.10128 9.93656
126 Ni 7.60976 8.95823 7.32806
127 Ni 9.49372 5.3463 6.37063
128 Ni 9.44292 7.35413 8.51042
129 Al 7.70657 12.208 2.49474
130 Al 9.46511 10.4963 3.84884
131 Al 9.62823 13.7538 1.1477
132 Ni 7.56653 9.96595 -0.0161535
133 Ni 7.70134 11.8164 5.02801
134 Ni 7.70521 14.6373 2.60272
135 Ni 9.50509 11.0852 1.33339
136 Ni 9.54854 13.1286 3.67998
137 Al 7.68626 11.4594 7.561
138 Al 9.49419 9.7661 8.8775
139 Al 9.55406 13.027 6.18844
140 Ni 7.59445 9.2276 4.90666
141 Ni 7.6131 10.9658 9.93059
142 Ni 7.62062 13.8616 7.56019
143 Ni 9.54416 10.4874 6.41158
144 Ni 9.6821 12.3059 8.698
ITEM: TIMESTEP
2600
ITEM: NUMBER OF ATOMS
144
ITEM: BOX BOUNDS xy xz yz pp pp pp
-4.3094331393370156e-02 1.1502768918996932e+01 8.1866954132217715e-02
-1.5540381857448138e+00 1.5048757384772099e+01 -1.7252364876098821e-02
-2.8775498163311042e-02 9.9314936789032995e+00 -1.5157792241899710e+00
ITEM: ATOMS id element xu yu zu
1 Al -0.0905976 2.09355 2.44993
2 Al 1.89708 0.476783 3.67596
3 Al 1.90372 3.75783 0.942539
4 Ni 0.0317629 -0.132538 0.0825572
5 Ni -0.0434558 1.7705 4.90295
6 Ni -0.0368893 4.60705 2.50942
7 Ni 1.82897 1.0913 1.27778
8 Ni 1.85364 3.01707 3.5593
9 Al -0.0169204 1.42316 7.34765
10 Al 1.96942 -0.387812 8.83696
11 Al 1.81419 3.03179 5.98383
12 Ni 0.0840378 -0.697833 5.03255
13 Ni -0.046481 0.897034 9.90061
14 Ni -0.124916 3.86592 7.42413
15 Ni 1.90397 0.44375 6.22723
16 Ni 1.78056 2.33251 8.4655
17 Al -0.0746277 7.14783 2.45068
18 Al 1.83807 5.4856 3.87536
19 Al 1.85405 8.84683 1.18248
20 Ni -0.054217 4.97438 0.00405527
21 Ni 0.0573922 6.74729 4.94009
22 Ni -0.0866793 9.72353 2.50486
23 Ni 1.74721 6.18022 1.35889
24 Ni 1.76665 8.0295 3.51845
25 Al -0.0152277 6.35357 7.42278
26 Al 1.70137 4.70712 8.81067
27 Al 1.74078 7.9037 6.02368
28 Ni -0.0754911 4.21153 4.92538
29 Ni -0.0545252 6.00176 10.0455
30 Ni 0.0615116 8.82242 7.50079
31 Ni 1.8199 5.40054 6.3407
32 Ni 1.95453 7.38169 8.54623
33 Al 0.011628 12.2342 2.48232
34 Al 1.96902 10.6064 3.83897
35 Al 2.02198 13.7054 1.11186
36 Ni -0.00189995 10.0725 0.00976674
37 Ni 0.0731688 11.9331 4.99001
38 Ni 0.0815083 14.5966 2.59286
39 Ni 1.96958 11.2783 1.44309
40 Ni 1.95067 13.092 3.56727
41 Al 0.0500256 11.3973 7.4724
42 Al 2.00938 9.80867 9.08499
43 Al 2.02582 13.0496 6.06313
44 Ni 0.104296 9.35066 4.97117
45 Ni 0.0584838 11.0167 9.93509
46 Ni 0.245048 13.8511 7.45929
47 Ni 1.94872 10.2803 6.41754
48 Ni 1.87335 12.1842 8.59482
49 Al 3.70399 2.13915 2.25766
50 Al 5.73525 0.548359 3.82977
51 Al 5.6899 3.70001 1.02989
52 Ni 3.81035 -0.0737184 0.0624569
53 Ni 3.77091 1.62206 4.81328
54 Ni 3.65671 4.63522 2.55471
55 Ni 5.68125 1.3226 1.34387
56 Ni 5.48188 2.98599 3.50687
57 Al 3.69401 1.44903 7.40452
58 Al 5.66807 -0.151006 8.78856
59 Al 5.63924 2.99276 6.09538
60 Ni 3.68986 -0.86002 4.98115
61 Ni 3.70878 1.0353 9.8076
62 Ni 3.79381 3.98641 7.33111
63 Ni 5.69698 0.509531 6.40713
64 Ni 5.67593 2.28698 8.53116
65 Al 3.72646 7.12465 2.32375
66 Al 5.73747 5.41589 3.84681
67 Al 5.84881 8.6584 1.03558
68 Ni 3.66668 5.21529 -0.0765139
69 Ni 3.79597 6.74772 4.93904
70 Ni 3.79931 9.48001 2.45353
71 Ni 5.68106 6.20878 1.26162
72 Ni 5.74625 8.11445 3.54362
73 Al 3.7724 6.35819 7.41799
74 Al 5.65801 4.73182 8.85742
75 Al 5.68512 8.01583 6.01069
76 Ni 3.75113 4.22423 4.95984
77 Ni 3.72571 6.01821 9.96367
78 Ni 3.75109 8.85292 7.5199
79 Ni 5.6836 5.43114 6.42479
80 Ni 5.72975 7.34063 8.49977
81 Al 3.84091 12.1944 2.49774
82 Al 5.70855 10.5196 3.676
83 Al 5.90062 13.9321 1.17323
84 Ni 3.85912 9.96925 0.020919
85 Ni 3.85804 11.7649 4.90869
86 Ni 3.87197 14.6724 2.48263
87 Ni 5.82648 11.2528 1.25081
88 Ni 5.6809 13.1539 3.65764
89 Al 3.87848 11.4219 7.54208
90 Al 5.6859 9.82281 8.73138
91 Al 5.85128 13.0319 6.02981
92 Ni 3.83707 9.18641 4.95867
93 Ni 3.88755 11.0564 10.0557
94 Ni 3.83477 13.9139 7.44009
95 Ni 5.74861 10.3593 6.31336
96 Ni 5.76088 12.3809 8.55441
97 Al 7.67008 2.14962 2.40503
98 Al 9.46112 0.42948 3.91608
99 Al 9.60585 3.77623 1.1516
100 Ni 7.56347 0.00353925 0.0912372
101 Ni 7.63806 1.69329 4.87169
102 Ni 7.59371 4.60463 2.55647
103 Ni 9.62393 1.08213 1.27272
104 Ni 9.55192 3.01313 3.55319
105 Al 7.65808 1.50243 7.58913
106 Al 9.5888 -0.300889 8.84338
107 Al 9.51479 3.00452 6.04208
108 Ni 7.60459 -0.806875 5.05186
109 Ni 7.66816 0.940957 9.89608
110 Ni 7.71857 3.84662 7.53183
111 Ni 9.42485 0.480411 6.41568
112 Ni 9.65906 2.24126 8.55634
113 Al 7.56481 6.96005 2.47647
114 Al 9.52275 5.56022 3.83558
115 Al 9.51703 8.89505 1.15497
116 Ni 7.6366 4.8998 -0.0238505
117 Ni 7.54263 6.68817 5.01909
118 Ni 7.55779 9.60611 2.44581
119 Ni 9.46828 6.20289 1.29655
120 Ni 9.48618 8.06819 3.59128
121 Al 7.56738 6.26741 7.51275
122 Al 9.49056 4.69095 8.81092
123 Al 9.52933 7.95866 6.0812
124 Ni 7.52534 4.152 5.03727
125 Ni 7.64079 5.90411 9.91917
126 Ni 7.64324 8.8533 7.47048
127 Ni 9.50526 5.50818 6.37675
128 Ni 9.55845 7.26912 8.60827
129 Al 7.74434 12.2163 2.48692
130 Al 9.4959 10.5568 3.86236
131 Al 9.64253 13.8515 1.08964
132 Ni 7.74261 10.0655 0.0253072
133 Ni 7.54576 11.7156 4.95982
134 Ni 7.71443 14.7482 2.5759
135 Ni 9.68553 11.34 1.42748
136 Ni 9.54513 13.0583 3.61022
137 Al 7.59766 11.4149 7.45777
138 Al 9.5849 9.75217 8.87073
139 Al 9.64439 13.1371 6.10124
140 Ni 7.62471 9.22334 5.05831
141 Ni 7.70784 11.0608 10.0593
142 Ni 7.66113 13.9486 7.66986
143 Ni 9.44018 10.3841 6.2867
144 Ni 9.46863 12.3515 8.57072
ITEM: TIMESTEP
2700
ITEM: NUMBER OF ATOMS
144
ITEM: BOX BOUNDS xy xz yz pp pp pp
-5.9000137415836831e-02 1.1437531574816539e+01 -2.0258374202187308e-02
-1.5056705904635577e+00 1.5017551870766502e+01 3.7298132554606967e-03
1.6881901415386480e-02 9.8858362793245931e+00 -1.4986171429143254e+00
ITEM: ATOMS id element xu yu zu
1 Al -0.106174 2.28055 2.48355
2 Al 1.82787 0.505441 3.80569
3 Al 1.87959 3.83576 1.11499
4 Ni -0.139688 0.0917534 -0.0656296
5 Ni -0.027545 1.77177 4.97358
6 Ni -0.0852477 4.72563 2.41417
7 Ni 1.97452 1.24492 1.36313
8 Ni 1.94604 3.15116 3.57893
9 Al -0.141163 1.34356 7.46413
10 Al 1.82411 -0.274101 8.78619
11 Al 1.77626 2.93149 6.07173
12 Ni -0.172213 -0.840531 5.00896
13 Ni -0.0594563 1.08502 9.87135
14 Ni -0.0257384 3.74388 7.37118
15 Ni 1.91779 0.328261 6.38705
16 Ni 1.84121 2.26581 8.52753
17 Al 0.0248126 7.1505 2.5081
18 Al 1.86186 5.53857 3.85275
19 Al 2.00224 8.77427 1.24643
20 Ni -0.02679 5.08136 -0.0832956
21 Ni -0.146298 6.74777 4.9828
22 Ni 0.00342075 9.56926 2.45535
23 Ni 1.89285 6.27912 1.37269
24 Ni 1.93531 8.08463 3.61515
25 Al -0.0337107 6.30542 7.31116
26 Al 1.82697 4.6119 8.77739
27 Al 1.66764 8.07778 6.04328
28 Ni -0.0226569 4.28998 4.93322
29 Ni -0.0617779 6.0103 9.90338
30 Ni -0.045629 8.8931 7.42895
31 Ni 1.8435 5.39411 6.289
32 Ni 1.75285 7.17216 8.5591
33 Al -0.0944889 12.1475 2.53216
34 Al 1.85078 10.594 3.91604
35 Al 1.76812 13.7284 1.21149
36 Ni -0.0566025 10.0893 0.0549296
37 Ni -0.0904055 11.653 5.11814
38 Ni -0.142052 14.7761 2.41961
39 Ni 1.8614 11.202 1.34795
40 Ni 1.96086 13.0814 3.70417
41 Al 0.0102216 11.4126 7.64951
42 Al 1.84768 9.78928 8.86487
43 Al 1.86178 13.1118 6.20092
44 Ni -0.140727 9.16341 4.99401
45 Ni -0.100442 11.0558 9.96627
46 Ni -0.304556 13.756 7.37903
47 Ni 1.86997 10.509 6.39452
48 Ni 1.8983 12.3848 8.64704
49 Al 3.81398 2.13539 2.54896
50 Al 5.70985 0.444706 3.7673
51 Al 5.74817 3.57403 1.0944
52 Ni 3.73413 0.0121439 -0.0274994
53 Ni 3.76785 1.87661 5.06697
54 Ni 3.82232 4.55891 2.41125
55 Ni 5.69374 1.03913 1.48677
56 Ni 5.79324 3.09959 3.58489
57 Al 3.75704 1.37394 7.49834
58 Al 5.74114 -0.093571 8.7798
59 Al 5.57802 3.04856 6.07015
60 Ni 3.84205 -0.755923 4.96468
61 Ni 3.71062 0.990077 9.91196
62 Ni 3.69079 3.73905 7.48988
63 Ni 5.63157 0.38207 6.17222
64 Ni 5.65943 2.40313 8.5406
65 Al 3.77237 7.11301 2.42467
66 Al 5.75938 5.44331 3.84162
67 Al 5.63802 8.71879 1.22751
68 Ni 3.75725 4.86142 0.0203361
69 Ni 3.75199 6.72528 5.00005
70 Ni 3.87087 9.72777 2.65346
71 Ni 5.78017 6.12645 1.47741
72 Ni 5.68627 8.02271 3.67441
73 Al 3.69316 6.26103 7.39548
74 Al 5.66939 4.78795 8.85217
75 Al 5.72022 8.02878 6.02968
76 Ni 3.76693 4.26921 4.97105
77 Ni 3.78649 5.90266 9.86813
78 Ni 3.84498 8.8704 7.4434
79 Ni 5.7264 5.46123 6.29482
80 Ni 5.61711 7.2888 8.56001
81 Al 3.70421 12.1857 2.51924
82 Al 5.67953 10.4695 3.97737
83 Al 5.77185 13.7597 1.06326
84 Ni 3.74807 10.1796 0.0484073
85 Ni 3.70605 11.7657 5.05686
86 Ni 3.72714 14.5652 2.42909
87 Ni 5.66902 11.1407 1.5651
88 Ni 5.71469 12.9636 3.54011
89 Al 3.71015 11.386 7.58462
90 Al 5.64974 9.81505 8.84611
91 Al 5.65681 12.8657 5.94147
92 Ni 3.78872 9.17471 5.0652
93 Ni 3.68666 11.0446 9.94861
94 Ni 3.84739 14.016 7.42477
95 Ni 5.66421 10.4662 6.50732
96 Ni 5.72383 12.3962 8.5264
97 Al 7.59192 2.13342 2.56095
98 Al 9.41946 0.518986 3.86145
99 Al 9.54355 3.84092 1.02425
100 Ni 7.68776 0.0104679 -0.0738682
101 Ni 7.46807 1.75213 5.02449
102 Ni 7.60304 4.58415 2.38731
103 Ni 9.42396 1.26014 1.49347
104 Ni 9.46911 3.06812 3.56396
105 Al 7.57567 1.50517 7.46231
106 Al 9.35036 -0.159485 8.83644
107 Al 9.53056 2.94517 5.96822
108 Ni 7.57993 -0.774676 4.83462
109 Ni 7.48201 0.981983 10.0073
110 Ni 7.45994 3.97135 7.37796
111 Ni 9.39328 0.312481 6.23419
112 Ni 9.374 2.34919 8.45709
113 Al 7.57547 7.15637 2.43589
114 Al 9.50247 5.61104 3.72326
115 Al 9.51912 8.72314 1.12091
116 Ni 7.55789 5.14713 0.0271373
117 Ni 7.67174 6.78659 4.90398
118 Ni 7.61613 9.70449 2.59546
119 Ni 9.50944 6.20538 1.45822
120 Ni 9.47362 8.11949 3.61388
121 Al 7.56836 6.49083 7.38933
122 Al 9.39709 4.7722 8.71536
123 Al 9.44709 8.04321 6.074
124 Ni 7.65823 4.34349 4.86745
125 Ni 7.56282 6.03277 9.89188
126 Ni 7.54388 8.97479 7.4618
127 Ni 9.54754 5.29485 6.31145
128 Ni 9.49849 7.41539 8.53652
129 Al 7.68457 12.1726 2.50517
130 Al 9.58087 10.5622 3.87881
131 Al 9.50508 13.7762 1.04848
132 Ni 7.44929 9.94193 0.0539222
133 Ni 7.66631 11.7674 4.98074
134 Ni 7.58902 14.6072 2.3862
135 Ni 9.35745 11.075 1.3812
136 Ni 9.52241 13.156 3.63682
137 Al 7.58723 11.4963 7.42285
138 Al 9.51623 9.76645 8.85683
139 Al 9.48462 12.8933 6.03345
140 Ni 7.57095 9.27066 4.97207
141 Ni 7.53506 11.0304 9.78768
142 Ni 7.56308 13.9014 7.21516
143 Ni 9.52964 10.4869 6.38721
144 Ni 9.53043 12.3708 8.49496
ITEM: TIMESTEP
2800
ITEM: NUMBER OF ATOMS
144
ITEM: BOX BOUNDS xy xz yz pp pp pp
-1.0030161451195169e-01 1.1458068498990349e+01 -4.8571197998084688e-02
-1.6016999254569324e+00 1.5057743145295158e+01 1.1278084129054936e-02
-2.5795241186601814e-02 9.9285134219265814e+00 -1.5544552033790664e+00
ITEM: ATOMS id element xu yu zu
1 Al -0.169086 2.0758 2.44259
2 Al 1.84416 0.513844 3.85475
3 Al 1.96913 3.69656 1.10883
4 Ni -0.0434508 -0.0412006 -0.0115596
5 Ni -0.127299 1.68811 4.91673
6 Ni -0.00758319 4.5434 2.49429
7 Ni 1.74742 1.14155 1.44676
8 Ni 1.79699 2.97041 3.57179
9 Al -0.0583702 1.51616 7.514
10 Al 1.89895 -0.313566 9.00559
11 Al 1.84941 2.93483 6.11415
12 Ni -0.0573399 -0.783817 4.8906
13 Ni -0.104987 0.902262 9.93127
14 Ni -0.09098 3.93149 7.3978
15 Ni 1.83925 0.423697 6.35259
16 Ni 1.87981 2.32524 8.555
17 Al -0.0308001 7.03474 2.46012
18 Al 1.8319 5.40876 3.95842
19 Al 1.74425 8.6829 1.1615
20 Ni -0.0513159 4.92112 0.0603602
21 Ni 0.0357876 6.71118 4.96225
22 Ni -0.13475 9.72651 2.52958
23 Ni 1.89773 6.08677 1.39477
24 Ni 1.82561 8.05405 3.64378
25 Al 0.0155296 6.42012 7.36706
26 Al 1.85517 4.63474 8.87126
27 Al 1.80697 8.03288 6.00191
28 Ni -0.0761501 4.08286 4.946
29 Ni -0.0212434 5.98846 9.91073
30 Ni -0.157099 8.81546 7.4112
31 Ni 1.88116 5.41192 6.39844
32 Ni 1.88373 7.4307 8.52551
33 Al -0.100573 12.1992 2.5323
34 Al 1.8376 10.5733 3.92743
35 Al 1.81603 13.7634 1.02925
36 Ni -0.100099 9.97473 -0.0380963
37 Ni -0.147642 11.8129 4.84621
38 Ni -0.12617 14.6101 2.47663
39 Ni 1.67703 11.1883 1.48898
40 Ni 1.70459 13.1518 3.47224
41 Al -0.234758 11.4311 7.41213
42 Al 1.72874 9.89656 8.95689
43 Al 1.77859 13.114 5.99682
44 Ni -0.0500065 9.25889 5.03894
45 Ni -0.0486946 10.9942 9.95625
46 Ni 0.0931688 14.0386 7.42136
47 Ni 1.76686 10.3214 6.36396
48 Ni 1.66497 12.3165 8.45192
49 Al 3.71098 2.14294 2.43866
50 Al 5.74588 0.515839 3.91537
51 Al 5.74805 3.76539 1.10046
52 Ni 3.75258 -0.0109063 -0.0359547
53 Ni 3.82674 1.66586 4.95318
54 Ni 3.7264 4.69775 2.52927
55 Ni 5.66308 1.1727 1.24036
56 Ni 5.61685 3.03286 3.65981
57 Al 3.69438 1.32081 7.51442
58 Al 5.59578 -0.343816 8.75338
59 Al 5.69468 2.85162 6.1046
60 Ni 3.65821 -0.863932 4.96737
61 Ni 3.82612 0.920256 9.97045
62 Ni 3.84013 3.90331 7.4271
63 Ni 5.69888 0.346246 6.52145
64 Ni 5.68496 2.1216 8.57475
65 Al 3.71402 7.15653 2.48167
66 Al 5.7157 5.49489 3.83732
67 Al 5.68445 8.75985 1.16556
68 Ni 3.76163 5.01378 -0.0257819
69 Ni 3.84417 6.80472 4.94689
70 Ni 3.59726 9.55376 2.41326
71 Ni 5.57828 6.29856 1.27352
72 Ni 5.70863 8.2206 3.59071
73 Al 3.77256 6.36417 7.51274
74 Al 5.75829 4.60756 8.79552
75 Al 5.65979 8.05926 6.0689
76 Ni 3.789 4.20896 4.95449
77 Ni 3.7409 6.02777 10.0241
78 Ni 3.71121 8.87068 7.56887
79 Ni 5.67597 5.41224 6.35599
80 Ni 5.79274 7.39378 8.60842
81 Al 3.65124 12.1529 2.52283
82 Al 5.65615 10.5547 3.81947
83 Al 5.65062 13.8103 1.09822
84 Ni 3.72711 9.9139 0.0879754
85 Ni 3.71577 11.8155 4.95115
86 Ni 3.72502 14.6636 2.52713
87 Ni 5.553 11.1827 1.41746
88 Ni 5.58644 13.2075 3.60981
89 Al 3.57613 11.2804 7.44808
90 Al 5.64043 9.76562 8.88169
91 Al 5.56215 13.021 6.05738
92 Ni 3.73601 9.40118 4.98314
93 Ni 3.62174 10.8647 9.92994
94 Ni 3.54496 13.7573 7.40031
95 Ni 5.65174 10.411 6.32942
96 Ni 5.54144 12.1618 8.54956
97 Al 7.55526 2.10889 2.38886
98 Al 9.42879 0.358344 3.77203
99 Al 9.47388 3.72423 1.11242
100 Ni 7.45646 -0.0930086 -0.0142903
101 Ni 7.6836 1.64785 4.79465
102 Ni 7.55772 4.65203 2.50888
103 Ni 9.51615 1.11601 1.234
104 Ni 9.50349 3.02827 3.50735
105 Al 7.70036 1.32835 7.43589
106 Al 9.5063 -0.441003 8.76668
107 Al 9.56653 3.02145 5.98731
108 Ni 7.59324 -0.745651 4.93334
109 Ni 7.68405 0.935101 9.81991
110 Ni 7.74394 3.67262 7.46824
111 Ni 9.59447 0.417614 6.30484
112 Ni 9.57251 2.2787 8.56466
113 Al 7.58733 7.06629 2.44152
114 Al 9.46959 5.52873 3.80033
115 Al 9.5204 8.80328 1.10613
116 Ni 7.59624 4.94231 -0.0948673
117 Ni 7.51744 6.71609 5.03303
118 Ni 7.56901 9.50393 2.47541
119 Ni 9.52206 6.16028 1.34383
120 Ni 9.56518 7.99284 3.59995
121 Al 7.53408 6.37111 7.40441
122 Al 9.48815 4.73504 8.75469
123 Al 9.58864 7.93172 5.98108
124 Ni 7.49594 4.15869 4.93415
125 Ni 7.58434 5.96572 9.97117
126 Ni 7.62981 8.77216 7.59798
127 Ni 9.4346 5.50763 6.37076
128 Ni 9.45614 7.27979 8.58163
129 Al 7.50726 11.9751 2.53374
130 Al 9.46536 10.5153 3.92875
131 Al 9.46278 13.7869 1.03694
132 Ni 7.65661 10.0998 0.0398912
133 Ni 7.52647 11.8187 4.96643
134 Ni 7.47911 14.6742 2.39327
135 Ni 9.67344 11.3059 1.42861
136 Ni 9.36872 13.097 3.51479
137 Al 7.59136 11.3161 7.52039
138 Al 9.60391 9.70135 8.91788
139 Al 9.5064 13.0784 5.98421
140 Ni 7.60246 9.20111 5.03748
141 Ni 7.60248 10.9922 10.0738
142 Ni 7.5722 13.81 7.46965
143 Ni 9.48806 10.3486 6.36782
144 Ni 9.48864 12.3334 8.58976
ITEM: TIMESTEP
2900
ITEM: NUMBER OF ATOMS
144
ITEM: BOX BOUNDS xy xz yz pp pp pp
-1.4413918969072553e-02 1.1451197615690241e+01 4.5675851310152671e-02
-1.5921899844867791e+00 1.5027232460251447e+01 -3.9521529364047571e-03
8.8517388323676727e-03 9.8938664419076225e+00 -1.5754559474526162e+00
ITEM: ATOMS id element xu yu zu
1 Al 0.0773695 2.07809 2.41039
2 Al 1.87717 0.464554 3.80505
3 Al 1.95947 3.79061 1.15146
4 Ni -0.0359891 -0.0395159 0.00100428
5 Ni 0.0779129 1.8018 4.92714
6 Ni -0.072906 4.62692 2.51272
7 Ni 2.00854 1.1279 1.23958
8 Ni 1.83961 3.11556 3.57761
9 Al 0.00552988 1.44076 7.44352
10 Al 1.86804 -0.337847 8.67346
11 Al 1.87757 2.96721 6.11666
12 Ni 0.0128959 -0.861939 4.91571
13 Ni 0.0766196 0.891175 9.81397
14 Ni 0.0553706 3.83056 7.54274
15 Ni 1.87428 0.326413 6.22613
16 Ni 1.93682 2.31999 8.50828
17 Al -0.10161 7.12807 2.53298
18 Al 1.81676 5.51441 3.78905
19 Al 1.91681 8.7457 1.15884
20 Ni -0.0321575 4.94746 0.0429304
21 Ni -0.0710766 6.83958 4.9644
22 Ni 0.00495388 9.59664 2.46116
23 Ni 1.81353 6.21802 1.35784
24 Ni 1.81989 8.10062 3.58669
25 Al 0.034198 6.34356 7.37583
26 Al 1.91518 4.58447 8.81149
27 Al 1.77109 8.03906 6.01039
28 Ni 0.0909928 4.35085 5.06752
29 Ni -0.0879807 5.91577 9.99513
30 Ni -0.000652477 8.89735 7.52686
31 Ni 1.93189 5.43279 6.34958
32 Ni 1.89603 7.12885 8.61441
33 Al 0.00503668 11.9861 2.45779
34 Al 1.9125 10.4674 3.84442
35 Al 1.80483 13.6887 1.17389
36 Ni -0.0911514 10.0292 0.118658
37 Ni -0.0476748 11.657 5.00332
38 Ni 0.0401693 14.648 2.47655
39 Ni 1.97807 11.2622 1.25829
40 Ni 1.96845 13.0443 3.60431
41 Al -0.0327322 11.3201 7.51195
42 Al 1.94549 9.78999 8.75649
43 Al 1.94531 13.0626 6.17124
44 Ni -0.0576068 9.1883 4.97223
45 Ni -0.102647 10.8679 9.87424
46 Ni -0.0830777 13.778 7.45797
47 Ni 1.95157 10.4018 6.20908
48 Ni 2.04409 12.2552 8.54798
49 Al 3.76192 2.16286 2.50435
50 Al 5.70661 0.505969 3.79923
51 Al 5.68481 3.66371 1.02329
52 Ni 3.80293 -0.0385061 0.00869469
53 Ni 3.68852 1.72375 4.91622
54 Ni 3.78995 4.51569 2.4339
55 Ni 5.62198 1.13761 1.46034
56 Ni 5.7529 3.08251 3.45862
57 Al 3.81842 1.39086 7.4247
58 Al 5.61099 -0.179787 8.91464
59 Al 5.66228 2.8893 5.87002
60 Ni 3.82307 -0.721131 4.95042
61 Ni 3.71608 0.832909 9.80081
62 Ni 3.76112 3.81092 7.44305
63 Ni 5.63576 0.439541 6.14294
64 Ni 5.83093 2.30046 8.44763
65 Al 3.78925 7.10703 2.44413
66 Al 5.73732 5.4145 3.97254
67 Al 5.65361 8.66616 1.18274
68 Ni 3.8109 5.03933 0.0366694
69 Ni 3.69571 6.63522 5.077
70 Ni 3.92055 9.71653 2.53722
71 Ni 5.75545 6.06913 1.52965
72 Ni 5.65993 7.94844 3.6383
73 Al 3.73768 6.34333 7.47331
74 Al 5.75218 4.61225 8.88858
75 Al 5.80167 7.81878 6.02733
76 Ni 3.79207 4.23003 4.93964
77 Ni 3.84374 5.92311 9.9295
78 Ni 3.87303 8.90127 7.31443
79 Ni 5.64786 5.38097 6.40786
80 Ni 5.75416 7.16915 8.50555
81 Al 3.9493 12.0648 2.4398
82 Al 5.74646 10.4521 3.93427
83 Al 5.81878 13.8459 1.19953
84 Ni 3.82476 9.98137 -0.0541543
85 Ni 3.81036 11.7251 4.88475
86 Ni 3.81027 14.7444 2.4976
87 Ni 5.85947 11.2209 1.2787
88 Ni 5.70108 13.0259 3.6406
89 Al 3.85752 11.378 7.39199
90 Al 5.65562 9.65497 8.75623
91 Al 5.67927 13.0165 6.04708
92 Ni 3.75148 9.0961 4.95727
93 Ni 3.90056 11.0604 9.79338
94 Ni 3.95838 13.9824 7.44229
95 Ni 5.70562 10.3941 6.31221
96 Ni 5.80797 12.4156 8.55046
97 Al 7.59448 2.0451 2.4896
98 Al 9.461 0.485546 3.94858
99 Al 9.45828 3.61858 1.09669
100 Ni 7.6924 -0.0602473 0.0898478
101 Ni 7.57207 1.79958 4.98638
102 Ni 7.6332 4.56773 2.58332
103 Ni 9.48086 1.11972 1.41185
104 Ni 9.53795 3.02287 3.60582
105 Al 7.53186 1.26483 7.44644
106 Al 9.47352 -0.353939 8.86895
107 Al 9.6067 2.92227 6.15718
108 Ni 7.62508 -0.759219 5.04849
109 Ni 7.52934 0.919713 9.85656
110 Ni 7.4884 3.83716 7.53214
111 Ni 9.54798 0.415142 6.35018
112 Ni 9.42271 2.21871 8.45668
113 Al 7.60509 7.16422 2.49491
114 Al 9.46662 5.52255 3.84612
115 Al 9.43087 8.70513 1.14061
116 Ni 7.60947 4.96132 0.121132
117 Ni 7.64613 6.72472 4.94136
118 Ni 7.4969 9.73969 2.48718
119 Ni 9.45542 6.15112 1.53111
120 Ni 9.43416 8.08189 3.62202
121 Al 7.68563 6.34253 7.34982
122 Al 9.41632 4.59825 8.82982
123 Al 9.60993 7.95119 6.07416
124 Ni 7.72962 4.24957 5.05982
125 Ni 7.62624 5.93761 9.95734
126 Ni 7.54049 8.83666 7.33151
127 Ni 9.62084 5.33319 6.39373
128 Ni 9.53706 7.2855 8.57676
129 Al 7.56186 12.1507 2.61422
130 Al 9.4919 10.5269 3.84254
131 Al 9.43491 13.6642 1.17298
132 Ni 7.54457 9.94546 -0.0143212
133 Ni 7.59149 11.6921 4.99613
134 Ni 7.6155 14.6607 2.67224
135 Ni 9.27382 11.1057 1.36112
136 Ni 9.54051 13.0409 3.72015
137 Al 7.60095 11.3715 7.41745
138 Al 9.44194 9.65279 8.77482
139 Al 9.49099 12.9916 6.08222
140 Ni 7.49737 9.26165 4.9285
141 Ni 7.51319 10.9724 9.79222
142 Ni 7.64417 13.88 7.60133
143 Ni 9.44397 10.4514 6.30184
144 Ni 9.43689 12.3082 8.56274
ITEM: TIMESTEP
3000
ITEM: NUMBER OF ATOMS
144
ITEM: BOX BOUNDS xy xz yz pp pp pp
-1.1780105543749320e-01 1.1547171906044118e+01 8.8015689357094806e-02
-1.5901676249820282e+00 1.5034895051240987e+01 -5.3704837097881757e-02
-1.5530763976236095e-02 9.9182489447162361e+00 -1.5657709969583327e+00
ITEM: ATOMS id element xu yu zu
1 Al 0.00848302 2.17524 2.64936
2 Al 1.84572 0.367238 3.97838
3 Al 1.80804 3.80597 1.16111
4 Ni -0.0690438 -0.0725386 -0.0676797
5 Ni -0.0617657 1.65938 4.98019
6 Ni -0.00644825 4.69293 2.55786
7 Ni 1.66494 1.19512 1.40531
8 Ni 1.94881 3.02914 3.56406
9 Al -0.157948 1.28744 7.3954
10 Al 1.84635 -0.358256 8.87868
11 Al 1.81358 2.91596 6.10065
12 Ni -0.0827561 -0.725736 5.10206
13 Ni -0.20982 0.859394 9.9619
14 Ni -0.18211 3.67566 7.37065
15 Ni 1.90402 0.411045 6.35799
16 Ni 1.65241 2.16072 8.56495
17 Al -0.101755 7.10846 2.54517
18 Al 1.84168 5.468 3.89582
19 Al 1.77914 8.68183 1.05628
20 Ni 0.0138221 5.13476 -0.0817381
21 Ni -0.0671878 6.67276 5.07591
22 Ni -0.118139 9.60319 2.50294
23 Ni 1.90364 6.18547 1.48051
24 Ni 1.8907 8.03702 3.6893
25 Al -0.190941 6.30362 7.44254
26 Al 1.8182 4.61955 8.8198
27 Al 1.81451 8.02608 5.99789
28 Ni -0.178677 4.11819 4.93669
29 Ni -0.0623319 5.95901 9.97454
30 Ni -0.0502746 8.85496 7.34974
31 Ni 1.75546 5.31439 6.46385
32 Ni 1.75348 7.35622 8.55351
33 Al 0.0290991 12.0656 2.44674
34 Al 1.82642 10.4074 3.93353
35 Al 1.91991 13.8191 1.03924
36 Ni -0.0117477 9.99408 -0.0851383
37 Ni 0.0201379 11.8538 4.92901
38 Ni 0.0638915 14.5951 2.39573
39 Ni 1.86204 11.1192 1.43857
40 Ni 1.85659 13.0739 3.53124
41 Al -0.0396207 11.3314 7.50448
42 Al 1.82793 9.90863 8.81326
43 Al 1.86979 13.0085 6.06941
44 Ni 0.0283373 9.27725 4.99662
45 Ni 0.130074 11.0037 9.91184
46 Ni -0.0155876 13.7927 7.44635
47 Ni 1.95615 10.4514 6.39639
48 Ni 1.84259 12.2886 8.52842
49 Al 3.77839 2.06565 2.39375
50 Al 5.67789 0.444285 3.88979
51 Al 5.72271 3.75176 1.16092
52 Ni 3.79435 0.0272307 -0.0155722
53 Ni 3.81438 1.69303 4.89468
54 Ni 3.77488 4.70192 2.51257
55 Ni 5.77473 1.1791 1.34566
56 Ni 5.65113 2.95234 3.69701
57 Al 3.71452 1.39467 7.47911
58 Al 5.55869 -0.212617 8.90779
59 Al 5.77738 2.86447 6.05256
60 Ni 3.68807 -0.872756 4.93297
61 Ni 3.74017 1.01685 9.96335
62 Ni 3.68569 3.89329 7.53526
63 Ni 5.69003 0.371711 6.50086
64 Ni 5.44876 2.31741 8.6199
65 Al 3.87617 7.23149 2.49303
66 Al 5.67888 5.50745 3.87807
67 Al 5.70031 8.70538 1.0521
68 Ni 3.67676 4.96937 0.00290417
69 Ni 3.79071 6.78178 4.98334
70 Ni 3.74269 9.52982 2.29769
71 Ni 5.65413 6.19089 1.38674
72 Ni 5.76261 8.2084 3.47739
73 Al 3.68128 6.30655 7.46062
74 Al 5.61719 4.66379 8.79122
75 Al 5.78713 7.95526 6.05865
76 Ni 3.75689 4.23963 5.06647
77 Ni 3.58625 5.85967 10.0643
78 Ni 3.71866 8.84614 7.48719
79 Ni 5.65826 5.46498 6.34928
80 Ni 5.50543 7.38811 8.52617
81 Al 3.85324 12.0033 2.68147
82 Al 5.9024 10.5777 3.81292
83 Al 5.70866 13.7673 1.08264
84 Ni 3.81295 10.1194 -0.0425269
85 Ni 3.87421 11.7158 5.00775
86 Ni 3.90932 14.5909 2.39025
87 Ni 5.58844 11.1642 1.41934
88 Ni 5.82855 13.1511 3.50917
89 Al 3.82894 11.33 7.50366
90 Al 5.72206 9.7621 8.83153
91 Al 5.64632 13.0758 6.05049
92 Ni 3.79462 9.33931 4.83458
93 Ni 3.7514 10.8686 9.95367
94 Ni 3.75904 13.8387 7.40455
95 Ni 5.67501 10.4284 6.21907
96 Ni 5.7272 12.3076 8.60178
97 Al 7.58479 2.08046 2.50906
98 Al 9.52716 0.470062 3.90797
99 Al 9.53256 3.71675 1.14455
100 Ni 7.60242 0.0164428 -0.0158018
101 Ni 7.64719 1.61842 4.80891
102 Ni 7.61425 4.60769 2.39493
103 Ni 9.59769 1.15788 1.47152
104 Ni 9.49109 3.05522 3.49704
105 Al 7.50344 1.46809 7.74487
106 Al 9.44002 -0.385182 8.81636
107 Al 9.46306 2.83341 6.09862
108 Ni 7.54497 -0.86014 4.93723
109 Ni 7.69256 0.898755 10.004
110 Ni 7.68096 3.88763 7.44255
111 Ni 9.3868 0.23245 6.35291
112 Ni 9.62286 2.30743 8.62593
113 Al 7.66826 7.05203 2.52986
114 Al 9.44798 5.50368 3.89434
115 Al 9.55314 8.71252 0.977856
116 Ni 7.57523 5.00823 -0.0897246
117 Ni 7.55582 6.72564 5.07756
118 Ni 7.76675 9.52715 2.43314
119 Ni 9.56698 6.18518 1.36327
120 Ni 9.59638 8.04281 3.611
121 Al 7.52781 6.35856 7.61807
122 Al 9.48824 4.68393 8.80041
123 Al 9.67533 7.89572 6.04372
124 Ni 7.51236 4.21147 4.84597
125 Ni 7.53887 5.85771 9.97572
126 Ni 7.60272 8.86773 7.38804
127 Ni 9.42773 5.44373 6.37261
128 Ni 9.42354 7.27727 8.54555
129 Al 7.65372 12.1317 2.31618
130 Al 9.55096 10.6367 3.8436
131 Al 9.52776 13.8046 1.01615
132 Ni 7.68811 9.96147 0.0159103
133 Ni 7.68331 11.7815 4.87853
134 Ni 7.79381 14.7066 2.52422
135 Ni 9.71564 11.192 1.33451
136 Ni 9.6077 13.1401 3.55764
137 Al 7.64905 11.3841 7.43296
138 Al 9.61284 9.62647 8.7766
139 Al 9.59722 12.9107 5.97649
140 Ni 7.69605 9.28163 4.90281
141 Ni 7.73137 10.8981 9.96095
142 Ni 7.67183 13.8841 7.36877
143 Ni 9.66298 10.4575 6.383
144 Ni 9.6155 12.2388 8.49771
ITEM: TIMESTEP
3100
ITEM: NUMBER OF ATOMS
144
ITEM: BOX BOUNDS xy xz yz pp pp pp
-6.8960671702881587e-02 1.1455472586992693e+01 7.0693700465843824e-03
-1.5684512713017142e+00 1.5024453644913370e+01 -1.5617453104185190e-02
-5.0869436658445011e-03 9.9078051244058312e+00 -1.5544960496056348e+00
ITEM: ATOMS id element xu yu zu
1 Al -0.0395361 2.10043 2.50699
2 Al 1.82245 0.518043 4.0549
3 Al 1.94718 3.75965 1.1741
4 Ni -0.0395611 0.0550125 0.140266
5 Ni -0.200958 1.79816 5.051
6 Ni -0.065558 4.5291 2.55367
7 Ni 1.90949 1.09991 1.42012
8 Ni 1.73333 3.11766 3.68148
9 Al -0.0632483 1.51572 7.54001
10 Al 1.81887 -0.323163 8.7918
11 Al 1.81746 2.90716 6.18783
12 Ni -0.0802852 -0.841781 4.81672
13 Ni -0.0602928 0.977538 9.97087
14 Ni -0.120625 3.8696 7.52505
15 Ni 1.7316 0.295229 6.34043
16 Ni 1.8981 2.35343 8.54397
17 Al -0.0709393 7.15163 2.41608
18 Al 1.86981 5.59593 3.74166
19 Al 1.88459 8.70843 0.980044
20 Ni -0.189743 4.90894 0.112238
21 Ni -0.0633767 6.73789 4.89109
22 Ni 0.122446 9.73842 2.4682
23 Ni 1.80798 6.09176 1.36938
24 Ni 1.89515 8.10431 3.54321
25 Al -0.120811 6.25061 7.29171
26 Al 1.83877 4.68787 8.86238
27 Al 1.7839 7.84346 5.95368
28 Ni -0.00104337 4.29081 4.98171
29 Ni -0.128782 5.99254 9.92675
30 Ni -0.0853618 8.75277 7.47461
31 Ni 1.8846 5.39775 6.33198
32 Ni 1.88725 7.18159 8.49584
33 Al -0.0165605 12.1938 2.51273
34 Al 1.87631 10.5131 3.83675
35 Al 1.72451 13.816 1.06309
36 Ni -0.0583336 10.0034 0.031828
37 Ni -0.11884 11.6324 4.9384
38 Ni -0.105261 14.7857 2.55448
39 Ni 1.86459 11.3629 1.37985
40 Ni 1.89176 13.1959 3.65978
41 Al -0.0419336 11.262 7.45285
42 Al 1.80022 9.83025 8.77938
43 Al 1.69728 12.9166 6.12193
44 Ni -0.0621468 9.1219 4.92193
45 Ni -0.191901 10.9561 9.8911
46 Ni -0.0327758 13.8191 7.38978
47 Ni 1.81392 10.2472 6.22538
48 Ni 1.77308 12.2777 8.5741
49 Al 3.79242 2.06359 2.66686
50 Al 5.72609 0.464061 3.85812
51 Al 5.62022 3.76502 1.10784
52 Ni 3.74717 0.0105574 0.0765971
53 Ni 3.73414 1.72981 5.17809
54 Ni 3.73273 4.44915 2.57321
55 Ni 5.60775 1.04709 1.35369
56 Ni 5.62893 3.13657 3.60523
57 Al 3.80802 1.234 7.5576
58 Al 5.67978 -0.314944 8.84785
59 Al 5.59758 2.95144 6.05868
60 Ni 3.82596 -0.775546 5.02652
61 Ni 3.7555 0.871269 9.96878
62 Ni 3.73413 3.78254 7.48562
63 Ni 5.64397 0.415681 6.3139
64 Ni 5.81306 2.15835 8.55202
65 Al 3.81336 7.12095 2.2912
66 Al 5.74533 5.51323 3.84182
67 Al 5.69975 8.79843 1.1978
68 Ni 3.81004 5.09277 0.0534649
69 Ni 3.83564 6.69265 4.92708
70 Ni 3.78317 9.65313 2.62413
71 Ni 5.685 6.22903 1.30429
72 Ni 5.64552 7.92249 3.63018
73 Al 3.85509 6.2651 7.40043
74 Al 5.70749 4.66372 8.77212
75 Al 5.86417 7.91021 6.17149
76 Ni 3.77857 4.20942 4.94994
77 Ni 3.90695 6.02693 9.80977
78 Ni 3.79068 8.81959 7.44043
79 Ni 5.71454 5.41888 6.30371
80 Ni 5.7853 7.29081 8.564
81 Al 3.8056 12.159 2.35875
82 Al 5.65816 10.4757 3.97449
83 Al 5.59903 13.7525 0.990296
84 Ni 3.77282 10.0049 0.0406676
85 Ni 3.71683 11.8524 4.99258
86 Ni 3.80377 14.6615 2.5711
87 Ni 5.78956 11.2448 1.34385
88 Ni 5.66134 12.9526 3.57299
89 Al 3.75245 11.3022 7.42807
90 Al 5.53356 9.72662 8.82466
91 Al 5.64575 13.0127 5.99132
92 Ni 3.71641 9.25759 4.99743
93 Ni 3.80121 11.0162 9.94279
94 Ni 3.84443 13.7925 7.44784
95 Ni 5.72256 10.4082 6.46007
96 Ni 5.66989 12.2599 8.44018
97 Al 7.53619 2.07053 2.62001
98 Al 9.34993 0.567754 3.83875
99 Al 9.27536 3.63994 1.18514
100 Ni 7.68285 0.0143658 -0.0456413
101 Ni 7.41375 1.80029 5.15922
102 Ni 7.5561 4.6204 2.48761
103 Ni 9.4158 1.19235 1.34319
104 Ni 9.47994 3.06149 3.68144
105 Al 7.53196 1.31989 7.46068
106 Al 9.46981 -0.225088 8.77952
107 Al 9.50636 3.00314 6.2163
108 Ni 7.64659 -0.738956 4.87839
109 Ni 7.45511 0.936182 9.9741
110 Ni 7.46913 3.85334 7.4316
111 Ni 9.53086 0.538613 6.30652
112 Ni 9.38618 2.22986 8.49242
113 Al 7.56676 7.10774 2.37974
114 Al 9.48986 5.50168 3.85086
115 Al 9.42338 8.85022 1.07977
116 Ni 7.63424 5.06534 -0.0606256
117 Ni 7.59988 6.75704 4.81281
118 Ni 7.55009 9.61775 2.56137
119 Ni 9.50106 6.23805 1.33076
120 Ni 9.47232 7.98529 3.56993
121 Al 7.7088 6.27908 7.41996
122 Al 9.46995 4.64194 8.85279
123 Al 9.61512 7.86733 6.06767
124 Ni 7.57025 4.22015 4.97282
125 Ni 7.64218 6.1146 9.82196
126 Ni 7.5797 8.87893 7.61275
127 Ni 9.48387 5.41955 6.27816
128 Ni 9.60109 7.33197 8.57576
129 Al 7.60628 12.171 2.38048
130 Al 9.49821 10.5023 3.77192
131 Al 9.42153 13.8209 1.08179
132 Ni 7.63941 10.1549 -0.00759759
133 Ni 7.62498 11.6623 4.95279
134 Ni 7.5377 14.5317 2.28148
135 Ni 9.57945 11.2304 1.40421
136 Ni 9.46762 12.9955 3.56321
137 Al 7.66799 11.3975 7.44636
138 Al 9.56436 9.68743 8.75323
139 Al 9.54419 13.0634 5.96535
140 Ni 7.51238 9.21824 4.98995
141 Ni 7.61544 10.9826 9.8397
142 Ni 7.63345 13.8535 7.33962
143 Ni 9.47375 10.3507 6.2431
144 Ni 9.54069 12.347 8.53289
ITEM: TIMESTEP
3200
ITEM: NUMBER OF ATOMS
144
ITEM: BOX BOUNDS xy xz yz pp pp pp
-9.1934547391289853e-02 1.1466463924783689e+01 -8.4842539638628131e-02
-1.6059650848157239e+00 1.5052525758191589e+01 6.4311918683624361e-02
-4.9208140354553009e-03 9.9076389947754429e+00 -1.5639377498414160e+00
ITEM: ATOMS id element xu yu zu
1 Al -0.0234521 2.11553 2.53392
2 Al 1.86414 0.311702 3.82902
3 Al 1.78343 3.86074 1.23395
4 Ni -0.0707189 -0.0639391 -0.0333071
5 Ni 0.108027 1.55937 4.96351
6 Ni -0.0463305 4.78227 2.4584
7 Ni 1.83097 1.21259 1.36433
8 Ni 1.87719 3.03375 3.56195
9 Al -0.0161034 1.37753 7.49977
10 Al 1.93313 -0.347185 8.82813
11 Al 1.86911 2.84924 6.13416
12 Ni 0.0250613 -0.877267 5.10727
13 Ni -0.0156374 0.926986 9.94885
14 Ni 0.100576 3.85955 7.45497
15 Ni 1.88758 0.392286 6.39986
16 Ni 1.87067 2.15061 8.67912
17 Al -0.00593874 7.15427 2.48076
18 Al 1.83899 5.45589 3.78786
19 Al 1.80106 8.70179 1.11868
20 Ni 0.0868116 5.04353 -0.0562903
21 Ni -0.0236543 6.74238 4.92947
22 Ni -0.206388 9.67947 2.51373
23 Ni 1.81449 6.30029 1.2515
24 Ni 1.85948 8.09101 3.5578
25 Al 0.0236614 6.45348 7.38321
26 Al 2.03511 4.70544 8.70358
27 Al 1.82027 8.0279 6.05026
28 Ni -0.0844121 4.16193 5.00072
29 Ni 0.0807463 5.9198 9.78439
30 Ni -0.0729153 8.93976 7.36539
31 Ni 1.84562 5.41021 6.32078
32 Ni 1.95359 7.23189 8.56694
33 Al -0.12204 12.0855 2.42574
34 Al 1.83067 10.4418 3.81703
35 Al 1.76961 13.8602 0.961911
36 Ni -0.11194 10.0248 -0.0471546
37 Ni -0.0439213 11.7863 4.95716
38 Ni -0.0331465 14.5717 2.42154
39 Ni 1.79838 11.1028 1.39742
40 Ni 1.84245 12.9766 3.55184
41 Al -0.0253466 11.4855 7.53623
42 Al 1.82683 9.78378 8.75699
43 Al 1.74246 12.9338 6.02538
44 Ni -0.0456061 9.23611 4.92249
45 Ni 0.13016 11.0338 9.94231
46 Ni -0.135654 13.9042 7.54827
47 Ni 1.79235 10.5371 6.40692
48 Ni 1.88143 12.3099 8.54696
49 Al 3.76952 2.24287 2.49135
50 Al 5.62586 0.60368 3.91525
51 Al 5.68334 3.71725 1.15001
52 Ni 3.78581 -0.0742734 -0.0489933
53 Ni 3.66789 1.68739 4.82978
54 Ni 3.72898 4.71454 2.34085
55 Ni 5.66126 1.24383 1.48369
56 Ni 5.70265 2.97986 3.6542
57 Al 3.81675 1.30158 7.40973
58 Al 5.69069 -0.244115 8.89211
59 Al 5.83255 2.84014 6.03603
60 Ni 3.69029 -0.796742 4.92617
61 Ni 3.8261 0.936691 10.025
62 Ni 3.83254 3.81417 7.39581
63 Ni 5.65006 0.230095 6.3289
64 Ni 5.6241 2.25704 8.561
65 Al 3.74343 7.08813 2.42136
66 Al 5.70713 5.46424 3.86643
67 Al 5.68419 8.66844 1.11928
68 Ni 3.73213 4.97815 -0.00550624
69 Ni 3.68076 6.71838 4.87128
70 Ni 3.75016 9.65322 2.46878
71 Ni 5.73584 6.12032 1.45125
72 Ni 5.60251 8.15168 3.48919
73 Al 3.87636 6.26895 7.3506
74 Al 5.85548 4.71746 8.79819
75 Al 5.7304 7.8746 5.97867
76 Ni 3.749 4.18677 4.96029
77 Ni 3.75766 5.88216 9.87536
78 Ni 3.83833 8.83598 7.5193
79 Ni 5.71468 5.29307 6.29125
80 Ni 5.67656 7.29632 8.45053
81 Al 3.62688 12.3174 2.30649
82 Al 5.61979 10.5795 3.82241
83 Al 5.58275 13.8754 1.12795
84 Ni 3.77657 9.94411 -0.0292431
85 Ni 3.74161 11.658 4.99631
86 Ni 3.71406 14.7441 2.4496
87 Ni 5.55442 11.1789 1.39317
88 Ni 5.58496 13.2517 3.62909
89 Al 3.83225 11.2842 7.42136
90 Al 5.74833 9.65308 8.87572
91 Al 5.51877 12.9776 6.09538
92 Ni 3.74094 9.20036 4.97785
93 Ni 3.71692 10.9833 9.75015
94 Ni 3.5861 13.8476 7.42716
95 Ni 5.67353 10.3613 6.35659
96 Ni 5.6507 12.2569 8.56423
97 Al 7.63438 2.19052 2.44098
98 Al 9.62256 0.501407 3.89561
99 Al 9.44678 3.76521 1.1898
100 Ni 7.47239 -0.0437006 0.0434342
101 Ni 7.79697 1.60621 4.81849
102 Ni 7.63603 4.64743 2.57699
103 Ni 9.51527 1.11762 1.44092
104 Ni 9.49718 3.01188 3.49746
105 Al 7.65221 1.34224 7.37872
106 Al 9.37596 -0.235087 8.94809
107 Al 9.6266 2.76078 6.17202
108 Ni 7.55941 -0.825495 5.08702
109 Ni 7.65456 1.03589 9.85722
110 Ni 7.75153 3.70373 7.45788
111 Ni 9.50759 0.213547 6.37733
112 Ni 9.58293 2.30353 8.64126
113 Al 7.54484 7.15722 2.56041
114 Al 9.48718 5.54089 3.93946
115 Al 9.46191 8.70537 0.965647
116 Ni 7.53428 4.90915 0.14059
117 Ni 7.56158 6.65166 4.95845
118 Ni 7.54363 9.67867 2.54638
119 Ni 9.51782 6.21159 1.42474
120 Ni 9.46192 8.15105 3.53847
121 Al 7.61257 6.29429 7.31189
122 Al 9.47282 4.68537 8.89237
123 Al 9.59974 7.89435 6.03235
124 Ni 7.69007 4.19532 5.03793
125 Ni 7.62616 5.85935 10.0165
126 Ni 7.66312 8.83782 7.32932
127 Ni 9.63024 5.40548 6.33845
128 Ni 9.41022 7.29612 8.49771
129 Al 7.48647 12.2389 2.47675
130 Al 9.37603 10.6255 3.95113
131 Al 9.25447 13.8739 1.14855
132 Ni 7.57095 9.94956 0.118872
133 Ni 7.52766 11.7687 4.97859
134 Ni 7.51229 14.8228 2.67135
135 Ni 9.35183 11.2293 1.41343
136 Ni 9.40004 13.1366 3.60714
137 Al 7.51725 11.3263 7.49513
138 Al 9.47788 9.74907 8.84153
139 Al 9.39682 12.9401 6.06123
140 Ni 7.57995 9.22918 4.91227
141 Ni 7.59165 11.086 10.0366
142 Ni 7.52589 13.8106 7.52752
143 Ni 9.45982 10.4236 6.39486
144 Ni 9.36559 12.2551 8.56252
ITEM: TIMESTEP
3300
ITEM: NUMBER OF ATOMS
144
ITEM: BOX BOUNDS xy xz yz pp pp pp
-8.9366110931057091e-02 1.1493260907677854e+01 -2.3366488395539151e-02
-1.5590076685657257e+00 1.5038139297906664e+01 3.2201286794937924e-02
-2.8314806837526518e-02 9.9310329875775132e+00 -1.5313667938763560e+00
ITEM: ATOMS id element xu yu zu
1 Al -0.122588 2.12872 2.52085
2 Al 1.83371 0.617706 3.83344
3 Al 1.82447 3.7081 1.06979
4 Ni 0.00218295 -0.101281 0.0325604
5 Ni -0.132208 1.8104 5.00512
6 Ni -0.0278647 4.53549 2.4162
7 Ni 1.83228 1.09314 1.40354
8 Ni 1.938 3.0558 3.55134
9 Al -0.0110576 1.36149 7.46268
10 Al 1.90513 -0.336543 8.75216
11 Al 1.88257 2.89421 6.04466
12 Ni -0.0796187 -0.761402 4.92315
13 Ni -8.15358e-05 0.882197 9.90749
14 Ni -0.174645 3.72383 7.31199
15 Ni 1.93123 0.418963 6.28557
16 Ni 1.84707 2.37739 8.34335
17 Al -0.0756272 6.98654 2.52481
18 Al 1.89467 5.51158 3.84943
19 Al 1.88606 8.69362 1.11211
20 Ni -0.184335 4.9901 0.0148231
21 Ni -0.0928877 6.71185 5.02179
22 Ni -0.033979 9.63171 2.40721
23 Ni 1.88483 6.08499 1.49417
24 Ni 1.84485 8.10107 3.64678
25 Al -0.023098 6.30878 7.36883
26 Al 1.8147 4.86533 8.86599
27 Al 1.78578 7.91439 6.03927
28 Ni -0.0201881 4.28903 4.94368
29 Ni -0.0969575 5.99838 10.1231
30 Ni -0.0674709 8.89325 7.50139
31 Ni 1.84477 5.43293 6.31125
32 Ni 1.77462 7.39656 8.46282
33 Al -0.175198 12.1233 2.49728
34 Al 1.7329 10.5235 3.80827
35 Al 1.81693 13.6658 1.02069
36 Ni -0.0600652 9.99851 -0.0154986
37 Ni -0.155326 11.7809 5.0552
38 Ni -0.122443 14.7058 2.50374
39 Ni 1.8014 11.3669 1.37927
40 Ni 1.77792 13.1993 3.57131
41 Al -0.0876565 11.3973 7.52031
42 Al 1.83934 9.8275 8.81986
43 Al 1.83827 12.9764 5.97975
44 Ni -0.119365 9.23757 5.0154
45 Ni -0.221502 10.9292 9.94453
46 Ni 0.0246702 13.8145 7.32233
47 Ni 1.84742 10.4216 6.33381
48 Ni 1.80931 12.3142 8.64747
49 Al 3.76026 2.16252 2.44667
50 Al 5.72251 0.515704 3.82917
51 Al 5.75131 3.81368 0.968834
52 Ni 3.71753 -0.0319016 0.0386177
53 Ni 3.87901 1.65207 5.03461
54 Ni 3.86278 4.69007 2.52384
55 Ni 5.78148 1.1588 1.30431
56 Ni 5.70526 3.19091 3.40975
57 Al 3.80596 1.38536 7.38888
58 Al 5.71316 -0.248662 8.89051
59 Al 5.78142 3.00519 6.06842
60 Ni 3.84706 -0.780903 4.99523
61 Ni 3.82547 1.02251 9.79779
62 Ni 3.74613 3.88281 7.37792
63 Ni 5.73968 0.451816 6.426
64 Ni 5.79989 2.26625 8.50625
65 Al 3.72515 7.14687 2.52595
66 Al 5.80622 5.61485 3.8833
67 Al 5.62136 8.81414 1.03106
68 Ni 3.67677 4.95267 0.00379483
69 Ni 3.8421 6.78167 4.97574
70 Ni 3.74758 9.63668 2.39133
71 Ni 5.59357 6.31735 1.32404
72 Ni 5.74479 8.09694 3.63387
73 Al 3.73312 6.2856 7.45852
74 Al 5.72271 4.76344 8.81007
75 Al 5.6389 7.9597 6.01653
76 Ni 3.81918 4.21734 4.97952
77 Ni 3.78515 5.99838 9.94732
78 Ni 3.6791 8.87887 7.35335
79 Ni 5.72429 5.38156 6.40334
80 Ni 5.62429 7.22333 8.57873
81 Al 3.6222 12.1496 2.56585
82 Al 5.68878 10.471 3.75591
83 Al 5.73738 13.7768 1.22821
84 Ni 3.72755 10.1389 -0.0124409
85 Ni 3.68909 11.7991 4.94944
86 Ni 3.7455 14.6236 2.60464
87 Ni 5.79594 11.2511 1.41369
88 Ni 5.66152 12.9755 3.6288
89 Al 3.7598 11.4325 7.53149
90 Al 5.56836 9.6756 8.73351
91 Al 5.66978 12.9872 6.08332
92 Ni 3.76372 9.33193 4.85675
93 Ni 3.86781 10.9748 10.1469
94 Ni 3.95427 13.9254 7.47413
95 Ni 5.56782 10.3933 6.24612
96 Ni 5.68936 12.336 8.71831
97 Al 7.67332 2.19915 2.54774
98 Al 9.48493 0.598218 3.93218
99 Al 9.42529 3.71342 1.0783
100 Ni 7.72922 -0.0934489 0.157958
101 Ni 7.51433 1.64503 5.00723
102 Ni 7.5669 4.68798 2.41954
103 Ni 9.5654 1.22766 1.38028
104 Ni 9.58928 3.13296 3.6017
105 Al 7.72872 1.28428 7.4058
106 Al 9.55919 -0.219366 8.91798
107 Al 9.43741 2.93269 6.04958
108 Ni 7.66711 -0.8571 4.97511
109 Ni 7.68415 0.855332 10.0016
110 Ni 7.56438 3.85688 7.43788
111 Ni 9.62154 0.406749 6.31028
112 Ni 9.49204 2.17834 8.46416
113 Al 7.58183 7.20494 2.42619
114 Al 9.52085 5.55387 3.90912
115 Al 9.4863 8.74705 1.0218
116 Ni 7.65728 5.07628 -0.015037
117 Ni 7.65811 6.71026 5.02251
118 Ni 7.54786 9.64222 2.31549
119 Ni 9.45739 6.13602 1.36593
120 Ni 9.55681 8.02187 3.63062
121 Al 7.56431 6.42501 7.36039
122 Al 9.51807 4.77192 8.82134
123 Al 9.58093 7.95626 6.17308
124 Ni 7.48122 4.24513 4.89341
125 Ni 7.58146 6.0454 9.89698
126 Ni 7.46108 8.77158 7.38361
127 Ni 9.40359 5.40504 6.3811
128 Ni 9.55376 7.3116 8.57484
129 Al 7.67971 12.0835 2.55571
130 Al 9.47857 10.4398 3.84788
131 Al 9.40611 13.7863 1.19408
132 Ni 7.45751 9.95332 -0.149468
133 Ni 7.63581 11.733 4.99799
134 Ni 7.64363 14.6644 2.52205
135 Ni 9.49715 11.229 1.35852
136 Ni 9.54304 13.0699 3.69806
137 Al 7.50475 11.2805 7.47448
138 Al 9.47085 9.72026 8.75857
139 Al 9.48293 13.0124 6.188
140 Ni 7.58963 9.27022 5.01065
141 Ni 7.50153 10.9352 9.90221
142 Ni 7.58065 13.8104 7.56559
143 Ni 9.5052 10.4237 6.3035
144 Ni 9.48167 12.2606 8.67895
ITEM: TIMESTEP
3400
ITEM: NUMBER OF ATOMS
144
ITEM: BOX BOUNDS xy xz yz pp pp pp
-9.0300763973156589e-02 1.1495768591362449e+01 7.6903679497033250e-02
-1.5198266178162878e+00 1.5014351337389856e+01 -6.6495850455126321e-02
1.9657569458203739e-02 9.8830606112817865e+00 -1.5159737036437135e+00
ITEM: ATOMS id element xu yu zu
1 Al -0.126201 2.0982 2.47141
2 Al 1.85329 0.552983 3.85618
3 Al 1.86424 3.77465 1.17749
4 Ni -0.0990796 0.0880781 0.0695683
5 Ni 0.0230286 1.78096 4.90327
6 Ni -0.0146104 4.70377 2.48162
7 Ni 1.89461 1.24812 1.37974
8 Ni 1.87178 3.09333 3.489
9 Al -0.0526746 1.41504 7.36885
10 Al 1.72716 -0.254958 8.84005
11 Al 1.87353 2.9691 6.02765
12 Ni 0.00307685 -0.726588 5.04312
13 Ni -0.10629 1.05456 9.88826
14 Ni 0.0580754 3.81395 7.44309
15 Ni 1.82633 0.402673 6.43811
16 Ni 1.91904 2.18147 8.58888
17 Al -0.070949 7.12092 2.42334
18 Al 1.76714 5.59818 3.89627
19 Al 1.87482 8.73638 1.20274
20 Ni 0.0425014 4.96425 0.0524304
21 Ni -0.105203 6.81774 4.94641
22 Ni -0.0266913 9.63087 2.52741
23 Ni 1.81587 6.17552 1.37585
24 Ni 1.86617 8.06578 3.49307
25 Al -0.0744756 6.39363 7.2921
26 Al 1.89729 4.78654 8.78414
27 Al 1.75313 7.92393 6.10499
28 Ni -0.111685 4.22337 4.9086
29 Ni -0.123016 5.95246 9.81617
30 Ni -0.105968 8.73442 7.40203
31 Ni 1.78184 5.40636 6.44893
32 Ni 1.79548 7.17659 8.56982
33 Al -0.00320786 12.1164 2.4938
34 Al 1.89492 10.5392 3.94847
35 Al 2.02883 13.7278 1.12726
36 Ni -0.0727988 10.0078 0.0393062
37 Ni 0.0984692 11.8277 4.95812
38 Ni 0.0432747 14.6988 2.57811
39 Ni 1.96006 11.0802 1.47895
40 Ni 2.00948 13.0564 3.75401
41 Al 0.0161799 11.2639 7.42143
42 Al 1.8185 9.59113 8.80876
43 Al 1.8658 12.9708 6.0873
44 Ni 0.0337681 9.36834 4.93356
45 Ni 0.0786831 11.0004 9.90949
46 Ni -0.0314763 13.8129 7.49394
47 Ni 1.94415 10.3938 6.36112
48 Ni 1.86226 12.3738 8.56133
49 Al 3.75536 2.11369 2.51845
50 Al 5.73098 0.559317 3.82699
51 Al 5.68945 3.61865 1.15599
52 Ni 3.82827 0.0847692 0.129276
53 Ni 3.68871 1.81559 4.82995
54 Ni 3.65476 4.4802 2.44687
55 Ni 5.72067 1.07995 1.41691
56 Ni 5.62764 2.9702 3.66595
57 Al 3.77547 1.34434 7.32583
58 Al 5.64775 -0.190417 8.72735
59 Al 5.64389 3.09969 6.11019
60 Ni 3.73891 -0.775749 5.04673
61 Ni 3.7798 0.899114 9.89659
62 Ni 3.74181 3.84955 7.46837
63 Ni 5.59925 0.362812 6.27925
64 Ni 5.59956 2.3146 8.52481
65 Al 3.76845 6.9903 2.42356
66 Al 5.73174 5.46999 3.84195
67 Al 5.78793 8.76877 1.0721
68 Ni 3.90874 5.07265 0.00286962
69 Ni 3.63553 6.7345 5.04069
70 Ni 3.74808 9.68737 2.58098
71 Ni 5.75974 6.02086 1.43335
72 Ni 5.60557 8.03445 3.58343
73 Al 3.71062 6.37181 7.44597
74 Al 5.66377 4.94175 8.77378
75 Al 5.70513 8.12177 6.03706
76 Ni 3.65534 4.34386 4.9041
77 Ni 3.68198 6.00411 9.96095
78 Ni 3.77102 8.88691 7.42891
79 Ni 5.61451 5.5275 6.31698
80 Ni 5.69317 7.48017 8.51808
81 Al 3.7961 12.1418 2.61939
82 Al 5.63589 10.4326 3.90064
83 Al 5.78122 13.6359 1.06372
84 Ni 3.77881 9.92393 0.0284066
85 Ni 3.90202 11.8028 5.06552
86 Ni 3.84988 14.6155 2.50462
87 Ni 5.6054 11.1284 1.36683
88 Ni 5.81417 13.0957 3.62546
89 Al 3.6901 11.3503 7.45607
90 Al 5.70101 9.86796 8.85659
91 Al 5.73533 12.9492 6.1209
92 Ni 3.73313 9.14122 5.00227
93 Ni 3.6433 11.0196 9.8473
94 Ni 3.69564 13.9048 7.57865
95 Ni 5.75945 10.4813 6.48853
96 Ni 5.71306 12.3222 8.43472
97 Al 7.54004 2.12983 2.44395
98 Al 9.46267 0.521843 3.97369
99 Al 9.45671 3.78198 1.07701
100 Ni 7.5688 0.0821809 -0.0423321
101 Ni 7.6455 1.91127 4.96781
102 Ni 7.58352 4.5076 2.44673
103 Ni 9.4884 1.08693 1.32145
104 Ni 9.45721 2.98242 3.51349
105 Al 7.53158 1.4689 7.33618
106 Al 9.34618 -0.100519 8.85511
107 Al 9.54204 2.98161 6.07057
108 Ni 7.58623 -0.678482 5.02843
109 Ni 7.552 0.997776 9.86884
110 Ni 7.53872 3.88027 7.33085
111 Ni 9.35738 0.450844 6.36008
112 Ni 9.55375 2.28359 8.52617
113 Al 7.59621 7.05967 2.53471
114 Al 9.51786 5.5719 3.82363
115 Al 9.50181 8.6916 1.14758
116 Ni 7.53488 4.9618 -0.104038
117 Ni 7.46965 6.78641 4.95405
118 Ni 7.64538 9.61629 2.60254
119 Ni 9.55502 6.18649 1.34534
120 Ni 9.45306 8.0879 3.58296
121 Al 7.52237 6.38574 7.34182
122 Al 9.43377 4.76054 8.76289
123 Al 9.37256 7.97738 6.1422
124 Ni 7.64179 4.29152 4.92147
125 Ni 7.56518 5.91834 10.0469
126 Ni 7.6383 9.03358 7.54991
127 Ni 9.45757 5.50724 6.28261
128 Ni 9.47687 7.2335 8.62573
129 Al 7.62058 11.9703 2.41163
130 Al 9.53227 10.5423 3.93194
131 Al 9.56519 13.7342 1.03991
132 Ni 7.71366 10.0839 0.13658
133 Ni 7.65698 11.8092 4.88843
134 Ni 7.6851 14.5977 2.38268
135 Ni 9.65743 11.1887 1.40443
136 Ni 9.52727 13.081 3.52831
137 Al 7.67627 11.4827 7.46211
138 Al 9.61221 9.79466 8.75631
139 Al 9.62556 12.9872 5.98525
140 Ni 7.59539 9.30614 4.91073
141 Ni 7.73683 11.0459 9.92205
142 Ni 7.65731 13.9643 7.29258
143 Ni 9.49039 10.4105 6.33237
144 Ni 9.60837 12.2472 8.41732
ITEM: TIMESTEP
3500
ITEM: NUMBER OF ATOMS
144
ITEM: BOX BOUNDS xy xz yz pp pp pp
-7.9549749357209043e-02 1.1465586383878431e+01 4.2846000390057211e-02
-1.5991934515743988e+00 1.5064262079621223e+01 -5.1869364216227572e-02
-4.1924523180448148e-02 9.9446427039204472e+00 -1.5454297951704623e+00
ITEM: ATOMS id element xu yu zu
1 Al -0.0571039 2.10133 2.5389
2 Al 1.77385 0.468864 3.81514
3 Al 1.74808 3.76085 1.21054
4 Ni 0.0409124 -0.0604347 -0.103731
5 Ni -0.170889 1.62627 4.95798
6 Ni -0.1567 4.61018 2.45224
7 Ni 1.84308 1.10978 1.41314
8 Ni 1.88758 2.88166 3.63972
9 Al -0.145957 1.38279 7.46199
10 Al 1.85388 -0.418673 8.84159
11 Al 1.79691 2.95965 6.10641
12 Ni -0.164814 -0.901438 4.9085
13 Ni -0.0649518 0.824503 9.90857
14 Ni -0.168212 3.91864 7.45158
15 Ni 1.82238 0.355743 6.2756
16 Ni 1.66978 2.34885 8.50814
17 Al -0.0954241 7.0922 2.4865
18 Al 1.86939 5.40879 3.79915
19 Al 1.93453 8.78182 1.1214
20 Ni -0.168961 4.98015 -0.117592
21 Ni -0.0283586 6.66557 5.00561
22 Ni -0.0150137 9.67344 2.54288
23 Ni 1.81901 6.18518 1.41694
24 Ni 1.85249 8.04336 3.72139
25 Al -0.0199727 6.42166 7.35092
26 Al 1.82855 4.86101 8.74325
27 Al 1.90444 8.03586 6.17293
28 Ni -0.0940922 4.29503 5.05413
29 Ni -0.0254476 5.90488 9.99071
30 Ni -0.00682148 8.97932 7.52927
31 Ni 2.00154 5.49182 6.21565
32 Ni 1.90832 7.37075 8.51211
33 Al -0.0655067 12.0737 2.43378
34 Al 1.87274 10.5421 3.87983
35 Al 2.02971 13.5889 1.09423
36 Ni 0.098325 10.0212 -0.051097
37 Ni -0.0836856 11.7073 4.92316
38 Ni -0.0139802 14.5984 2.45215
39 Ni 1.8537 11.1887 1.2417
40 Ni 1.93462 13.0885 3.54682
41 Al -0.129852 11.5064 7.53308
42 Al 1.90261 9.75229 8.82823
43 Al 1.81437 13.0277 5.96189
44 Ni -0.0967113 9.20212 4.97331
45 Ni -0.0127183 10.9699 9.95404
46 Ni 0.0407539 13.9922 7.42049
47 Ni 1.88511 10.5013 6.34138
48 Ni 1.8643 12.2056 8.59663
49 Al 3.764 2.14318 2.62392
50 Al 5.6352 0.52304 3.87229
51 Al 5.67676 3.70768 1.06051
52 Ni 3.65576 -0.227089 -0.167625
53 Ni 3.77515 1.67146 5.05784
54 Ni 3.85203 4.64574 2.45933
55 Ni 5.61051 1.14154 1.33583
56 Ni 5.70254 3.02206 3.41864
57 Al 3.67078 1.27633 7.49316
58 Al 5.55812 -0.278498 8.8626
59 Al 5.74099 2.88966 6.09195
60 Ni 3.74007 -0.878523 4.93537
61 Ni 3.65446 0.879895 9.96659
62 Ni 3.7698 3.96166 7.46923
63 Ni 5.74663 0.471442 6.41579
64 Ni 5.6345 2.33065 8.53178
65 Al 3.77269 7.14137 2.4351
66 Al 5.74458 5.56679 3.87656
67 Al 5.74872 8.68674 1.02033
68 Ni 3.65588 4.95543 -0.0195499
69 Ni 3.89106 6.72112 4.94795
70 Ni 3.84864 9.47341 2.45553
71 Ni 5.64274 6.23297 1.35184
72 Ni 5.77275 8.10265 3.70252
73 Al 3.77083 6.36711 7.46888
74 Al 5.63466 4.70112 8.88642
75 Al 5.66535 8.04125 6.14074
76 Ni 3.80329 4.03855 4.95729
77 Ni 3.74785 5.80734 9.9057
78 Ni 3.84458 8.92451 7.63088
79 Ni 5.68508 5.3193 6.34568
80 Ni 5.64711 7.24311 8.71526
81 Al 3.87977 11.9153 2.53562
82 Al 5.73589 10.5441 3.82169
83 Al 5.64395 13.7345 1.0728
84 Ni 3.8546 9.91926 0.0182783
85 Ni 3.69367 11.7818 4.94159
86 Ni 3.84072 14.7186 2.4224
87 Ni 5.79712 11.0901 1.46668
88 Ni 5.61155 13.1034 3.45017
89 Al 3.75868 11.4097 7.48303
90 Al 5.7741 9.75614 8.86701
91 Al 5.73733 13.0744 5.99879
92 Ni 3.91648 9.3446 4.99511
93 Ni 3.8239 10.8655 9.95442
94 Ni 3.90441 13.8901 7.2894
95 Ni 5.63248 10.5359 6.34674
96 Ni 5.73236 12.3998 8.6077
97 Al 7.56312 2.12289 2.50567
98 Al 9.47405 0.419135 3.78777
99 Al 9.50295 3.68987 1.02716
100 Ni 7.61995 -0.138304 -0.0749941
101 Ni 7.55331 1.58552 4.96175
102 Ni 7.54567 4.65223 2.49004
103 Ni 9.48135 1.18729 1.37472
104 Ni 9.50177 3.09589 3.60492
105 Al 7.53355 1.31987 7.51143
106 Al 9.41987 -0.186498 8.99708
107 Al 9.43637 2.89756 5.97869
108 Ni 7.57252 -0.846852 4.77038
109 Ni 7.48497 0.87796 9.98081
110 Ni 7.53232 3.89412 7.48792
111 Ni 9.50018 0.374411 6.24159
112 Ni 9.42778 2.36221 8.58276
113 Al 7.58161 7.09642 2.45092
114 Al 9.49346 5.61944 3.86689
115 Al 9.54197 8.74701 1.02368
116 Ni 7.65089 4.9973 0.0848313
117 Ni 7.66219 6.74316 4.9568
118 Ni 7.57675 9.58319 2.53847
119 Ni 9.41702 6.18849 1.40503
120 Ni 9.46608 8.16547 3.56396
121 Al 7.51907 6.31932 7.38212
122 Al 9.39507 4.91424 8.93087
123 Al 9.47177 7.94267 6.20651
124 Ni 7.50832 4.14853 4.98039
125 Ni 7.55202 6.04007 9.87621
126 Ni 7.58784 8.91703 7.50066
127 Ni 9.44 5.3924 6.3735
128 Ni 9.55674 7.42618 8.49758
129 Al 7.5846 12.2036 2.45765
130 Al 9.38556 10.5317 3.9418
131 Al 9.52719 13.7929 1.03561
132 Ni 7.5814 10.027 0.0162446
133 Ni 7.5691 11.8077 5.02445
134 Ni 7.54991 14.6506 2.3634
135 Ni 9.47 11.2588 1.40772
136 Ni 9.57507 13.1192 3.55456
137 Al 7.58837 11.4357 7.51399
138 Al 9.52711 9.83118 8.91673
139 Al 9.43661 13.0764 6.03441
140 Ni 7.61346 9.28128 5.08424
141 Ni 7.50563 10.9973 9.94297
142 Ni 7.56521 13.9974 7.48342
143 Ni 9.52814 10.5727 6.4008
144 Ni 9.52395 12.4173 8.65749
ITEM: TIMESTEP
3600
ITEM: NUMBER OF ATOMS
144
ITEM: BOX BOUNDS xy xz yz pp pp pp
-1.1240978637498379e-01 1.1497496025326548e+01 -6.9618106905706259e-02
-1.5076772046865892e+00 1.5022972588513678e+01 5.9644347509882074e-02
1.4861598921349639e-03 9.9012320208478535e+00 -1.4952030393902036e+00
ITEM: ATOMS id element xu yu zu
1 Al -0.0283883 2.10392 2.47947
2 Al 1.78553 0.622952 3.82228
3 Al 1.90794 3.64053 1.14269
4 Ni -0.228727 -0.0572531 -0.0834212
5 Ni 0.00492297 1.75186 4.97142
6 Ni 0.0540453 4.5802 2.56645
7 Ni 1.82837 1.11949 1.22476
8 Ni 1.79342 3.1556 3.59406
9 Al -0.055118 1.44286 7.4515
10 Al 1.80706 -0.135186 8.84365
11 Al 1.87032 3.0035 6.03962
12 Ni 0.0635069 -0.671855 4.87334
13 Ni -0.0631356 1.03368 9.89655
14 Ni 0.0414921 3.86988 7.45632
15 Ni 1.91266 0.518451 6.33505
16 Ni 1.93194 2.29959 8.54203
17 Al 0.00978389 6.96199 2.41471
18 Al 1.89227 5.58364 3.94522
19 Al 1.88659 8.78558 1.13462
20 Ni -0.027675 5.0697 0.231878
21 Ni 0.0172591 6.7647 4.97754
22 Ni -0.0424313 9.52272 2.40568
23 Ni 1.95477 6.07423 1.3989
24 Ni 1.92455 8.04345 3.48505
25 Al -0.116351 6.43885 7.52232
26 Al 1.89912 4.80866 8.87911
27 Al 1.76247 7.90766 6.13986
28 Ni -0.0168152 4.17057 4.90509
29 Ni -0.0544021 6.07142 10.0074
30 Ni -0.0593355 8.88906 7.47942
31 Ni 1.70009 5.39893 6.45833
32 Ni 1.84232 7.40036 8.67273
33 Al -0.16157 12.0844 2.41682
34 Al 1.77839 10.6617 3.86996
35 Al 1.80272 13.6215 0.933717
36 Ni -0.170196 10.0537 0.073927
37 Ni -0.034443 11.8227 4.99984
38 Ni -0.151331 14.6762 2.4016
39 Ni 1.77276 11.1051 1.51055
40 Ni 1.73687 13.0852 3.44833
41 Al -0.165197 11.4473 7.51841
42 Al 1.7895 9.8525 8.91161
43 Al 1.87688 13.0811 5.90909
44 Ni 0.080828 9.3322 4.97216
45 Ni -0.233389 10.9839 9.86617
46 Ni -0.16008 13.9248 7.29998
47 Ni 1.82042 10.4754 6.35022
48 Ni 1.84587 12.5793 8.39927
49 Al 3.80454 2.15018 2.64333
50 Al 5.63731 0.579311 3.81132
51 Al 5.71462 3.66701 1.28758
52 Ni 3.91135 0.0544611 0.0111126
53 Ni 3.71339 1.77845 4.94567
54 Ni 3.67418 4.55371 2.48197
55 Ni 5.67522 1.19712 1.37886
56 Ni 5.64639 3.09891 3.71325
57 Al 3.84676 1.39323 7.422
58 Al 5.74923 -0.249314 8.77732
59 Al 5.71475 3.03111 6.13794
60 Ni 3.75746 -0.727663 4.89006
61 Ni 3.9082 1.06308 9.86681
62 Ni 3.72862 3.86858 7.38503
63 Ni 5.54584 0.332801 6.25124
64 Ni 5.75589 2.24495 8.61294
65 Al 3.8197 7.09521 2.31452
66 Al 5.69744 5.59719 3.8279
67 Al 5.60163 8.80696 1.02696
68 Ni 3.9094 4.99255 0.0607486
69 Ni 3.70468 6.79624 5.05236
70 Ni 3.72252 9.82881 2.58479
71 Ni 5.67923 6.17159 1.37476
72 Ni 5.62052 8.03787 3.5222
73 Al 3.71414 6.34033 7.51781
74 Al 5.57006 4.74829 8.79401
75 Al 5.66692 7.96396 6.00381
76 Ni 3.71639 4.39091 5.03813
77 Ni 3.79876 6.05696 9.9686
78 Ni 3.66436 8.89466 7.3074
79 Ni 5.81528 5.53257 6.4503
80 Ni 5.77226 7.38241 8.47972
81 Al 3.83666 12.2397 2.45043
82 Al 5.67503 10.4954 3.81309
83 Al 5.71452 13.8681 1.12717
84 Ni 3.68675 10.1618 0.0445818
85 Ni 3.74336 11.7091 4.87043
86 Ni 3.59861 14.6602 2.40551
87 Ni 5.59751 11.3521 1.34711
88 Ni 5.61682 13.0772 3.65483
89 Al 3.74039 11.3191 7.37037
90 Al 5.73566 9.78743 8.80149
91 Al 5.60026 12.9182 6.15456
92 Ni 3.65471 9.23909 4.95044
93 Ni 3.75138 11.1641 9.81381
94 Ni 3.63965 14.0571 7.48742
95 Ni 5.69978 10.3057 6.37485
96 Ni 5.62251 12.3404 8.50353
97 Al 7.62467 2.13414 2.50759
98 Al 9.65656 0.460386 3.85918
99 Al 9.57018 3.66963 1.08753
100 Ni 7.58011 0.109249 0.037413
101 Ni 7.52419 1.78596 4.94245
102 Ni 7.58737 4.62079 2.47783
103 Ni 9.5124 1.15359 1.24743
104 Ni 9.5028 2.95431 3.55768
105 Al 7.48523 1.27978 7.32919
106 Al 9.52075 -0.233138 8.79605
107 Al 9.54665 2.97287 6.0095
108 Ni 7.58817 -0.817418 5.02815
109 Ni 7.7057 1.12647 9.86008
110 Ni 7.61564 3.90432 7.46586
111 Ni 9.54035 0.436439 6.30196
112 Ni 9.55206 2.2359 8.60759
113 Al 7.60536 7.07785 2.59649
114 Al 9.58692 5.47955 3.86433
115 Al 9.41335 8.6468 1.21797
116 Ni 7.52973 5.01996 0.00259453
117 Ni 7.57792 6.70055 5.03888
118 Ni 7.58123 9.78349 2.38107
119 Ni 9.59699 6.14341 1.40163
120 Ni 9.61215 7.91634 3.60932
121 Al 7.65533 6.2825 7.52979
122 Al 9.57008 4.69721 8.93142
123 Al 9.49684 7.85902 6.10361
124 Ni 7.66133 4.32587 5.09256
125 Ni 7.67164 5.97494 10.0235
126 Ni 7.60186 8.87911 7.32413
127 Ni 9.58066 5.5739 6.40978
128 Ni 9.59439 7.25365 8.68422
129 Al 7.51055 12.2109 2.47859
130 Al 9.53026 10.3683 3.84766
131 Al 9.39477 13.7181 1.09103
132 Ni 7.52793 9.90342 -0.0921331
133 Ni 7.63907 11.6537 4.95875
134 Ni 7.57802 14.667 2.68534
135 Ni 9.44264 11.1708 1.35997
136 Ni 9.46377 13.0833 3.70891
137 Al 7.54854 11.3244 7.42439
138 Al 9.46091 9.72026 8.78852
139 Al 9.39351 12.9673 5.98433
140 Ni 7.61527 9.24785 4.87477
141 Ni 7.61265 11.0589 9.9954
142 Ni 7.51508 13.7809 7.49553
143 Ni 9.47086 10.3376 6.30862
144 Ni 9.38862 12.2943 8.57965
ITEM: TIMESTEP
3700
ITEM: NUMBER OF ATOMS
144
ITEM: BOX BOUNDS xy xz yz pp pp pp
-9.3000345400817461e-02 1.1504214035696638e+01 -4.6081496271012087e-02
-1.5388350650324309e+00 1.5032764252911992e+01 6.2235188219444154e-02
2.2321873118231750e-03 9.9004859934281679e+00 -1.5165692353377296e+00
ITEM: ATOMS id element xu yu zu
1 Al -0.0373643 2.18756 2.54175
2 Al 1.86009 0.590442 3.95823
3 Al 1.90573 3.78467 1.15364
4 Ni 0.00600302 0.0977615 0.0145234
5 Ni -0.00869471 1.7855 4.86727
6 Ni -0.0814298 4.60495 2.46865
7 Ni 1.77031 1.22789 1.42692
8 Ni 1.94453 2.97573 3.56347
9 Al -0.00884888 1.24635 7.46551
10 Al 2.03707 -0.283452 8.8408
11 Al 1.94633 2.99051 6.06393
12 Ni -0.152668 -0.753251 4.974
13 Ni 0.00914456 1.01535 9.88141
14 Ni -0.0551295 3.78969 7.47293
15 Ni 1.92448 0.299491 6.32108
16 Ni 1.86503 2.3514 8.50337
17 Al -0.110552 6.9984 2.52909
18 Al 1.82476 5.40749 3.88548
19 Al 1.78882 8.80714 1.06588
20 Ni -0.106109 4.94297 -0.0411976
21 Ni -0.0733148 6.73663 5.12711
22 Ni -0.0988357 9.67576 2.51385
23 Ni 1.83659 6.27437 1.46504
24 Ni 1.67515 8.10952 3.68363
25 Al -0.11551 6.29509 7.45669
26 Al 1.86967 4.75368 8.91068
27 Al 1.82507 7.9711 6.09152
28 Ni -0.0613069 4.23323 5.09101
29 Ni 0.0616465 5.96149 9.94267
30 Ni -0.0704764 8.8247 7.38243
31 Ni 2.02555 5.41184 6.32917
32 Ni 1.90087 7.317 8.43039
33 Al -0.00508379 12.1141 2.40224
34 Al 1.89146 10.651 3.78692
35 Al 1.90335 13.8625 1.17266
36 Ni -0.0399987 9.998 0.0159487
37 Ni -0.183859 11.7515 4.93563
38 Ni -0.138199 14.6069 2.51965
39 Ni 1.85311 11.3439 1.21837
40 Ni 1.79533 13.1382 3.70232
41 Al -0.0379127 11.306 7.51341
42 Al 1.88528 9.69849 8.76889
43 Al 1.78482 12.9164 6.08946
44 Ni -0.213539 9.24757 4.98186
45 Ni 0.0170283 11.0933 9.93528
46 Ni 0.0113729 13.8407 7.50782
47 Ni 1.8418 10.4383 6.29683
48 Ni 1.81173 12.1416 8.64562
49 Al 3.89211 2.16861 2.48059
50 Al 5.705 0.509042 3.90913
51 Al 5.70159 3.8129 1.03735
52 Ni 3.59682 0.0685528 -0.000154089
53 Ni 3.89284 1.69348 4.89021
54 Ni 3.91677 4.68587 2.54634
55 Ni 5.71272 1.14711 1.35248
56 Ni 5.65704 2.96257 3.50826
57 Al 3.82367 1.28527 7.35661
58 Al 5.67789 -0.37103 8.832
59 Al 5.68486 2.90939 5.99234
60 Ni 3.82265 -0.769587 4.95993
61 Ni 3.78893 1.0459 9.80638
62 Ni 3.93636 3.93701 7.68172
63 Ni 5.8448 0.472593 6.37333
64 Ni 5.78138 2.42942 8.46533
65 Al 3.74932 7.13273 2.48909
66 Al 5.75237 5.6171 3.92874
67 Al 5.63334 8.66774 1.06087
68 Ni 3.76116 5.14408 0.135342
69 Ni 3.75033 6.76926 4.96001
70 Ni 3.71905 9.56573 2.35629
71 Ni 5.80581 6.23745 1.63492
72 Ni 5.70867 8.18411 3.61613
73 Al 3.82199 6.35381 7.45708
74 Al 5.7183 4.78892 8.97169
75 Al 5.66523 7.99329 6.06668
76 Ni 3.78296 4.22166 4.96695
77 Ni 3.82889 6.07184 9.82664
78 Ni 3.80794 8.89883 7.37257
79 Ni 5.55999 5.36006 6.34317
80 Ni 5.58961 7.28525 8.50091
81 Al 3.76729 12.2371 2.41799
82 Al 5.52826 10.6631 3.77106
83 Al 5.60815 13.8396 0.97223
84 Ni 3.70808 9.9874 0.0152131
85 Ni 3.72683 11.8672 5.04161
86 Ni 3.8227 14.6757 2.51421
87 Ni 5.59293 11.2204 1.34266
88 Ni 5.6927 13.1339 3.45949
89 Al 3.80796 11.3289 7.47786
90 Al 5.69981 9.73444 8.75461
91 Al 5.67565 13.0763 6.06256
92 Ni 3.79594 9.26318 4.94072
93 Ni 3.73598 11.0469 9.97008
94 Ni 3.87444 13.8036 7.39131
95 Ni 5.59471 10.5078 6.23054
96 Ni 5.68277 12.3085 8.56883
97 Al 7.65085 2.16377 2.59312
98 Al 9.56856 0.453344 3.80171
99 Al 9.5701 3.69631 1.00421
100 Ni 7.50438 -0.100016 0.0336977
101 Ni 7.687 1.74284 4.94772
102 Ni 7.60144 4.56106 2.59707
103 Ni 9.50288 1.22219 1.4958
104 Ni 9.56438 3.09667 3.63628
105 Al 7.67351 1.20334 7.54164
106 Al 9.65456 -0.354427 8.94403
107 Al 9.59884 2.7648 5.99129
108 Ni 7.63587 -0.760347 5.04379
109 Ni 7.58188 0.845462 9.95649
110 Ni 7.73221 3.75804 7.43743
111 Ni 9.54952 0.376746 6.34122
112 Ni 9.57681 2.28881 8.51154
113 Al 7.60411 7.18414 2.66895
114 Al 9.51113 5.58142 3.93453
115 Al 9.49034 8.77455 1.05696
116 Ni 7.68182 4.95283 0.0858131
117 Ni 7.66117 6.70398 5.05528
118 Ni 7.56302 9.5933 2.43636
119 Ni 9.39825 6.24806 1.55866
120 Ni 9.506 8.12465 3.60299
121 Al 7.47617 6.15436 7.37238
122 Al 9.51844 4.85506 9.02912
123 Al 9.3746 7.93953 6.14029
124 Ni 7.58822 4.09227 4.93059
125 Ni 7.66719 6.11356 10.0597
126 Ni 7.51213 8.78347 7.41075
127 Ni 9.48764 5.22793 6.42482
128 Ni 9.47511 7.29492 8.51397
129 Al 7.53187 12.1598 2.3101
130 Al 9.398 10.5663 3.80154
131 Al 9.5316 13.7 0.973931
132 Ni 7.566 10.1635 0.00892291
133 Ni 7.5422 11.86 4.91685
134 Ni 7.51435 14.6885 2.39046
135 Ni 9.49124 11.244 1.33112
136 Ni 9.45141 13.1266 3.51579
137 Al 7.55143 11.3356 7.30405
138 Al 9.6052 9.83245 8.80329
139 Al 9.4319 12.9976 5.90908
140 Ni 7.60501 9.21801 4.88542
141 Ni 7.57002 11.0037 9.7542
142 Ni 7.543 13.8323 7.42825
143 Ni 9.52821 10.5361 6.27678
144 Ni 9.53598 12.2753 8.46802
ITEM: TIMESTEP
3800
ITEM: NUMBER OF ATOMS
144
ITEM: BOX BOUNDS xy xz yz pp pp pp
-9.3568789234722269e-02 1.1495237821911378e+01 5.2068843263096125e-02
-1.6179603336891610e+00 1.5051468669185077e+01 -4.5459808933831100e-02
-3.2198954651997624e-02 9.9349171353919914e+00 -1.5769900877213863e+00
ITEM: ATOMS id element xu yu zu
1 Al -0.0502502 2.16923 2.57838
2 Al 1.88458 0.531072 3.96623
3 Al 1.83093 3.74463 1.10892
4 Ni -0.0570148 -0.146113 0.0353199
5 Ni -0.0576009 1.62245 5.04409
6 Ni -0.129556 4.75404 2.5499
7 Ni 1.92135 1.13364 1.26729
8 Ni 1.79158 3.12184 3.65408
9 Al -0.0198045 1.27542 7.57293
10 Al 1.93803 -0.40287 8.90191
11 Al 1.7295 2.89016 6.07143
12 Ni 0.022626 -0.934115 4.99791
13 Ni -0.040387 0.889892 9.94547
14 Ni -0.0343419 3.77696 7.41481
15 Ni 1.82878 0.369757 6.29723
16 Ni 1.86455 2.15252 8.64629
17 Al -0.0961056 7.25611 2.46288
18 Al 1.8075 5.53073 3.84648
19 Al 1.82048 8.72217 1.00178
20 Ni -0.0521111 5.08454 0.00825457
21 Ni -0.0479879 6.6821 4.86657
22 Ni -0.0805603 9.83312 2.45901
23 Ni 1.69961 6.21498 1.35028
24 Ni 1.96214 8.03991 3.50635
25 Al -0.0434187 6.3623 7.36665
26 Al 1.81915 4.65022 8.86431
27 Al 1.85656 7.89314 6.04069
28 Ni -0.0678418 4.21047 4.91297
29 Ni -0.225665 5.99404 9.94799
30 Ni -0.033033 8.77964 7.40442
31 Ni 1.75905 5.32121 6.30655
32 Ni 1.76337 7.17146 8.63195
33 Al 0.049676 12.2762 2.38988
34 Al 1.89747 10.5443 3.82609
35 Al 1.98977 13.794 1.0572
36 Ni -0.052809 10.0334 -0.114053
37 Ni 0.0733937 11.7758 4.91323
38 Ni -0.0555272 14.7856 2.61632
39 Ni 1.81331 11.1194 1.45758
40 Ni 1.90589 13.0437 3.58394
41 Al 0.0234838 11.2775 7.43667
42 Al 1.85973 9.76345 8.89715
43 Al 1.9129 12.9518 6.08498
44 Ni 0.00653833 9.16078 4.89623
45 Ni -0.0645757 10.8912 9.88808
46 Ni -0.133263 13.8018 7.46767
47 Ni 1.88121 10.3418 6.34547
48 Ni 1.81684 12.3689 8.59856
49 Al 3.83142 2.30199 2.62934
50 Al 5.59007 0.47175 3.91702
51 Al 5.68371 3.81883 1.14745
52 Ni 3.92755 -0.127679 0.0119968
53 Ni 3.68188 1.72453 4.97337
54 Ni 3.66036 4.61956 2.59231
55 Ni 5.66474 1.14179 1.36523
56 Ni 5.81184 3.1114 3.66677
57 Al 3.71444 1.22212 7.46756
58 Al 5.75055 -0.426621 8.86682
59 Al 5.61202 2.82927 6.05704
60 Ni 3.74955 -0.908094 4.9954
61 Ni 3.72741 0.826925 10.0644
62 Ni 3.66226 3.74362 7.33031
63 Ni 5.63592 0.253021 6.34448
64 Ni 5.59076 2.13515 8.70711
65 Al 3.8242 6.9802 2.50677
66 Al 5.7376 5.57768 3.87148
67 Al 5.51007 8.6289 1.11307
68 Ni 3.77056 4.90774 -0.0942627
69 Ni 3.82457 6.66561 5.01536
70 Ni 3.77679 9.73492 2.43984
71 Ni 5.56502 6.16374 1.24194
72 Ni 5.67682 7.94971 3.58429
73 Al 3.80225 6.27479 7.54719
74 Al 5.44528 4.6765 8.72523
75 Al 5.61307 7.96382 6.17863
76 Ni 3.77726 4.10205 5.00662
77 Ni 3.65163 5.81892 10.0354
78 Ni 3.75152 8.74449 7.42717
79 Ni 5.81367 5.4065 6.50882
80 Ni 5.73003 7.27719 8.69581
81 Al 3.7556 12.2322 2.36577
82 Al 5.59559 10.5207 3.89975
83 Al 5.79292 13.7681 1.00086
84 Ni 3.76299 9.93696 -0.160286
85 Ni 3.78197 11.6358 4.93598
86 Ni 3.82453 14.6773 2.48925
87 Ni 5.6671 11.1721 1.3649
88 Ni 5.70586 13.0777 3.59658
89 Al 3.8064 11.3576 7.38093
90 Al 5.7113 9.79546 8.77767
91 Al 5.71052 12.9542 6.07976
92 Ni 3.76776 9.21864 4.9377
93 Ni 3.71618 10.8609 9.93344
94 Ni 3.71938 13.8975 7.46158
95 Ni 5.69951 10.383 6.34235
96 Ni 5.63932 12.3992 8.48902
97 Al 7.67243 2.03031 2.52242
98 Al 9.57331 0.515279 3.88304
99 Al 9.59139 3.73649 1.07333
100 Ni 7.66418 0.00749496 -0.0625816
101 Ni 7.55715 1.75073 5.09324
102 Ni 7.57691 4.74296 2.49888
103 Ni 9.50495 1.13921 1.33408
104 Ni 9.41677 3.03289 3.60989
105 Al 7.64805 1.30858 7.4697
106 Al 9.58239 -0.322304 8.90652
107 Al 9.49175 3.00451 6.02167
108 Ni 7.58516 -0.876759 4.88449
109 Ni 7.65122 1.01795 9.96792
110 Ni 7.45763 3.838 7.56024
111 Ni 9.57958 0.36966 6.3655
112 Ni 9.53952 2.18322 8.67337
113 Al 7.56291 7.24252 2.35401
114 Al 9.39205 5.63356 3.78726
115 Al 9.41962 8.82662 1.08476
116 Ni 7.53546 5.02306 -0.0312857
117 Ni 7.55112 6.83058 4.96556
118 Ni 7.59373 9.70013 2.55444
119 Ni 9.51686 6.19158 1.29477
120 Ni 9.42646 8.18659 3.67033
121 Al 7.66015 6.53378 7.35179
122 Al 9.50846 4.68012 8.7375
123 Al 9.50846 7.92064 5.97377
124 Ni 7.63723 4.2904 5.02568
125 Ni 7.64811 5.77952 9.9537
126 Ni 7.61506 8.97033 7.52282
127 Ni 9.52085 5.52507 6.30317
128 Ni 9.61538 7.26731 8.6319
129 Al 7.61082 12.1584 2.3774
130 Al 9.54722 10.6134 3.87606
131 Al 9.64376 13.6372 1.04297
132 Ni 7.6461 9.99196 -0.0216543
133 Ni 7.62989 11.7715 4.81397
134 Ni 7.70905 14.5859 2.3478
135 Ni 9.57385 11.28 1.34074
136 Ni 9.49223 13.1437 3.54416
137 Al 7.65672 11.4749 7.32823
138 Al 9.53165 9.8211 8.85786
139 Al 9.49207 12.925 5.86176
140 Ni 7.51415 9.17928 5.03798
141 Ni 7.589 10.9563 9.89391
142 Ni 7.65391 13.9366 7.31446
143 Ni 9.51742 10.3197 6.34378
144 Ni 9.59693 12.3277 8.56489
ITEM: TIMESTEP
3900
ITEM: NUMBER OF ATOMS
144
ITEM: BOX BOUNDS xy xz yz pp pp pp
-1.0395649869967952e-01 1.1478859119499955e+01 6.2713313043612606e-02
-1.6057278885055684e+00 1.5025964356291373e+01 -8.2870690590737733e-02
2.9323410107584991e-02 9.8733947706324052e+00 -1.5902619554315105e+00
ITEM: ATOMS id element xu yu zu
1 Al -0.0714569 2.17265 2.59937
2 Al 1.8766 0.54364 4.10529
3 Al 1.89711 3.62183 1.13177
4 Ni -0.073186 0.0786664 -0.0632629
5 Ni -0.114409 1.77749 4.91503
6 Ni 0.0569084 4.57407 2.48809
7 Ni 1.78786 1.1704 1.52225
8 Ni 1.91288 3.0508 3.63747
9 Al -0.0915027 1.34428 7.41542
10 Al 1.84271 -0.341928 8.95383
11 Al 1.81488 2.88412 6.06091
12 Ni -0.143316 -0.667602 4.89014
13 Ni -0.188274 0.935188 9.94521
14 Ni -0.10131 3.82687 7.46884
15 Ni 1.86575 0.321817 6.4539
16 Ni 1.73896 2.24397 8.52465
17 Al 0.0320007 6.99925 2.39016
18 Al 1.82661 5.5151 3.82952
19 Al 1.93801 8.72214 1.05575
20 Ni -0.0369333 4.86243 0.113265
21 Ni -0.106976 6.75389 4.9449
22 Ni -0.00703442 9.48153 2.51736
23 Ni 2.00606 6.14634 1.39472
24 Ni 1.77716 8.05693 3.64178
25 Al -0.0962251 6.39 7.34965
26 Al 1.85242 4.57896 8.84361
27 Al 1.80951 7.93268 6.07612
28 Ni -0.0599235 4.2053 4.99605
29 Ni 0.0427845 5.81252 9.8546
30 Ni -0.0662743 8.85128 7.48694
31 Ni 1.77074 5.30711 6.39407
32 Ni 1.82157 7.25497 8.48984
33 Al 0.0290997 11.9876 2.44155
34 Al 1.89332 10.5144 3.82373
35 Al 1.96468 13.8085 1.03507
36 Ni -0.00301733 10.0035 0.130587
37 Ni -0.0459303 11.7667 4.94738
38 Ni -0.00124127 14.5587 2.32252
39 Ni 2.00718 11.3206 1.33088
40 Ni 1.90343 13.1038 3.5018
41 Al 0.0540953 11.3944 7.47478
42 Al 1.85334 9.83061 8.79695
43 Al 1.92865 12.9432 5.91614
44 Ni -0.0682646 9.26693 4.99572
45 Ni -0.119762 10.9901 9.88534
46 Ni 0.0777325 13.8978 7.3354
47 Ni 1.86959 10.4017 6.2915
48 Ni 1.98407 12.2512 8.43734
49 Al 3.67239 2.13798 2.61374
50 Al 5.53928 0.478098 3.97309
51 Al 5.69671 3.70226 1.04751
52 Ni 3.62773 -0.0221874 0.0347332
53 Ni 3.83545 1.73248 5.16192
54 Ni 3.83149 4.536 2.39192
55 Ni 5.66954 1.06009 1.46078
56 Ni 5.5102 2.91925 3.69952
57 Al 3.71283 1.26385 7.57825
58 Al 5.57865 -0.492284 8.83149
59 Al 5.61951 3.03274 6.03147
60 Ni 3.7594 -0.705789 4.95405
61 Ni 3.62827 0.88486 9.94969
62 Ni 3.7687 3.79816 7.4966
63 Ni 5.57637 0.439238 6.35028
64 Ni 5.72149 2.3219 8.50579
65 Al 3.77065 7.11806 2.47013
66 Al 5.60506 5.45504 3.72727
67 Al 5.61592 8.72756 1.11724
68 Ni 3.79111 4.9422 0.0947627
69 Ni 3.68608 6.80572 4.87389
70 Ni 3.83679 9.58348 2.66948
71 Ni 5.70188 6.10453 1.47589
72 Ni 5.73344 8.12812 3.6053
73 Al 3.63794 6.2605 7.3351
74 Al 5.6022 4.69849 8.71269
75 Al 5.74807 8.0027 5.94495
76 Ni 3.70701 4.23734 4.94166
77 Ni 3.78104 5.94204 9.81985
78 Ni 3.7129 8.86422 7.46981
79 Ni 5.53729 5.47603 6.1373
80 Ni 5.55238 7.22137 8.36464
81 Al 3.77782 12.0241 2.50674
82 Al 5.73073 10.5514 4.04338
83 Al 5.66032 13.7131 1.11407
84 Ni 3.8513 10.0639 0.190746
85 Ni 3.82285 11.7112 4.93604
86 Ni 3.8239 14.529 2.47598
87 Ni 5.82537 11.2698 1.41573
88 Ni 5.74435 13.0888 3.57873
89 Al 3.84236 11.342 7.28817
90 Al 5.67289 9.61724 8.75344
91 Al 5.74702 13.0569 6.07044
92 Ni 3.75042 9.23758 5.0025
93 Ni 3.79223 10.9626 9.86218
94 Ni 3.83782 13.8089 7.43161
95 Ni 5.71175 10.3814 6.39032
96 Ni 5.74337 12.0961 8.56108
97 Al 7.58151 2.07373 2.60836
98 Al 9.5578 0.537188 3.82493
99 Al 9.49597 3.69794 1.13101
100 Ni 7.48256 -0.0429506 0.0435816
101 Ni 7.553 1.75519 4.93262
102 Ni 7.55103 4.46345 2.5006
103 Ni 9.47371 1.2085 1.47324
104 Ni 9.50608 3.04878 3.65954
105 Al 7.55377 1.22635 7.39684
106 Al 9.51441 -0.289273 8.73113
107 Al 9.40607 2.94966 5.97188
108 Ni 7.51972 -0.79363 5.04905
109 Ni 7.43522 0.819013 9.95284
110 Ni 7.67177 3.88216 7.41122
111 Ni 9.2636 0.366627 6.29666
112 Ni 9.34984 2.27716 8.53028
113 Al 7.62045 7.08801 2.45651
114 Al 9.49719 5.44564 3.78049
115 Al 9.49211 8.69535 0.988271
116 Ni 7.65715 4.96715 0.0497797
117 Ni 7.63788 6.60555 4.89253
118 Ni 7.69522 9.58602 2.46834
119 Ni 9.54193 6.20858 1.39105
120 Ni 9.48551 7.98277 3.51531
121 Al 7.49965 6.38277 7.15276
122 Al 9.48737 4.71474 8.86422
123 Al 9.46294 7.97017 5.846
124 Ni 7.50033 4.20669 4.94133
125 Ni 7.44085 5.99989 9.79893
126 Ni 7.56404 8.74503 7.43855
127 Ni 9.37678 5.37225 6.30766
128 Ni 9.36685 7.23873 8.45661
129 Al 7.67674 12.1892 2.59114
130 Al 9.51778 10.5224 3.81489
131 Al 9.53208 13.7378 1.1303
132 Ni 7.67757 10.0523 0.0378774
133 Ni 7.63649 11.7781 5.12846
134 Ni 7.56042 14.7372 2.61833
135 Ni 9.50341 11.1647 1.43992
136 Ni 9.57068 13.0555 3.61631
137 Al 7.61326 11.1844 7.42662
138 Al 9.52277 9.74095 8.88994
139 Al 9.42879 12.9861 6.05189
140 Ni 7.71582 9.30239 5.02789
141 Ni 7.64462 10.927 9.96169
142 Ni 7.51419 13.6968 7.54276
143 Ni 9.51907 10.4743 6.27938
144 Ni 9.42567 12.2371 8.5034
ITEM: TIMESTEP
4000
ITEM: NUMBER OF ATOMS
144
ITEM: BOX BOUNDS xy xz yz pp pp pp
-1.0031742101490515e-01 1.1561237357039245e+01 2.4525415147290001e-02
-1.5860825417478335e+00 1.5010586908999285e+01 4.1334522529658822e-02
-2.2444004161127573e-02 9.9251621849011080e+00 -1.5859940559658794e+00
ITEM: ATOMS id element xu yu zu
1 Al -0.172431 1.99919 2.43076
2 Al 1.77296 0.42662 3.82693
3 Al 1.81304 3.59707 1.12798
4 Ni -0.090068 -0.051956 0.0691155
5 Ni -0.0565136 1.73655 5.04734
6 Ni -0.224586 4.43896 2.41939
7 Ni 1.8699 1.07702 1.15576
8 Ni 1.71349 2.88693 3.55901
9 Al 0.0461078 1.37438 7.53168
10 Al 1.96003 -0.299786 8.81989
11 Al 1.80286 3.11479 6.04208
12 Ni -0.0365608 -0.7453 5.01475
13 Ni -0.0400294 0.903398 9.90576
14 Ni -0.157932 3.78747 7.41562
15 Ni 1.79643 0.52759 6.2189
16 Ni 1.86152 2.37709 8.66863
17 Al -0.0888458 6.98705 2.46761
18 Al 1.82491 5.45563 3.72624
19 Al 1.82275 8.60251 1.07627
20 Ni -0.123031 5.09475 -0.0962464
21 Ni 0.00414249 6.7956 4.98129
22 Ni -0.0687604 9.61027 2.46696
23 Ni 1.78129 6.16464 1.20213
24 Ni 2.02707 8.05506 3.58824
25 Al -0.0365626 6.38778 7.46622
26 Al 1.92143 4.75685 8.7563
27 Al 1.88389 8.09908 6.06943
28 Ni -0.148675 4.2035 4.98764
29 Ni -0.0890588 6.07576 9.97647
30 Ni -0.0670969 8.88392 7.42497
31 Ni 1.93869 5.60883 6.25486
32 Ni 1.95282 7.31219 8.5506
33 Al -0.163313 11.9764 2.51291
34 Al 1.88493 10.3996 3.93779
35 Al 1.86384 13.6369 1.10505
36 Ni -0.0546483 10.0187 -0.0610036
37 Ni -0.0978851 11.7046 4.99499
38 Ni -0.154015 14.5431 2.60041
39 Ni 1.74323 11.0435 1.44041
40 Ni 1.84271 12.9923 3.59538
41 Al -0.115282 11.3464 7.56127
42 Al 1.88656 9.78725 8.89296
43 Al 1.87291 13.0234 6.16391
44 Ni -0.102329 9.25958 4.97438
45 Ni -0.0440057 10.8105 9.94968
46 Ni -0.154532 13.8251 7.58308
47 Ni 1.79619 10.5624 6.37787
48 Ni 1.77292 12.3053 8.62937
49 Al 3.63046 2.18526 2.53986
50 Al 5.63622 0.520966 3.96004
51 Al 5.589 3.79997 1.13933
52 Ni 3.86454 0.0416625 0.0169041
53 Ni 3.61691 1.68427 4.84692
54 Ni 3.70914 4.60506 2.51298
55 Ni 5.76685 1.23835 1.37009
56 Ni 5.7699 3.14425 3.50353
57 Al 3.77169 1.31684 7.41266
58 Al 5.78723 -0.177864 8.83148
59 Al 5.56013 2.84127 5.88031
60 Ni 3.6954 -0.728343 4.98522
61 Ni 3.82081 0.994883 9.93036
62 Ni 3.77138 3.93468 7.37924
63 Ni 5.70546 0.278295 6.41411
64 Ni 5.67784 2.23972 8.64101
65 Al 3.79501 7.17158 2.39154
66 Al 5.67558 5.48259 3.8415
67 Al 5.71242 8.65698 1.05738
68 Ni 3.75265 5.05437 -0.120758
69 Ni 3.85921 6.74116 4.99269
70 Ni 3.81739 9.6433 2.31932
71 Ni 5.73484 6.25072 1.24062
72 Ni 5.6986 8.05997 3.4765
73 Al 3.81639 6.37647 7.47818
74 Al 5.7107 4.69534 8.7808
75 Al 5.83804 7.8883 6.00634
76 Ni 3.85743 4.30847 4.99724
77 Ni 3.76006 6.01043 9.88425
78 Ni 3.86757 8.7822 7.47102
79 Ni 5.80276 5.28303 6.44564
80 Ni 5.76799 7.26873 8.62557
81 Al 3.66982 12.0202 2.48458
82 Al 5.61158 10.4905 3.92024
83 Al 5.61482 13.6811 1.20455
84 Ni 3.75551 9.95972 -0.0676852
85 Ni 3.70846 11.8125 4.93389
86 Ni 3.77885 14.5997 2.5566
87 Ni 5.70869 11.1089 1.40786
88 Ni 5.70076 13.0282 3.70463
89 Al 3.7335 11.2682 7.43499
90 Al 5.72234 9.72297 8.78941
91 Al 5.7085 12.8857 6.10914
92 Ni 3.78631 9.34222 5.01031
93 Ni 3.78275 10.9651 9.98246
94 Ni 3.74383 13.8551 7.54316
95 Ni 5.80651 10.3951 6.29129
96 Ni 5.63898 12.4475 8.60401
97 Al 7.59617 2.06566 2.43806
98 Al 9.60037 0.567548 4.00752
99 Al 9.58244 3.73546 0.991041
100 Ni 7.59722 -0.0626526 0.0104026
101 Ni 7.61003 1.67612 5.01128
102 Ni 7.63967 4.71842 2.48026
103 Ni 9.51806 1.09345 1.40667
104 Ni 9.53736 2.9731 3.54477
105 Al 7.73381 1.31357 7.35197
106 Al 9.65327 -0.283791 8.86704
107 Al 9.53198 2.93391 5.98033
108 Ni 7.61088 -0.795561 5.03274
109 Ni 7.674 0.950269 9.90954
110 Ni 7.55752 3.68649 7.40506
111 Ni 9.71989 0.409841 6.3913
112 Ni 9.62558 2.23992 8.59131
113 Al 7.73582 7.15676 2.54341
114 Al 9.53382 5.44156 3.89254
115 Al 9.5502 8.70162 1.10317
116 Ni 7.58979 4.96676 0.0178037
117 Ni 7.66636 6.80715 4.92973
118 Ni 7.70035 9.55045 2.40488
119 Ni 9.5675 6.08457 1.41739
120 Ni 9.67572 8.05592 3.61958
121 Al 7.77562 6.28626 7.34031
122 Al 9.5979 4.60783 8.89677
123 Al 9.57602 7.92096 5.94764
124 Ni 7.70971 4.16868 4.96348
125 Ni 7.79025 5.97629 9.954
126 Ni 7.59647 8.83696 7.29721
127 Ni 9.68371 5.35481 6.3208
128 Ni 9.60679 7.26017 8.60726
129 Al 7.65683 12.0501 2.53561
130 Al 9.57729 10.4859 3.92069
131 Al 9.6198 13.5555 1.12954
132 Ni 7.62667 9.92527 -0.0712734
133 Ni 7.64432 11.6308 4.98609
134 Ni 7.69456 14.4629 2.50762
135 Ni 9.55744 11.0682 1.33044
136 Ni 9.58759 13.0359 3.7032
137 Al 7.63576 11.4335 7.51617
138 Al 9.55446 9.7284 8.91606
139 Al 9.45365 12.8821 6.08251
140 Ni 7.58964 9.19879 4.81833
141 Ni 7.59455 10.8459 9.97131
142 Ni 7.65214 13.8892 7.38929
143 Ni 9.51169 10.3482 6.44154
144 Ni 9.63975 12.2171 8.67731
ITEM: TIMESTEP
4100
ITEM: NUMBER OF ATOMS
144
ITEM: BOX BOUNDS xy xz yz pp pp pp
-4.5108691141105814e-02 1.1492006452673630e+01 -3.0099471208453233e-02
-1.6509957830800259e+00 1.5059070591900298e+01 8.1937234393576835e-02
1.7115711903955777e-02 9.8856024688360353e+00 -1.6024236143970765e+00
ITEM: ATOMS id element xu yu zu
1 Al -0.00334239 2.15019 2.57664
2 Al 1.97212 0.419146 4.06399
3 Al 1.91314 3.65615 1.02077
4 Ni -0.0543906 -0.058544 0.102999
5 Ni 0.00344724 1.5788 4.84479
6 Ni 0.0239797 4.70044 2.46739
7 Ni 1.86122 1.21426 1.5679
8 Ni 2.01759 3.15873 3.52037
9 Al -0.0198826 1.31954 7.42381
10 Al 1.99777 -0.438003 8.97626
11 Al 1.86071 2.74179 5.99993
12 Ni -0.0924377 -0.903175 5.00541
13 Ni 0.0558421 0.826227 9.89642
14 Ni 0.168456 3.91705 7.38844
15 Ni 1.91922 0.283239 6.40885
16 Ni 1.97331 2.1904 8.36835
17 Al -0.21092 7.11087 2.4225
18 Al 2.04844 5.60827 3.83545
19 Al 1.8535 8.69093 1.01519
20 Ni -0.104267 4.86112 -0.0474535
21 Ni -0.0436306 6.69865 4.9414
22 Ni -0.0370431 9.63265 2.456
23 Ni 1.81365 6.17528 1.44513
24 Ni 1.80512 7.99767 3.52621
25 Al 0.0152821 6.31718 7.41494
26 Al 2.09035 4.58167 8.8768
27 Al 1.93656 7.85145 5.96004
28 Ni 0.0637569 4.23066 4.88939
29 Ni -0.00400169 5.67967 9.80539
30 Ni 0.0408056 8.8138 7.43167
31 Ni 1.88957 5.22858 6.36837
32 Ni 1.90531 7.21323 8.45805
33 Al -0.0574184 12.0539 2.52848
34 Al 1.86327 10.4631 3.85025
35 Al 1.81887 13.8368 1.15944
36 Ni -0.0979804 9.97179 0.0484341
37 Ni -0.00760398 11.7364 5.01226
38 Ni -0.0397295 14.6085 2.61979
39 Ni 1.92083 11.3182 1.36614
40 Ni 1.84507 13.0643 3.78861
41 Al -0.0347524 11.3566 7.59003
42 Al 1.84241 9.69605 8.87624
43 Al 1.94121 12.915 6.2167
44 Ni 0.04063 9.2091 4.96269
45 Ni -0.0387985 11.0201 9.98605
46 Ni 0.0164702 13.913 7.56631
47 Ni 1.99675 10.3288 6.30628
48 Ni 1.92351 12.3214 8.68049
49 Al 3.7656 2.09428 2.52646
50 Al 5.72932 0.448747 3.84557
51 Al 5.65314 3.6349 1.03876
52 Ni 3.62821 -0.0571376 0.071209
53 Ni 3.92288 1.73846 4.88644
54 Ni 3.88393 4.43071 2.46864
55 Ni 5.72386 1.09889 1.37551
56 Ni 5.67337 2.97485 3.62451
57 Al 3.91047 1.2548 7.28767
58 Al 5.70646 -0.390987 8.71506
59 Al 5.80582 3.03387 6.03624
60 Ni 3.83276 -0.914769 4.97543
61 Ni 3.81605 0.902336 9.79347
62 Ni 3.91377 3.7883 7.44887
63 Ni 5.7482 0.490477 6.16036
64 Ni 5.70294 2.24126 8.40363
65 Al 3.72604 7.09401 2.41657
66 Al 5.66505 5.35486 3.83564
67 Al 5.63283 8.78413 1.08922
68 Ni 3.81944 5.01177 0.0281108
69 Ni 3.80095 6.63894 4.88062
70 Ni 3.6806 9.51991 2.53272
71 Ni 5.76017 6.03768 1.55015
72 Ni 5.69609 8.03044 3.59214
73 Al 3.78429 6.31636 7.40075
74 Al 5.72081 4.62057 8.86588
75 Al 5.80267 7.90555 6.1106
76 Ni 3.79623 4.15097 4.84815
77 Ni 3.89195 5.89013 9.89878
78 Ni 3.79651 8.98411 7.35424
79 Ni 5.77155 5.46992 6.27018
80 Ni 5.73448 7.34701 8.48705
81 Al 3.73307 12.1343 2.58909
82 Al 5.65528 10.4622 3.99448
83 Al 5.54425 13.7547 1.10036
84 Ni 3.74525 10.0419 -0.0707884
85 Ni 3.80341 11.6629 5.09903
86 Ni 3.8182 14.6951 2.52213
87 Ni 5.5712 11.2933 1.37506
88 Ni 5.63652 13.1026 3.52474
89 Al 3.72397 11.3375 7.57348
90 Al 5.73949 9.73713 8.74631
91 Al 5.71723 12.9952 6.056
92 Ni 3.73785 9.23159 4.86559
93 Ni 3.82621 10.9845 9.92801
94 Ni 3.80773 13.9515 7.41787
95 Ni 5.60468 10.4484 6.37735
96 Ni 5.7679 12.1515 8.51374
97 Al 7.53537 2.10252 2.46393
98 Al 9.50661 0.41474 3.99477
99 Al 9.54697 3.76122 1.12277
100 Ni 7.5952 0.00702502 0.0892192
101 Ni 7.67318 1.67879 4.98968
102 Ni 7.66457 4.513 2.47704
103 Ni 9.47816 1.06338 1.39812
104 Ni 9.59574 3.09517 3.62319
105 Al 7.56473 1.25212 7.39197
106 Al 9.6472 -0.290552 8.79083
107 Al 9.58991 3.009 5.98688
108 Ni 7.59383 -0.878708 4.93314
109 Ni 7.63471 0.796533 9.9299
110 Ni 7.70933 3.94052 7.42823
111 Ni 9.45002 0.306543 6.39323
112 Ni 9.47188 2.21454 8.5037
113 Al 7.61221 7.13179 2.63701
114 Al 9.48293 5.45632 3.88196
115 Al 9.36115 8.79832 1.07737
116 Ni 7.68898 5.00433 -0.0542889
117 Ni 7.72003 6.75508 5.0948
118 Ni 7.47447 9.71166 2.50343
119 Ni 9.44896 6.17166 1.29136
120 Ni 9.45015 8.05723 3.65593
121 Al 7.68307 6.2542 7.51436
122 Al 9.65308 4.57065 8.77145
123 Al 9.53449 7.9548 6.05952
124 Ni 7.64611 4.14121 4.91535
125 Ni 7.55967 5.87364 9.96925
126 Ni 7.67243 8.88482 7.53019
127 Ni 9.52294 5.43322 6.34727
128 Ni 9.59878 7.22827 8.53216
129 Al 7.47097 12.1972 2.4837
130 Al 9.49008 10.4762 3.87319
131 Al 9.46149 13.7516 1.17193
132 Ni 7.58117 10.0892 0.0879788
133 Ni 7.52739 11.774 4.94545
134 Ni 7.51227 14.7284 2.42191
135 Ni 9.47803 11.3008 1.42379
136 Ni 9.38646 12.9756 3.56574
137 Al 7.63589 11.3085 7.30084
138 Al 9.58379 9.80559 8.93205
139 Al 9.43133 12.9652 6.15642
140 Ni 7.63903 9.11523 5.06519
141 Ni 7.69366 11.0329 9.95627
142 Ni 7.57811 13.8286 7.47547
143 Ni 9.54125 10.4604 6.2407
144 Ni 9.48947 12.3355 8.54476
ITEM: TIMESTEP
4200
ITEM: NUMBER OF ATOMS
144
ITEM: BOX BOUNDS xy xz yz pp pp pp
-8.8493396685519199e-02 1.1429026130376363e+01 -1.9901693766219822e-02
-1.5568562181409884e+00 1.5021287635526470e+01 -3.4625570890336112e-02
-1.9564693103825803e-02 9.9222828738438409e+00 -1.5460670058318644e+00
ITEM: ATOMS id element xu yu zu
1 Al -0.07327 2.17692 2.55683
2 Al 1.80119 0.543481 3.83227
3 Al 1.8775 3.70676 1.11969
4 Ni -0.0695469 -0.00240373 -0.0427016
5 Ni -0.0918218 1.75422 5.03684
6 Ni -0.145075 4.63253 2.45352
7 Ni 1.82992 1.16391 1.20134
8 Ni 1.84569 2.92955 3.59964
9 Al -0.0817574 1.17235 7.46144
10 Al 1.85738 -0.420788 8.83374
11 Al 1.88127 2.91048 6.21838
12 Ni 0.000107299 -0.737654 4.94298
13 Ni -0.142124 0.984414 9.91538
14 Ni -0.263607 3.61263 7.44091
15 Ni 1.86763 0.363657 6.32297
16 Ni 1.78226 2.23804 8.66684
17 Al -0.0272818 7.07768 2.45036
18 Al 1.94982 5.473 3.89416
19 Al 1.92775 8.7408 1.1562
20 Ni -0.0350224 5.1332 0.0736827
21 Ni -0.118884 6.68336 4.89945
22 Ni -0.0997312 9.71801 2.5746
23 Ni 1.97045 6.22023 1.33562
24 Ni 1.96116 8.10466 3.62425
25 Al -0.126338 6.18908 7.37617
26 Al 1.75658 4.79492 8.78335
27 Al 1.74699 8.00706 5.98275
28 Ni -0.169138 4.10333 5.00938
29 Ni -0.091185 6.1086 9.91529
30 Ni -0.0650765 8.82297 7.47866
31 Ni 1.88587 5.45483 6.28793
32 Ni 1.77816 7.30158 8.58078
33 Al -0.103446 12.2175 2.43883
34 Al 1.91978 10.5771 3.89039
35 Al 1.80282 13.7096 0.885659
36 Ni -0.0386547 10.1007 -0.0181679
37 Ni -0.0930804 11.7125 4.87794
38 Ni -0.0461569 14.8272 2.37442
39 Ni 1.71035 11.1285 1.4401
40 Ni 1.84025 13.1831 3.49223
41 Al -0.175795 11.3354 7.53719
42 Al 1.81544 9.71518 8.86075
43 Al 1.86321 12.95 6.0088
44 Ni -0.15916 9.1843 4.9293
45 Ni -0.0286386 10.9304 9.89693
46 Ni -0.183584 13.7977 7.38786
47 Ni 1.75943 10.3809 6.39396
48 Ni 1.82039 12.2751 8.51789
49 Al 3.82725 2.17319 2.50632
50 Al 5.63747 0.514402 3.9507
51 Al 5.52376 3.74722 1.16333
52 Ni 3.90188 -0.0698963 0.032968
53 Ni 3.74838 1.67383 5.02318
54 Ni 3.72736 4.73219 2.55251
55 Ni 5.74798 1.16512 1.36248
56 Ni 5.68516 3.04942 3.53536
57 Al 3.78124 1.22881 7.48454
58 Al 5.69781 -0.187339 8.83529
59 Al 5.63747 2.84723 6.04669
60 Ni 3.75118 -0.734147 5.07907
61 Ni 3.787 0.877823 9.96314
62 Ni 3.70959 3.80353 7.62005
63 Ni 5.69614 0.265376 6.53095
64 Ni 5.71013 2.34083 8.58411
65 Al 3.79224 7.2337 2.51713
66 Al 5.60207 5.45403 3.82955
67 Al 5.6938 8.73174 1.11888
68 Ni 3.66016 5.00993 -0.0322437
69 Ni 3.77784 6.73715 4.99325
70 Ni 3.76729 9.70437 2.52723
71 Ni 5.60442 6.27659 1.15537
72 Ni 5.65844 8.16261 3.6539
73 Al 3.7389 6.29176 7.49213
74 Al 5.62304 4.7539 8.77155
75 Al 5.68863 7.88545 6.19739
76 Ni 3.83949 4.2529 4.88128
77 Ni 3.66816 5.88966 9.97114
78 Ni 3.6414 8.68621 7.53772
79 Ni 5.62335 5.3503 6.36411
80 Ni 5.576 7.25826 8.67179
81 Al 3.82478 12.2185 2.39056
82 Al 5.62374 10.5594 3.93256
83 Al 5.72315 13.6723 1.16358
84 Ni 3.69622 10.0913 0.0944961
85 Ni 3.68804 11.8115 4.97375
86 Ni 3.72831 14.6233 2.47375
87 Ni 5.70657 11.1699 1.42136
88 Ni 5.69992 13.0561 3.6813
89 Al 3.70377 11.1857 7.43609
90 Al 5.54426 9.7223 8.88741
91 Al 5.64819 12.8518 6.08806
92 Ni 3.70902 9.22565 4.98085
93 Ni 3.6632 10.962 10.0045
94 Ni 3.71184 13.7524 7.4991
95 Ni 5.64597 10.4659 6.38884
96 Ni 5.64247 12.3507 8.5675
97 Al 7.56782 2.05028 2.29295
98 Al 9.53827 0.578109 3.9362
99 Al 9.44895 3.89352 1.0904
100 Ni 7.59568 -0.0697943 -0.0338808
101 Ni 7.54689 1.77706 4.83859
102 Ni 7.52144 4.61863 2.47937
103 Ni 9.5658 1.32205 1.32664
104 Ni 9.40534 3.05138 3.53378
105 Al 7.61534 1.22566 7.4191
106 Al 9.54405 -0.298109 8.7849
107 Al 9.33465 2.90163 6.02399
108 Ni 7.59343 -0.795232 4.96652
109 Ni 7.59454 0.974818 9.86362
110 Ni 7.50308 3.87026 7.38157
111 Ni 9.50365 0.383573 6.22992
112 Ni 9.57729 2.3329 8.60453
113 Al 7.4847 7.13413 2.45708
114 Al 9.44576 5.49307 3.81301
115 Al 9.56912 8.74251 1.06571
116 Ni 7.49731 5.11529 -0.0820001
117 Ni 7.53254 6.80592 4.90166
118 Ni 7.68376 9.55596 2.54258
119 Ni 9.5772 6.18053 1.36175
120 Ni 9.46524 8.0555 3.53906
121 Al 7.52841 6.26261 7.37122
122 Al 9.46663 4.73911 8.89173
123 Al 9.39274 7.9007 6.04483
124 Ni 7.58288 4.29188 4.96186
125 Ni 7.58545 6.05328 9.84058
126 Ni 7.43297 8.87996 7.44012
127 Ni 9.39083 5.33445 6.27862
128 Ni 9.45008 7.31323 8.62353
129 Al 7.58508 12.1111 2.49225
130 Al 9.51144 10.5877 3.94468
131 Al 9.45717 13.7904 0.969907
132 Ni 7.53543 10.0491 0.0472687
133 Ni 7.59105 11.8875 4.94895
134 Ni 7.61646 14.5775 2.54846
135 Ni 9.56076 11.1079 1.33424
136 Ni 9.542 13.2759 3.56671
137 Al 7.5365 11.3491 7.39895
138 Al 9.46955 9.75651 8.93067
139 Al 9.44061 12.9368 6.11345
140 Ni 7.53247 9.41221 5.03006
141 Ni 7.55216 10.8797 9.84026
142 Ni 7.60588 13.7811 7.32978
143 Ni 9.47171 10.3679 6.42207
144 Ni 9.5056 12.2045 8.53943
ITEM: TIMESTEP
4300
ITEM: NUMBER OF ATOMS
144
ITEM: BOX BOUNDS xy xz yz pp pp pp
-1.4556183248526480e-01 1.1522506388848308e+01 6.5423297713941425e-02
-1.5311402594228329e+00 1.5052273203228053e+01 -8.3538739698309855e-02
-2.1918462898295132e-02 9.9246366436383084e+00 -1.4893654794121349e+00
ITEM: ATOMS id element xu yu zu
1 Al -0.132678 2.00907 2.5802
2 Al 1.78871 0.466949 3.83869
3 Al 1.8212 3.89123 1.11624
4 Ni 0.0379088 0.00395628 -0.0909652
5 Ni -0.0618282 1.75339 4.9386
6 Ni -0.109489 4.6792 2.53705
7 Ni 1.8226 1.17409 1.46838
8 Ni 1.73041 3.21357 3.61432
9 Al -0.17888 1.4291 7.52645
10 Al 1.7062 -0.241744 8.84885
11 Al 1.77353 2.88179 6.13023
12 Ni -0.110094 -0.741353 4.85932
13 Ni -0.0542129 0.947965 9.99344
14 Ni -0.0672302 4.02085 7.49975
15 Ni 1.74738 0.450181 6.33737
16 Ni 1.77604 2.31294 8.5831
17 Al -0.120309 7.17065 2.50782
18 Al 1.96024 5.66605 3.89892
19 Al 1.99992 8.88263 1.18714
20 Ni -0.118381 4.90769 -0.0126047
21 Ni -0.0887382 6.9447 5.0306
22 Ni -0.0519047 9.65445 2.45978
23 Ni 1.6377 6.26121 1.42161
24 Ni 1.79564 8.13255 3.69447
25 Al -0.14341 6.38168 7.48893
26 Al 1.87519 4.75991 8.84059
27 Al 1.85862 8.0581 6.13668
28 Ni -0.115571 4.36616 4.9972
29 Ni -0.15216 5.94451 9.99033
30 Ni -0.11431 8.88051 7.48782
31 Ni 1.76707 5.39431 6.37215
32 Ni 1.80452 7.26282 8.62218
33 Al 0.0531097 12.1042 2.41696
34 Al 1.95164 10.562 3.79788
35 Al 1.9501 13.7664 0.943937
36 Ni -0.0852561 10.0219 -0.00547503
37 Ni -0.0512945 11.7856 5.0066
38 Ni -0.015735 14.5729 2.43127
39 Ni 2.00708 11.3567 1.32551
40 Ni 1.92689 12.9947 3.60259
41 Al -0.144221 11.3862 7.47223
42 Al 1.80029 9.74842 8.74359
43 Al 1.96777 13.0963 5.94839
44 Ni -0.0325083 9.37203 5.0459
45 Ni -0.164035 11.0612 9.90689
46 Ni 0.0612036 13.8716 7.2998
47 Ni 1.93955 10.4648 6.30879
48 Ni 1.74799 12.3141 8.54809
49 Al 3.79068 2.31545 2.57048
50 Al 5.63399 0.617245 3.82882
51 Al 5.65054 3.63853 1.13801
52 Ni 3.61697 0.0665667 -0.105049
53 Ni 3.63207 1.7308 5.00757
54 Ni 3.85543 4.61633 2.54167
55 Ni 5.55396 1.22413 1.42732
56 Ni 5.58921 3.19347 3.62983
57 Al 3.61735 1.31949 7.48813
58 Al 5.55004 -0.325368 8.82882
59 Al 5.62071 2.96778 6.07098
60 Ni 3.73828 -0.827222 4.77552
61 Ni 3.6516 1.05027 10.0386
62 Ni 3.67767 3.844 7.30243
63 Ni 5.49233 0.516641 6.19068
64 Ni 5.64449 2.07042 8.51764
65 Al 3.727 7.16744 2.51715
66 Al 5.5662 5.53844 3.95811
67 Al 5.7412 8.70749 1.06365
68 Ni 3.80624 5.03922 -0.0335275
69 Ni 3.67737 6.79113 4.9827
70 Ni 3.78451 9.7101 2.59223
71 Ni 5.68522 6.19497 1.501
72 Ni 5.74107 8.07052 3.52611
73 Al 3.78752 6.35694 7.38196
74 Al 5.62379 4.6093 8.97027
75 Al 5.70814 7.96392 6.07696
76 Ni 3.59305 4.41539 5.03425
77 Ni 3.72638 6.07089 9.91232
78 Ni 3.86053 8.93788 7.56292
79 Ni 5.58082 5.39407 6.35094
80 Ni 5.6657 7.27545 8.45676
81 Al 3.93658 12.3012 2.35647
82 Al 5.71722 10.5257 3.81709
83 Al 5.64889 13.9018 0.997096
84 Ni 3.83236 9.96148 -0.01028
85 Ni 3.84978 11.7715 4.86575
86 Ni 3.84244 14.6624 2.47092
87 Ni 5.75169 11.2965 1.40428
88 Ni 5.74052 13.1924 3.46687
89 Al 3.83977 11.4426 7.3001
90 Al 5.73607 9.72783 8.91328
91 Al 5.79544 13.0171 5.91683
92 Ni 3.80271 9.27119 5.07805
93 Ni 3.80271 10.961 9.84053
94 Ni 3.74711 13.9912 7.37459
95 Ni 5.78652 10.3611 6.33579
96 Ni 5.65668 12.2937 8.52898
97 Al 7.65664 2.17175 2.47997
98 Al 9.45108 0.461409 3.92613
99 Al 9.59922 3.7154 1.22985
100 Ni 7.63369 0.015397 -0.0089569
101 Ni 7.58337 1.78008 5.00311
102 Ni 7.61072 4.69009 2.47495
103 Ni 9.5148 1.0379 1.33855
104 Ni 9.56594 3.12612 3.61854
105 Al 7.51147 1.11569 7.25104
106 Al 9.46122 -0.261479 8.81292
107 Al 9.55189 2.96922 6.0871
108 Ni 7.60668 -0.717679 4.98074
109 Ni 7.50144 0.972818 10.016
110 Ni 7.57009 3.71889 7.45662
111 Ni 9.57438 0.369759 6.40483
112 Ni 9.38928 2.15304 8.48426
113 Al 7.59136 7.33226 2.52719
114 Al 9.50598 5.57411 3.87767
115 Al 9.6116 8.84083 1.02902
116 Ni 7.74932 4.88438 0.0842558
117 Ni 7.58161 6.62351 4.9754
118 Ni 7.54449 9.74941 2.44126
119 Ni 9.51953 6.20822 1.40266
120 Ni 9.49793 8.15476 3.61927
121 Al 7.48167 6.20481 7.30667
122 Al 9.40161 4.72318 8.83628
123 Al 9.43461 7.92515 6.05627
124 Ni 7.48725 4.18458 5.00763
125 Ni 7.4461 5.95395 9.96316
126 Ni 7.6816 8.78398 7.38893
127 Ni 9.51399 5.42372 6.38134
128 Ni 9.43421 7.24962 8.50126
129 Al 7.59376 12.2877 2.53806
130 Al 9.65493 10.5974 3.83418
131 Al 9.58097 13.808 0.984852
132 Ni 7.70717 9.94412 -0.0598695
133 Ni 7.61966 11.6839 5.03784
134 Ni 7.62181 14.7787 2.39052
135 Ni 9.48904 11.2974 1.3869
136 Ni 9.50486 13.0085 3.60726
137 Al 7.56554 11.3665 7.48437
138 Al 9.51419 9.8165 8.93447
139 Al 9.39338 13.0524 6.1321
140 Ni 7.65505 9.18238 4.90642
141 Ni 7.59795 11.1432 10.0543
142 Ni 7.50504 13.9033 7.48454
143 Ni 9.43693 10.44 6.29739
144 Ni 9.51632 12.4487 8.51764
ITEM: TIMESTEP
4400
ITEM: NUMBER OF ATOMS
144
ITEM: BOX BOUNDS xy xz yz pp pp pp
-1.3377378563276920e-02 1.1462705828887504e+01 5.2248953793333115e-02
-1.5052459668246179e+00 1.5032687378463997e+01 2.0194981835054749e-03
1.1249588183499526e-02 9.8914685925565173e+00 -1.4830570115779655e+00
ITEM: ATOMS id element xu yu zu
1 Al -0.0752401 2.10752 2.53265
2 Al 1.84163 0.65794 3.83675
3 Al 1.83842 3.6711 1.07887
4 Ni -0.178123 -0.129423 0.0547328
5 Ni -0.0442592 1.71381 5.02402
6 Ni -0.066308 4.57672 2.42027
7 Ni 1.80079 1.14507 1.25104
8 Ni 1.88499 3.03163 3.55645
9 Al 0.0282386 1.42443 7.43101
10 Al 1.80462 -0.197687 8.81119
11 Al 2.01047 3.01754 6.0488
12 Ni -0.0550561 -0.734533 5.03875
13 Ni -0.121836 0.980735 9.86372
14 Ni 0.0266746 3.87755 7.42152
15 Ni 1.88984 0.395221 6.37435
16 Ni 1.94734 2.40835 8.51543
17 Al 0.0716918 7.04651 2.41709
18 Al 1.95974 5.48828 4.01753
19 Al 1.95675 8.62307 1.07824
20 Ni 0.0340135 4.91878 0.113034
21 Ni 0.0322172 6.73931 5.06815
22 Ni -0.050232 9.66247 2.4669
23 Ni 1.97242 6.04917 1.43526
24 Ni 1.85836 8.0978 3.51735
25 Al 0.0331785 6.48839 7.52815
26 Al 1.90596 4.89089 8.82879
27 Al 1.94466 8.11286 5.94401
28 Ni -0.0103316 4.22725 4.98584
29 Ni -0.133569 5.91894 9.91623
30 Ni 0.0672405 8.97475 7.3564
31 Ni 1.92893 5.5853 6.40206
32 Ni 1.95268 7.50014 8.51374
33 Al 0.0935955 12.1076 2.41488
34 Al 1.91649 10.5812 3.78904
35 Al 1.91297 13.6443 1.02859
36 Ni -0.0209282 9.91369 -0.0014287
37 Ni 0.0214514 11.8208 4.85313
38 Ni 0.0165029 14.7119 2.56242
39 Ni 1.82903 10.9572 1.38637
40 Ni 1.8587 13.247 3.51526
41 Al 0.136475 11.5574 7.50612
42 Al 1.96409 9.90306 8.74815
43 Al 1.93508 13.0982 5.92899
44 Ni 0.000551936 9.28149 4.90099
45 Ni 0.0667482 11.0147 9.88205
46 Ni -0.140582 14.0035 7.66187
47 Ni 1.92596 10.5006 6.3118
48 Ni 2.05527 12.4404 8.44929
49 Al 3.86956 2.33012 2.40905
50 Al 5.60422 0.506933 3.96979
51 Al 5.69844 3.68983 1.23771
52 Ni 3.91092 -0.110634 -0.0736121
53 Ni 3.80294 1.81739 4.96618
54 Ni 3.63347 4.66854 2.49611
55 Ni 5.67473 1.19386 1.34836
56 Ni 5.68364 3.00734 3.61295
57 Al 3.72413 1.34654 7.32821
58 Al 5.65918 -0.245325 8.78326
59 Al 5.81389 2.92684 6.05332
60 Ni 3.74204 -0.655097 4.96536
61 Ni 3.77867 0.997568 9.81376
62 Ni 3.81688 3.96901 7.53765
63 Ni 5.83262 0.323692 6.41892
64 Ni 5.65755 2.43919 8.56061
65 Al 3.84028 7.12779 2.57357
66 Al 5.64295 5.44812 3.91627
67 Al 5.81497 8.69416 1.19774
68 Ni 3.76303 4.9357 0.209473
69 Ni 3.76595 6.65986 4.96665
70 Ni 3.76087 9.57863 2.39847
71 Ni 5.77797 6.25502 1.3904
72 Ni 5.66765 8.0979 3.589
73 Al 3.89687 6.44579 7.50416
74 Al 5.68881 4.9078 8.94636
75 Al 5.61433 8.08657 6.04582
76 Ni 3.87544 4.15531 4.89586
77 Ni 3.85077 6.01854 9.97975
78 Ni 3.79575 8.92975 7.24691
79 Ni 5.7308 5.43593 6.35367
80 Ni 5.78542 7.35278 8.64728
81 Al 3.77437 12.096 2.45693
82 Al 5.73246 10.583 3.70301
83 Al 5.72494 13.7422 1.17889
84 Ni 3.87663 10.0329 -0.0440832
85 Ni 3.76338 11.8784 4.98413
86 Ni 3.75204 14.7325 2.44249
87 Ni 5.73393 11.257 1.27198
88 Ni 5.59448 13.1676 3.59121
89 Al 3.86285 11.4425 7.31468
90 Al 5.58957 9.83994 8.77665
91 Al 5.79983 12.9956 6.01006
92 Ni 3.77399 9.38608 4.84088
93 Ni 3.86688 11.1186 9.92877
94 Ni 3.82317 13.8575 7.40726
95 Ni 5.66344 10.5042 6.31252
96 Ni 5.78469 12.349 8.49001
97 Al 7.65017 2.07393 2.46329
98 Al 9.47709 0.555011 3.87924
99 Al 9.33514 3.70361 1.27668
100 Ni 7.54962 -0.119336 0.0440425
101 Ni 7.59231 1.63648 4.96912
102 Ni 7.67783 4.56345 2.64474
103 Ni 9.40945 1.21969 1.43965
104 Ni 9.53422 3.02857 3.64426
105 Al 7.62043 1.38445 7.41581
106 Al 9.26605 -0.298671 8.83884
107 Al 9.49074 2.99548 6.15554
108 Ni 7.55054 -0.779145 4.9166
109 Ni 7.56072 0.928257 9.88264
110 Ni 7.60758 3.82424 7.43731
111 Ni 9.38679 0.427832 6.31421
112 Ni 9.47179 2.30419 8.59842
113 Al 7.61887 7.21074 2.62425
114 Al 9.61035 5.589 3.90375
115 Al 9.56541 8.73312 1.16445
116 Ni 7.49685 5.00169 0.0391858
117 Ni 7.71537 6.91071 5.03316
118 Ni 7.67891 9.63029 2.48594
119 Ni 9.50369 6.08493 1.407
120 Ni 9.52059 8.09666 3.60905
121 Al 7.60636 6.46186 7.28526
122 Al 9.4532 4.78537 8.79223
123 Al 9.50493 8.01969 6.15302
124 Ni 7.738 4.3269 5.08505
125 Ni 7.7106 5.99122 10.0335
126 Ni 7.53465 8.85784 7.44008
127 Ni 9.61287 5.50425 6.48749
128 Ni 9.54329 7.34983 8.68781
129 Al 7.66878 12.2593 2.44815
130 Al 9.54055 10.6486 3.89258
131 Al 9.43384 13.7652 1.10234
132 Ni 7.57308 10.0698 0.0277382
133 Ni 7.56538 11.8897 4.89344
134 Ni 7.641 14.7243 2.51407
135 Ni 9.55677 11.118 1.33189
136 Ni 9.59052 13.1916 3.53132
137 Al 7.66413 11.3747 7.25849
138 Al 9.58405 9.71878 8.78145
139 Al 9.50931 13.1028 6.07194
140 Ni 7.5368 9.25467 4.99965
141 Ni 7.62914 10.9888 9.82874
142 Ni 7.74681 13.8635 7.36492
143 Ni 9.58662 10.4655 6.34395
144 Ni 9.53448 12.1936 8.61588
ITEM: TIMESTEP
4500
ITEM: NUMBER OF ATOMS
144
ITEM: BOX BOUNDS xy xz yz pp pp pp
-8.4439346898668388e-02 1.1478978003367260e+01 -4.5784091220461461e-02
-1.5670197306953035e+00 1.5049184423489454e+01 4.5262749341657894e-02
-5.0429554850323299e-02 9.9531477355903348e+00 -1.5283337304232019e+00
ITEM: ATOMS id element xu yu zu
1 Al -0.047287 2.0919 2.47752
2 Al 1.80721 0.462727 3.84513
3 Al 2.04122 3.76173 1.13972
4 Ni 0.0335608 -0.0572724 -0.0437816
5 Ni -0.0578634 1.8096 4.92284
6 Ni -0.0200644 4.55962 2.50078
7 Ni 1.82482 1.1113 1.41807
8 Ni 1.93708 3.02017 3.60153
9 Al 0.0537632 1.4291 7.45759
10 Al 1.89349 -0.289439 8.84027
11 Al 1.92996 2.96231 6.02611
12 Ni -0.0186046 -0.806688 4.95124
13 Ni 0.126984 0.881771 9.94798
14 Ni -0.092544 3.92908 7.51155
15 Ni 1.85971 0.58336 6.3335
16 Ni 1.85498 2.22654 8.57957
17 Al -0.0148541 7.11231 2.4451
18 Al 1.99299 5.51039 3.93229
19 Al 1.90921 8.82189 1.12017
20 Ni -0.0280248 4.9247 -0.0517606
21 Ni -0.0852136 6.69111 4.94448
22 Ni -0.0195289 9.60302 2.42904
23 Ni 1.78079 6.13054 1.3845
24 Ni 1.89131 8.00701 3.57595
25 Al -0.0253252 6.3843 7.33247
26 Al 1.86188 4.75822 8.77746
27 Al 1.85758 7.96498 6.10854
28 Ni -0.0826759 4.25952 5.08911
29 Ni 0.0697115 6.03222 10.0138
30 Ni -0.0236489 8.93867 7.48345
31 Ni 1.89984 5.32074 6.38917
32 Ni 1.87731 7.24036 8.54576
33 Al -0.129729 12.0229 2.52946
34 Al 1.89985 10.4254 3.75449
35 Al 1.80345 13.6339 1.22553
36 Ni -0.0791207 10.0326 -0.0924706
37 Ni -0.0450161 11.7793 4.93247
38 Ni -0.137992 14.6326 2.49647
39 Ni 1.77578 11.3135 1.2902
40 Ni 1.77047 12.9578 3.66884
41 Al -0.0578826 11.447 7.51149
42 Al 1.83085 9.80928 8.7466
43 Al 1.94845 13.0601 6.13833
44 Ni -0.0290399 9.23327 4.96572
45 Ni -0.120384 10.9594 9.87347
46 Ni 0.0279083 13.9464 7.37251
47 Ni 1.79211 10.4971 6.30115
48 Ni 1.6571 12.3612 8.69713
49 Al 3.83227 2.02381 2.55727
50 Al 5.79827 0.366641 3.9388
51 Al 5.6059 3.65358 1.0879
52 Ni 3.70255 -0.0453354 0.12612
53 Ni 3.81266 1.6972 4.92067
54 Ni 3.91932 4.44857 2.54844
55 Ni 5.7482 1.03565 1.372
56 Ni 5.63244 3.08606 3.61447
57 Al 3.74395 1.44049 7.41304
58 Al 5.69596 -0.244822 8.941
59 Al 5.69444 3.00348 6.12768
60 Ni 3.8155 -0.846902 5.08544
61 Ni 3.87756 0.976291 9.9793
62 Ni 3.79752 3.82516 7.52841
63 Ni 5.6796 0.532942 6.25373
64 Ni 5.7667 2.24222 8.63138
65 Al 3.87148 7.06104 2.48698
66 Al 5.63379 5.58154 3.98814
67 Al 5.67221 8.66391 1.08094
68 Ni 3.77868 5.0058 -0.127718
69 Ni 3.90667 6.90637 4.99889
70 Ni 3.69571 9.60033 2.34453
71 Ni 5.62775 6.11811 1.35048
72 Ni 5.71118 8.08592 3.61635
73 Al 3.74597 6.32372 7.38538
74 Al 5.69129 4.77621 8.94196
75 Al 5.74444 8.15824 6.1465
76 Ni 3.72354 4.3614 5.07822
77 Ni 3.82269 5.96134 9.94195
78 Ni 3.72026 8.97027 7.46494
79 Ni 5.75997 5.51907 6.45758
80 Ni 5.62577 7.37612 8.55432
81 Al 3.69325 12.0265 2.49432
82 Al 5.64341 10.4494 3.78655
83 Al 5.63519 13.6803 0.996546
84 Ni 3.62312 10.0009 -0.060112
85 Ni 3.61851 11.7783 4.90827
86 Ni 3.76584 14.4607 2.48751
87 Ni 5.53303 11.1177 1.32983
88 Ni 5.73538 13.0103 3.52865
89 Al 3.67758 11.4738 7.43716
90 Al 5.60848 9.76921 8.90856
91 Al 5.65322 13.0169 6.01821
92 Ni 3.72013 9.1435 4.95233
93 Ni 3.68646 10.9833 9.89643
94 Ni 3.83481 14.0476 7.56396
95 Ni 5.55717 10.4875 6.27259
96 Ni 5.60319 12.3839 8.58066
97 Al 7.64338 2.02218 2.34597
98 Al 9.45621 0.500304 3.83355
99 Al 9.53026 3.69387 1.14054
100 Ni 7.6507 0.00460357 -0.0727349
101 Ni 7.58901 1.87192 5.04357
102 Ni 7.5254 4.54308 2.3681
103 Ni 9.5211 1.0649 1.38238
104 Ni 9.41883 3.00675 3.49799
105 Al 7.63918 1.31138 7.41375
106 Al 9.45718 -0.306065 8.88506
107 Al 9.46204 2.98255 6.1507
108 Ni 7.64029 -0.827583 5.0137
109 Ni 7.68104 1.06635 10.1083
110 Ni 7.6423 3.96754 7.56678
111 Ni 9.54942 0.374283 6.45367
112 Ni 9.53698 2.38502 8.52694
113 Al 7.64761 7.192 2.4771
114 Al 9.44946 5.45379 3.8245
115 Al 9.53751 8.74707 1.00917
116 Ni 7.70058 5.07771 -0.0150275
117 Ni 7.59258 6.74539 5.02275
118 Ni 7.53545 9.58629 2.52141
119 Ni 9.52518 6.14982 1.41413
120 Ni 9.44885 8.02542 3.67209
121 Al 7.60356 6.47963 7.38753
122 Al 9.56261 4.92672 8.9393
123 Al 9.46379 7.98838 6.0948
124 Ni 7.47388 4.20739 4.93679
125 Ni 7.51242 5.92738 9.96332
126 Ni 7.65725 8.91892 7.45746
127 Ni 9.45728 5.46667 6.30182
128 Ni 9.57157 7.30914 8.47258
129 Al 7.61317 12.097 2.35646
130 Al 9.59088 10.4956 3.78381
131 Al 9.4235 13.7208 0.915673
132 Ni 7.64706 10.0045 0.044702
133 Ni 7.58898 11.8003 4.83936
134 Ni 7.56828 14.5095 2.43612
135 Ni 9.48031 11.2202 1.33912
136 Ni 9.38955 13.0709 3.56946
137 Al 7.55105 11.4512 7.26008
138 Al 9.53385 9.77749 8.80362
139 Al 9.44292 13.1176 6.04097
140 Ni 7.67184 9.337 5.03331
141 Ni 7.53599 10.9515 9.86235
142 Ni 7.4585 13.9213 7.42836
143 Ni 9.48939 10.4768 6.27125
144 Ni 9.42127 12.5066 8.37918
ITEM: TIMESTEP
4600
ITEM: NUMBER OF ATOMS
144
ITEM: BOX BOUNDS xy xz yz pp pp pp
-9.4956434747682991e-02 1.1439895965883089e+01 -5.5073082203127108e-02
-1.5443769298459822e+00 1.5030556894568416e+01 4.9526149911405769e-03
2.4182239186145260e-02 9.8785359415538601e+00 -1.5243184584949221e+00
ITEM: ATOMS id element xu yu zu
1 Al -0.00104817 2.05631 2.60872
2 Al 1.80715 0.454247 3.91468
3 Al 1.85917 3.78939 1.22495
4 Ni -0.125741 0.129068 0.035966
5 Ni 0.0593043 1.64142 5.02982
6 Ni -0.103304 4.6966 2.52103
7 Ni 1.85721 1.19736 1.4391
8 Ni 1.86995 3.05733 3.65767
9 Al 0.0410623 1.36314 7.4792
10 Al 1.72999 -0.264359 8.86255
11 Al 1.83526 3.05091 6.00687
12 Ni -0.0418009 -0.827892 4.95787
13 Ni -0.127243 1.05677 9.98698
14 Ni -0.0327853 3.83326 7.44121
15 Ni 1.889 0.298909 6.41401
16 Ni 1.86472 2.35575 8.59737
17 Al -0.0669415 7.10884 2.44399
18 Al 1.85572 5.49849 3.87602
19 Al 1.82739 8.77207 1.15967
20 Ni -0.131014 5.13256 0.0337753
21 Ni -0.0818851 6.82055 4.97564
22 Ni -0.187745 9.63306 2.50704
23 Ni 1.8245 6.21661 1.40852
24 Ni 1.79299 8.12267 3.60015
25 Al -0.155016 6.39543 7.45574
26 Al 1.85963 4.85372 8.71999
27 Al 1.83703 8.00208 6.119
28 Ni -0.0167981 4.18152 4.83673
29 Ni -0.225291 5.94199 9.89541
30 Ni -0.194907 8.84479 7.40866
31 Ni 1.75253 5.53703 6.32402
32 Ni 1.78072 7.36202 8.54554
33 Al -0.110921 12.0084 2.53707
34 Al 1.80829 10.5932 3.88252
35 Al 1.93844 13.7762 1.071
36 Ni -0.126641 10.0513 0.0462293
37 Ni -0.187353 11.7605 4.9864
38 Ni -0.0946833 14.5979 2.39211
39 Ni 1.8991 11.0605 1.44972
40 Ni 1.91263 13.1279 3.47765
41 Al -0.0784088 11.3647 7.6074
42 Al 1.80084 9.78573 8.82868
43 Al 1.79483 12.8019 6.0248
44 Ni -0.187674 9.30718 4.89052
45 Ni -0.0199395 11.1245 9.97189
46 Ni -0.174012 13.9374 7.4298
47 Ni 1.85938 10.4097 6.4098
48 Ni 1.92088 12.3187 8.42811
49 Al 3.65324 2.22124 2.67341
50 Al 5.71326 0.466045 3.97313
51 Al 5.65656 3.6109 1.17659
52 Ni 3.82342 0.0452636 -0.0155385
53 Ni 3.74112 1.75247 5.11263
54 Ni 3.67251 4.65404 2.51244
55 Ni 5.71301 1.15442 1.38947
56 Ni 5.74165 2.93047 3.60651
57 Al 3.72739 1.38784 7.44381
58 Al 5.6067 -0.204232 8.79005
59 Al 5.70983 2.87313 6.04416
60 Ni 3.77026 -0.761921 4.97412
61 Ni 3.72182 0.926914 9.95639
62 Ni 3.67819 3.93025 7.34729
63 Ni 5.6916 0.372765 6.4287
64 Ni 5.62853 2.35734 8.50511
65 Al 3.79719 7.12008 2.51003
66 Al 5.60725 5.45072 3.77797
67 Al 5.63107 8.69076 1.14309
68 Ni 3.75037 4.92915 0.0532688
69 Ni 3.58701 6.57616 4.92295
70 Ni 3.79627 9.57896 2.68827
71 Ni 5.67973 6.10025 1.31617
72 Ni 5.66385 7.99485 3.54019
73 Al 3.68015 6.38118 7.43984
74 Al 5.67306 4.8412 8.82501
75 Al 5.63566 7.95201 6.05165
76 Ni 3.75116 4.12897 4.89258
77 Ni 3.76036 5.95352 9.85637
78 Ni 3.73058 8.86998 7.45159
79 Ni 5.62286 5.42086 6.18591
80 Ni 5.67286 7.29176 8.55779
81 Al 3.73111 12.0364 2.48101
82 Al 5.70924 10.479 3.81675
83 Al 5.60569 13.7486 1.11286
84 Ni 3.8026 10.0048 0.100064
85 Ni 3.84946 11.8946 4.97767
86 Ni 3.69019 14.7506 2.45706
87 Ni 5.6996 11.2128 1.35227
88 Ni 5.56621 13.1105 3.55775
89 Al 3.81839 11.2973 7.40289
90 Al 5.61452 9.85415 8.82145
91 Al 5.67205 13.0912 6.11382
92 Ni 3.78285 9.26362 5.09187
93 Ni 3.74064 10.9336 9.93649
94 Ni 3.65082 13.8641 7.3543
95 Ni 5.76557 10.4379 6.40789
96 Ni 5.66795 12.4037 8.53075
97 Al 7.62145 2.13007 2.40809
98 Al 9.56468 0.410882 3.75145
99 Al 9.46555 3.73262 1.16471
100 Ni 7.5679 -0.00437847 0.0281971
101 Ni 7.56902 1.6725 4.97519
102 Ni 7.70967 4.49775 2.53986
103 Ni 9.54391 1.20646 1.41333
104 Ni 9.58852 3.07196 3.62895
105 Al 7.58283 1.43 7.4002
106 Al 9.40815 -0.354885 8.70366
107 Al 9.58733 2.91984 6.14468
108 Ni 7.53796 -0.813487 4.88092
109 Ni 7.63278 0.854076 9.8233
110 Ni 7.62004 3.84452 7.31979
111 Ni 9.49095 0.411851 6.2937
112 Ni 9.58406 2.28556 8.55993
113 Al 7.60765 7.08678 2.46639
114 Al 9.53409 5.55619 3.91912
115 Al 9.47992 8.72893 1.09821
116 Ni 7.54676 4.90286 0.0611019
117 Ni 7.55815 6.67875 4.89104
118 Ni 7.5012 9.53843 2.37614
119 Ni 9.45463 6.19105 1.32256
120 Ni 9.43972 8.04883 3.44609
121 Al 7.55245 6.3763 7.33749
122 Al 9.38305 4.73451 8.7623
123 Al 9.28842 7.99848 5.99094
124 Ni 7.71511 4.23524 4.94956
125 Ni 7.68601 6.02119 9.92044
126 Ni 7.51083 8.99431 7.40528
127 Ni 9.47134 5.478 6.38434
128 Ni 9.42521 7.48828 8.64293
129 Al 7.58743 12.147 2.55825
130 Al 9.40084 10.4507 3.8111
131 Al 9.38483 13.7097 1.21261
132 Ni 7.4375 10.0574 -0.055815
133 Ni 7.53145 11.7441 5.04415
134 Ni 7.5218 14.6764 2.46159
135 Ni 9.44305 11.0964 1.40534
136 Ni 9.43033 12.9626 3.51762
137 Al 7.62644 11.5801 7.42018
138 Al 9.47768 9.84693 8.80468
139 Al 9.3699 13.0811 6.03221
140 Ni 7.42316 9.20344 4.93097
141 Ni 7.55455 11.109 9.94406
142 Ni 7.66945 14.0163 7.48602
143 Ni 9.39615 10.4675 6.38791
144 Ni 9.48937 12.3282 8.63962
ITEM: TIMESTEP
4700
ITEM: NUMBER OF ATOMS
144
ITEM: BOX BOUNDS xy xz yz pp pp pp
-7.8514801819764293e-02 1.1488415101455194e+01 4.1618942250449716e-02
-1.5680734597931569e+00 1.5019408846948885e+01 -2.6778640962419067e-02
-2.1941107378225411e-02 9.9246592881182210e+00 -1.5591630360616153e+00
ITEM: ATOMS id element xu yu zu
1 Al -0.0679496 2.03074 2.43303
2 Al 1.78576 0.574459 3.87452
3 Al 1.92035 3.71351 1.11503
4 Ni 0.0512516 -0.102945 -0.0273544
5 Ni -0.218158 1.76716 4.97433
6 Ni -0.0977885 4.47901 2.39319
7 Ni 1.90693 1.17187 1.29908
8 Ni 1.75381 3.08782 3.56329
9 Al -0.185925 1.37363 7.47163
10 Al 1.83466 -0.343091 8.81182
11 Al 1.87567 2.90915 5.96386
12 Ni -0.0375497 -0.74417 4.88951
13 Ni 0.0499693 0.91528 9.91162
14 Ni -0.132341 3.87143 7.4659
15 Ni 1.80796 0.403472 6.29759
16 Ni 1.8156 2.25783 8.50638
17 Al -0.114323 7.1112 2.47502
18 Al 1.83685 5.4571 3.83209
19 Al 1.79349 8.81122 1.11423
20 Ni -0.0612441 4.96995 -0.0603497
21 Ni -0.0854313 6.6579 4.97981
22 Ni 0.0219253 9.69101 2.5194
23 Ni 1.77574 6.10773 1.36531
24 Ni 1.82875 7.98901 3.53673
25 Al 0.0268638 6.31265 7.40741
26 Al 1.86621 4.72808 8.72467
27 Al 1.96247 7.88181 6.06939
28 Ni -0.111676 4.27697 4.99
29 Ni -0.0793564 6.06377 9.9276
30 Ni 0.0287696 8.95204 7.54377
31 Ni 1.90493 5.28714 6.31431
32 Ni 1.95724 7.34096 8.48467
33 Al -0.10299 12.1881 2.5536
34 Al 1.78551 10.4843 3.78194
35 Al 1.93181 13.7584 1.0793
36 Ni -0.0224736 10.0763 0.0314083
37 Ni 0.00850812 11.648 4.9171
38 Ni 0.0359642 14.7025 2.53479
39 Ni 1.77799 11.2461 1.42193
40 Ni 1.89233 13.0909 3.57227
41 Al -0.09138 11.3258 7.61323
42 Al 1.87557 9.7617 8.93209
43 Al 1.92447 12.9183 6.05514
44 Ni 0.037414 9.16355 5.04193
45 Ni -0.134894 10.8807 9.93471
46 Ni 0.0514958 13.7602 7.46466
47 Ni 1.86158 10.4071 6.40449
48 Ni 1.85329 12.2721 8.5026
49 Al 3.62763 2.273 2.56148
50 Al 5.75467 0.599313 3.83223
51 Al 5.69282 3.87529 1.0448
52 Ni 3.75024 -0.0366154 -0.0677498
53 Ni 3.76373 1.76848 4.88879
54 Ni 3.72797 4.66741 2.33468
55 Ni 5.66293 1.29423 1.34072
56 Ni 5.67111 3.1525 3.54837
57 Al 3.83912 1.24358 7.38946
58 Al 5.64884 -0.362542 8.8478
59 Al 5.66873 2.76575 6.02635
60 Ni 3.79495 -0.800459 4.88294
61 Ni 3.76957 1.05714 9.99007
62 Ni 3.81179 3.79072 7.47975
63 Ni 5.66848 0.381999 6.25637
64 Ni 5.6979 2.17504 8.54698
65 Al 3.6742 7.15293 2.49092
66 Al 5.60157 5.61857 3.87644
67 Al 5.66487 8.87922 1.14019
68 Ni 3.69315 5.09946 -0.0101779
69 Ni 3.89507 6.77531 4.90633
70 Ni 3.67163 9.61399 2.40814
71 Ni 5.63024 6.31816 1.37677
72 Ni 5.58395 8.12121 3.56296
73 Al 3.7578 6.31188 7.36355
74 Al 5.56591 4.74478 8.85874
75 Al 5.80557 7.93279 6.03168
76 Ni 3.68511 4.24876 4.94211
77 Ni 3.76767 6.01346 9.83927
78 Ni 3.78159 8.8535 7.52429
79 Ni 5.69204 5.34344 6.34841
80 Ni 5.65737 7.28658 8.50443
81 Al 3.78849 12.2166 2.4505
82 Al 5.70472 10.5279 3.81464
83 Al 5.79716 13.79 1.12333
84 Ni 3.74476 10.0827 0.0149846
85 Ni 3.71249 11.6315 4.99012
86 Ni 3.80734 14.6255 2.50934
87 Ni 5.67572 11.1773 1.49691
88 Ni 5.72024 13.1398 3.6769
89 Al 3.72507 11.2287 7.45769
90 Al 5.71309 9.7124 8.89739
91 Al 5.68542 12.901 6.06788
92 Ni 3.73096 9.28848 4.9221
93 Ni 3.87496 10.9978 9.83895
94 Ni 3.88182 13.7901 7.4098
95 Ni 5.66454 10.396 6.36598
96 Ni 5.65674 12.2084 8.56415
97 Al 7.44313 2.143 2.44047
98 Al 9.60435 0.471699 3.82479
99 Al 9.42141 3.69754 1.03362
100 Ni 7.67103 -0.00661443 -0.0289215
101 Ni 7.63876 1.57011 4.96646
102 Ni 7.48068 4.74185 2.4525
103 Ni 9.47498 1.13091 1.3893
104 Ni 9.47234 2.98509 3.54326
105 Al 7.55381 1.24985 7.37396
106 Al 9.41185 -0.436237 8.73384
107 Al 9.41379 2.97278 6.10266
108 Ni 7.69095 -0.757701 5.03318
109 Ni 7.49276 1.02416 9.99426
110 Ni 7.56748 3.8035 7.48717
111 Ni 9.53953 0.335332 6.41923
112 Ni 9.4192 2.3965 8.49489
113 Al 7.61516 7.29283 2.48211
114 Al 9.45502 5.36479 3.83202
115 Al 9.51677 8.7412 1.08865
116 Ni 7.59776 5.13556 -0.0537817
117 Ni 7.63116 6.71227 4.93384
118 Ni 7.60834 9.76307 2.59751
119 Ni 9.53225 6.19761 1.3831
120 Ni 9.50439 8.04262 3.74109
121 Al 7.54987 6.15293 7.3852
122 Al 9.57838 4.74884 8.90868
123 Al 9.55322 7.88591 6.12687
124 Ni 7.52637 4.24535 5.00239
125 Ni 7.42766 5.93944 9.8427
126 Ni 7.64869 8.72109 7.42077
127 Ni 9.49826 5.37878 6.29944
128 Ni 9.48886 7.09971 8.43355
129 Al 7.62832 12.2303 2.67854
130 Al 9.6866 10.483 3.81886
131 Al 9.54991 13.7663 1.18901
132 Ni 7.70439 9.96306 0.0334455
133 Ni 7.67257 11.6569 5.06397
134 Ni 7.68668 14.6381 2.55834
135 Ni 9.57613 11.3492 1.5422
136 Ni 9.67242 13.1825 3.7294
137 Al 7.63923 11.2586 7.54725
138 Al 9.59571 9.5636 8.84638
139 Al 9.50034 12.9285 6.24573
140 Ni 7.7105 9.15383 4.92281
141 Ni 7.59677 10.971 10.0814
142 Ni 7.51926 13.7458 7.43291
143 Ni 9.51186 10.3344 6.43036
144 Ni 9.60874 12.2817 8.62207
ITEM: TIMESTEP
4800
ITEM: NUMBER OF ATOMS
144
ITEM: BOX BOUNDS xy xz yz pp pp pp
-5.8555474483681438e-02 1.1475543103985302e+01 3.4923531459844254e-02
-1.6180824410055448e+00 1.5051014353908970e+01 -1.2995900305617328e-02
-5.2580120461698243e-04 9.9032439819446019e+00 -1.5775665103139116e+00
ITEM: ATOMS id element xu yu zu
1 Al -0.0973849 2.13998 2.5222
2 Al 1.78614 0.451625 3.82854
3 Al 1.93704 3.78687 1.10225
4 Ni -0.175701 -0.0199327 -0.00840974
5 Ni 0.0811115 1.59 4.86251
6 Ni -0.0533522 4.82982 2.48031
7 Ni 1.72535 1.15054 1.41128
8 Ni 1.97684 3.0424 3.4811
9 Al -0.169505 1.3251 7.36849
10 Al 1.75742 -0.322627 8.9333
11 Al 1.91384 2.958 5.94574
12 Ni -0.0921729 -0.805347 4.99175
13 Ni -0.135898 0.926241 9.844
14 Ni -0.0747442 3.75242 7.3504
15 Ni 1.87317 0.40471 6.34636
16 Ni 1.91754 2.19233 8.47983
17 Al -0.0392857 7.20691 2.39712
18 Al 1.82785 5.42406 3.83241
19 Al 1.84827 8.81836 1.20619
20 Ni -0.117409 4.88167 -0.0373671
21 Ni -0.0233673 6.6931 4.87948
22 Ni -0.084348 9.6221 2.55815
23 Ni 1.96872 6.26914 1.37524
24 Ni 1.87206 8.17716 3.58329
25 Al -0.140746 6.15753 7.53325
26 Al 1.92509 4.55685 8.74746
27 Al 1.80117 7.89215 6.13016
28 Ni -0.0647313 4.15805 4.93297
29 Ni -0.0189192 5.74517 9.87763
30 Ni -0.144563 8.62069 7.43015
31 Ni 1.74375 5.3781 6.31685
32 Ni 1.71595 7.16693 8.60169
33 Al -0.0709766 12.0563 2.50168
34 Al 1.77818 10.5919 3.82748
35 Al 1.74459 13.8679 1.21349
36 Ni 0.0309912 9.97463 0.00523918
37 Ni -0.00466785 11.7937 5.09128
38 Ni -0.135007 14.6377 2.56706
39 Ni 1.93917 11.2026 1.34644
40 Ni 1.89619 13.1138 3.72929
41 Al -0.0290621 11.3937 7.63786
42 Al 1.87757 9.6215 8.79473
43 Al 1.81412 13.0434 6.24722
44 Ni -0.115071 9.32823 4.96304
45 Ni 0.0303164 10.9616 9.94948
46 Ni -0.149045 13.9783 7.58442
47 Ni 1.97082 10.412 6.3022
48 Ni 1.8545 12.3254 8.71467
49 Al 3.80045 2.14942 2.33704
50 Al 5.68093 0.488533 3.88804
51 Al 5.65776 3.71525 1.09959
52 Ni 3.76224 0.00512328 0.075721
53 Ni 3.7203 1.66773 4.89586
54 Ni 3.80432 4.66032 2.60747
55 Ni 5.79678 1.11655 1.3801
56 Ni 5.62828 3.0342 3.51881
57 Al 3.85444 1.20365 7.35942
58 Al 5.75908 -0.384934 8.78008
59 Al 5.63531 2.83719 6.00172
60 Ni 3.68888 -0.746908 5.04697
61 Ni 3.76398 0.882886 9.70928
62 Ni 3.71917 3.75857 7.31062
63 Ni 5.67978 0.218558 6.30875
64 Ni 5.64751 2.25431 8.49387
65 Al 3.77107 7.21784 2.63647
66 Al 5.68323 5.64959 3.89118
67 Al 5.71641 8.87439 1.14906
68 Ni 3.85632 5.01545 -0.0864177
69 Ni 3.62476 6.70987 4.98
70 Ni 3.94881 9.73658 2.51205
71 Ni 5.77031 6.1807 1.33302
72 Ni 5.83617 8.15224 3.56521
73 Al 3.77161 6.19332 7.48635
74 Al 5.73464 4.7711 8.76115
75 Al 5.68146 7.79663 6.04552
76 Ni 3.81453 4.23883 4.97008
77 Ni 3.80045 5.91938 9.94347
78 Ni 3.73787 8.72673 7.40837
79 Ni 5.73849 5.40953 6.32244
80 Ni 5.65933 7.21072 8.53007
81 Al 3.7812 12.2342 2.51693
82 Al 5.74789 10.5429 3.86047
83 Al 5.73152 13.7193 1.11745
84 Ni 3.83358 10.0276 -0.0257281
85 Ni 3.85101 11.8392 5.03917
86 Ni 3.75793 14.6522 2.51205
87 Ni 5.79686 11.3551 1.38504
88 Ni 5.73692 13.0497 3.50752
89 Al 3.77728 11.3326 7.5131
90 Al 5.5478 9.77159 8.77159
91 Al 5.72937 12.9039 6.14006
92 Ni 3.83813 9.16921 4.92183
93 Ni 3.72546 11.0435 10.1059
94 Ni 3.80032 13.8827 7.5558
95 Ni 5.67343 10.3149 6.42558
96 Ni 5.7857 12.2894 8.62792
97 Al 7.51127 2.13699 2.46047
98 Al 9.48247 0.363179 3.88209
99 Al 9.46077 3.73645 1.09141
100 Ni 7.51599 -0.029604 0.0529295
101 Ni 7.45522 1.82176 4.90646
102 Ni 7.68369 4.67463 2.49013
103 Ni 9.46745 1.25421 1.40028
104 Ni 9.55937 3.23999 3.52553
105 Al 7.54773 1.27459 7.27557
106 Al 9.3188 -0.524601 8.74552
107 Al 9.51285 2.86519 6.02066
108 Ni 7.52716 -0.889914 4.90617
109 Ni 7.58331 0.899587 9.85788
110 Ni 7.60963 3.71379 7.37522
111 Ni 9.50085 0.355145 6.25011
112 Ni 9.50209 2.08796 8.51378
113 Al 7.57411 7.14226 2.57956
114 Al 9.49952 5.56214 3.93738
115 Al 9.46514 8.68941 1.10241
116 Ni 7.56473 4.89649 0.0397376
117 Ni 7.59756 6.77118 5.02918
118 Ni 7.64402 9.6428 2.57655
119 Ni 9.4736 6.20787 1.34659
120 Ni 9.58954 8.13873 3.55661
121 Al 7.66618 6.23124 7.50624
122 Al 9.51358 4.55748 8.81005
123 Al 9.50596 7.89415 5.9823
124 Ni 7.65146 4.22319 4.8494
125 Ni 7.74202 5.93179 10.0084
126 Ni 7.58058 8.81954 7.55333
127 Ni 9.51189 5.331 6.3226
128 Ni 9.54904 7.34975 8.67326
129 Al 7.60438 12.1815 2.42586
130 Al 9.53744 10.5244 3.8514
131 Al 9.4465 13.8749 1.10319
132 Ni 7.56462 10.0815 0.0996873
133 Ni 7.63122 11.7809 4.9178
134 Ni 7.54736 14.7636 2.48291
135 Ni 9.51976 11.08 1.3363
136 Ni 9.4972 13.0396 3.54497
137 Al 7.63074 11.2151 7.37208
138 Al 9.72634 9.74383 8.80595
139 Al 9.49423 12.9146 6.11697
140 Ni 7.55919 9.28948 5.12838
141 Ni 7.59931 10.9801 9.85106
142 Ni 7.72143 13.7919 7.43607
143 Ni 9.6907 10.3341 6.45089
144 Ni 9.47379 12.2268 8.50374
ITEM: TIMESTEP
4900
ITEM: NUMBER OF ATOMS
144
ITEM: BOX BOUNDS xy xz yz pp pp pp
-6.2295985415692812e-02 1.1460680909093968e+01 -2.0967350526971625e-02
-1.5774984628017097e+00 1.5019490553148625e+01 2.4292275857865583e-02
5.1021888833906459e-03 9.8976159918566005e+00 -1.5685063328704225e+00
ITEM: ATOMS id element xu yu zu
1 Al -0.127822 2.08961 2.53101
2 Al 1.74813 0.544998 3.90289
3 Al 1.81115 3.634 1.06827
4 Ni 0.00617244 -0.0427822 0.0769956
5 Ni -0.14028 1.81747 4.99607
6 Ni 0.047275 4.54114 2.44397
7 Ni 1.86147 1.16267 1.28791
8 Ni 1.80831 3.14821 3.61208
9 Al -0.053266 1.23419 7.42349
10 Al 1.91811 -0.331832 8.73351
11 Al 1.89652 2.93183 6.10401
12 Ni -0.0496998 -0.778893 4.99343
13 Ni 0.0242382 0.868759 9.96024
14 Ni -0.0643345 3.81374 7.42072
15 Ni 1.83122 0.242068 6.23036
16 Ni 1.82662 2.26864 8.50647
17 Al -0.0846919 7.22635 2.5351
18 Al 1.86871 5.55922 3.90677
19 Al 1.7056 8.71577 1.07754
20 Ni 0.0301484 5.17462 0.00732459
21 Ni -0.100348 6.82015 5.09492
22 Ni 0.0415679 9.72448 2.53031
23 Ni 1.86572 6.1185 1.46404
24 Ni 1.93719 8.03371 3.59887
25 Al -0.0201905 6.34669 7.50042
26 Al 1.92206 4.79183 8.84397
27 Al 1.95701 7.86601 6.07709
28 Ni 0.0294399 4.34081 4.84732
29 Ni -0.12126 6.07971 9.95672
30 Ni 0.0261103 8.97482 7.51791
31 Ni 1.93987 5.40001 6.39159
32 Ni 1.91931 7.30238 8.43714
33 Al -0.0378881 12.2176 2.55179
34 Al 1.73985 10.4822 3.94992
35 Al 1.85219 13.7391 1.10534
36 Ni -0.11655 10.0555 -0.00106697
37 Ni -0.0566124 11.7059 4.86485
38 Ni -0.0272015 14.7927 2.46843
39 Ni 1.85836 11.1612 1.5219
40 Ni 1.83504 13.073 3.61724
41 Al -0.170166 11.3062 7.45274
42 Al 1.85248 9.69084 8.95419
43 Al 1.79859 12.8749 6.07797
44 Ni -0.00954768 9.17577 4.92914
45 Ni -0.0297644 10.9522 9.9632
46 Ni -0.0342263 13.6412 7.3566
47 Ni 1.79814 10.3216 6.4622
48 Ni 1.82408 12.2429 8.53733
49 Al 3.8484 2.22251 2.51149
50 Al 5.79107 0.579606 3.87109
51 Al 5.70047 3.71931 1.00454
52 Ni 3.75125 0.0242003 0.097375
53 Ni 3.80095 1.7664 4.91661
54 Ni 3.79876 4.55944 2.38725
55 Ni 5.61021 1.21238 1.37758
56 Ni 5.67387 3.0102 3.54465
57 Al 3.66873 1.36365 7.439
58 Al 5.645 -0.360959 8.78034
59 Al 5.72741 2.91234 5.95877
60 Ni 3.81661 -0.895575 4.9763
61 Ni 3.72159 0.918046 9.97321
62 Ni 3.77401 3.91168 7.51383
63 Ni 5.62434 0.594263 6.30639
64 Ni 5.69031 2.19007 8.43675
65 Al 3.68426 7.06587 2.63041
66 Al 5.68521 5.51474 3.90928
67 Al 5.57247 8.71449 1.24484
68 Ni 3.68856 4.88128 -0.00653544
69 Ni 3.98413 6.79122 5.05706
70 Ni 3.68595 9.55084 2.55083
71 Ni 5.70531 6.10025 1.46057
72 Ni 5.68232 7.96694 3.73312
73 Al 3.91811 6.36974 7.55392
74 Al 5.74792 4.63172 8.78415
75 Al 5.72305 7.99379 6.10309
76 Ni 3.74389 4.20092 4.87007
77 Ni 3.84817 5.81716 9.92458
78 Ni 3.7374 8.90828 7.50178
79 Ni 5.57598 5.39331 6.35601
80 Ni 5.7061 7.25294 8.62142
81 Al 3.76284 12.2356 2.57024
82 Al 5.66264 10.3714 3.86019
83 Al 5.67991 13.6788 0.993838
84 Ni 3.73301 9.91003 0.0345493
85 Ni 3.68215 11.7075 5.06572
86 Ni 3.79311 14.6526 2.57194
87 Ni 5.47781 11.005 1.45464
88 Ni 5.71933 13.1752 3.64304
89 Al 3.70153 11.2866 7.42775
90 Al 5.61704 9.71462 8.73945
91 Al 5.63041 13.0252 6.09727
92 Ni 3.7467 9.21411 5.08009
93 Ni 3.79002 10.7936 9.88433
94 Ni 3.70056 13.8426 7.38031
95 Ni 5.68757 10.5952 6.35404
96 Ni 5.58821 12.2519 8.48737
97 Al 7.65652 1.99365 2.41683
98 Al 9.66279 0.465996 3.95409
99 Al 9.49871 3.73547 1.04085
100 Ni 7.67247 -0.0640759 -0.140872
101 Ni 7.69923 1.72303 5.00154
102 Ni 7.59145 4.58261 2.38416
103 Ni 9.54426 1.07451 1.40181
104 Ni 9.46156 3.05213 3.6119
105 Al 7.62201 1.34685 7.42863
106 Al 9.58959 -0.427234 8.75341
107 Al 9.48453 2.99197 6.10899
108 Ni 7.65281 -0.730111 4.95453
109 Ni 7.65483 0.842116 9.93658
110 Ni 7.62873 3.84447 7.36641
111 Ni 9.47553 0.340694 6.40941
112 Ni 9.5675 2.36624 8.45947
113 Al 7.55948 7.10135 2.47468
114 Al 9.51797 5.43768 3.85354
115 Al 9.38909 8.77099 1.16585
116 Ni 7.6814 4.96193 -0.0544196
117 Ni 7.58606 6.70206 4.89065
118 Ni 7.60707 9.59139 2.47382
119 Ni 9.68935 6.19124 1.36607
120 Ni 9.49155 8.04613 3.68647
121 Al 7.55279 6.32358 7.30654
122 Al 9.56553 4.83351 8.71012
123 Al 9.50536 8.0908 6.10573
124 Ni 7.58725 4.16647 4.94601
125 Ni 7.58618 5.91561 9.82233
126 Ni 7.53196 8.99041 7.37821
127 Ni 9.5183 5.38018 6.2854
128 Ni 9.43624 7.12743 8.53751
129 Al 7.40865 12.1015 2.40256
130 Al 9.49803 10.4914 3.79616
131 Al 9.47349 13.7813 1.08503
132 Ni 7.6043 9.86531 0.0747646
133 Ni 7.52041 11.8588 4.94014
134 Ni 7.65326 14.5866 2.37575
135 Ni 9.58626 11.2801 1.47226
136 Ni 9.41236 13.2202 3.59702
137 Al 7.54198 11.486 7.53558
138 Al 9.5947 9.6712 8.77328
139 Al 9.38684 12.9675 6.11994
140 Ni 7.60115 9.27717 4.92057
141 Ni 7.5375 10.8891 9.87786
142 Ni 7.41242 13.9044 7.38469
143 Ni 9.31328 10.5559 6.27753
144 Ni 9.61988 12.282 8.53639
ITEM: TIMESTEP
5000
ITEM: NUMBER OF ATOMS
144
ITEM: BOX BOUNDS xy xz yz pp pp pp
-9.4182051265595146e-02 1.1472233991143069e+01 -3.3970557649226234e-02
-1.5942112218391549e+00 1.5046813281799647e+01 1.6962499179322958e-02
-1.8214552018936736e-02 9.9209327327589190e+00 -1.5578963632568466e+00
ITEM: ATOMS id element xu yu zu
1 Al -0.0720538 1.94875 2.39463
2 Al 1.76076 0.436263 3.91896
3 Al 1.84113 3.66706 1.07636
4 Ni -0.119559 -0.0588746 -0.0435803
5 Ni -0.00926507 1.68641 4.94892
6 Ni -0.178168 4.62059 2.58197
7 Ni 1.8482 1.07417 1.40529
8 Ni 1.86196 2.94252 3.57203
9 Al 0.0114397 1.46158 7.41891
10 Al 1.9421 -0.239107 8.84042
11 Al 1.82975 2.95013 6.13206
12 Ni -0.10326 -0.765784 4.8374
13 Ni 0.0167065 0.953042 9.88863
14 Ni -0.00241749 3.87901 7.56814
15 Ni 1.86936 0.462306 6.3852
16 Ni 1.84924 2.30976 8.61204
17 Al -0.24911 7.11063 2.42448
18 Al 1.72987 5.31969 3.8358
19 Al 1.70941 8.73672 1.25636
20 Ni -0.173326 4.8851 0.0161978
21 Ni -0.0127777 6.7295 4.86965
22 Ni -0.181229 9.5371 2.51582
23 Ni 1.80223 6.16226 1.35055
24 Ni 1.7937 8.12257 3.61472
25 Al -0.0325019 6.33066 7.4591
26 Al 1.91025 4.72505 8.84038
27 Al 1.86109 8.01451 6.12455
28 Ni -0.176512 4.18671 5.07181
29 Ni 0.0145486 5.87895 10.008
30 Ni -0.177355 8.67703 7.4388
31 Ni 1.80485 5.41557 6.36955
32 Ni 1.76709 7.27848 8.76654
33 Al -0.110739 11.9189 2.44017
34 Al 1.64448 10.5025 3.82858
35 Al 1.70901 13.7516 0.920025
36 Ni 0.00250127 10.064 0.150111
37 Ni -0.173788 11.8285 4.98648
38 Ni -0.106572 14.4815 2.34827
39 Ni 1.74443 11.2059 1.33305
40 Ni 1.8405 13.1128 3.44306
41 Al -0.046196 11.3595 7.39757
42 Al 1.80648 9.71893 8.73024
43 Al 1.82473 13.1623 5.96265
44 Ni -0.155374 9.3568 5.07341
45 Ni -0.12264 10.9549 9.81218
46 Ni -0.0681204 14.0814 7.29643
47 Ni 1.93893 10.4851 6.25036
48 Ni 1.75815 12.2951 8.44531
49 Al 3.89051 2.13478 2.50284
50 Al 5.65703 0.477768 3.86762
51 Al 5.63171 3.67845 1.20343
52 Ni 3.68531 -0.132788 -0.178276
53 Ni 3.80234 1.77469 5.06499
54 Ni 3.72942 4.55424 2.49502
55 Ni 5.69073 1.07388 1.37104
56 Ni 5.69959 3.00908 3.66988
57 Al 3.76159 1.37488 7.48371
58 Al 5.76863 -0.320606 8.79715
59 Al 5.76161 2.90394 6.05834
60 Ni 3.77251 -0.770476 4.9
61 Ni 3.8152 0.894767 9.95832
62 Ni 3.70799 3.77949 7.44939
63 Ni 5.76717 0.305766 6.4005
64 Ni 5.67551 2.38418 8.7163
65 Al 3.69002 7.09216 2.53178
66 Al 5.66159 5.58997 3.86001
67 Al 5.67304 8.80871 1.01788
68 Ni 3.77586 5.06645 0.0435898
69 Ni 3.63783 6.70862 4.92329
70 Ni 3.86177 9.56487 2.47378
71 Ni 5.68676 6.09024 1.25395
72 Ni 5.62259 8.07443 3.48807
73 Al 3.77118 6.3778 7.43077
74 Al 5.55883 4.79872 8.67432
75 Al 5.57923 7.88504 5.86898
76 Ni 3.81739 4.21577 5.01618
77 Ni 3.66085 6.03227 9.87869
78 Ni 3.82964 8.90014 7.54315
79 Ni 5.8258 5.54368 6.33316
80 Ni 5.67288 7.33866 8.49462
81 Al 3.68727 12.0035 2.35278
82 Al 5.72202 10.4138 3.85089
83 Al 5.60885 13.6423 1.02588
84 Ni 3.83219 10.0834 0.111257
85 Ni 3.84917 11.8662 4.87189
86 Ni 3.74876 14.6001 2.31707
87 Ni 5.80442 11.2314 1.38445
88 Ni 5.5644 13.0014 3.53913
89 Al 3.77068 11.3659 7.38643
90 Al 5.64594 9.81868 8.83708
91 Al 5.68125 12.9466 6.02183
92 Ni 3.79773 9.24992 4.94517
93 Ni 3.75583 10.9968 9.88012
94 Ni 3.78339 13.8549 7.38133
95 Ni 5.65179 10.3515 6.39742
96 Ni 5.7314 12.4079 8.57198
97 Al 7.76404 1.96152 2.38546
98 Al 9.56927 0.405713 3.79289
99 Al 9.41649 3.69013 1.07802
100 Ni 7.49875 -0.0660306 0.0999807
101 Ni 7.50578 1.75403 5.01777
102 Ni 7.64583 4.4942 2.4907
103 Ni 9.58497 1.11479 1.31823
104 Ni 9.6652 2.97713 3.575
105 Al 7.62266 1.40055 7.46929
106 Al 9.65006 -0.353281 8.78157
107 Al 9.37521 3.03321 6.14491
108 Ni 7.56077 -0.758977 4.96044
109 Ni 7.58026 0.953537 9.92304
110 Ni 7.56937 3.94109 7.51679
111 Ni 9.55174 0.549248 6.22248
112 Ni 9.52789 2.18943 8.58569
113 Al 7.50955 7.05624 2.51734
114 Al 9.4584 5.48068 3.99338
115 Al 9.37374 8.65567 1.05078
116 Ni 7.52196 4.96447 0.0320087
117 Ni 7.56571 6.79505 5.01534
118 Ni 7.52086 9.54293 2.47566
119 Ni 9.40661 6.08381 1.40659
120 Ni 9.41435 8.06529 3.54632
121 Al 7.6894 6.39552 7.54341
122 Al 9.59219 4.8328 8.76751
123 Al 9.45144 7.98995 5.93344
124 Ni 7.60473 4.34058 5.06822
125 Ni 7.67315 5.93115 9.96749
126 Ni 7.65065 8.84438 7.49447
127 Ni 9.48098 5.52926 6.41651
128 Ni 9.59456 7.4052 8.57595
129 Al 7.61311 12.1187 2.56752
130 Al 9.41032 10.3708 3.87275
131 Al 9.47626 13.8308 1.15522
132 Ni 7.59413 10.0184 0.0239798
133 Ni 7.606 11.6576 5.03733
134 Ni 7.51574 14.5808 2.53855
135 Ni 9.38751 11.0974 1.34576
136 Ni 9.56264 12.9355 3.56754
137 Al 7.54258 11.4599 7.41912
138 Al 9.55164 9.86395 8.79729
139 Al 9.40931 13.1324 6.06318
140 Ni 7.52654 9.17494 4.99731
141 Ni 7.63692 11.1019 10.1293
142 Ni 7.72975 14.0102 7.47133
143 Ni 9.45165 10.3611 6.41251
144 Ni 9.47247 12.3567 8.53902
ITEM: TIMESTEP
5100
ITEM: NUMBER OF ATOMS
144
ITEM: BOX BOUNDS xy xz yz pp pp pp
-4.4329530479457514e-02 1.1474360272527994e+01 3.6839251118962552e-02
-1.5590606107557266e+00 1.5031120413998122e+01 -1.8685074178024020e-03
1.8011213894832068e-02 9.8847069668451439e+00 -1.5384386199749613e+00
ITEM: ATOMS id element xu yu zu
1 Al -0.0736438 2.00694 2.50888
2 Al 1.75219 0.396135 3.83118
3 Al 1.91535 3.63266 1.1402
4 Ni -0.0527294 -0.0541742 -0.0552461
5 Ni -0.0778702 1.6289 4.94215
6 Ni -0.0115582 4.45335 2.5594
7 Ni 1.8171 1.1412 1.30968
8 Ni 1.89893 3.00225 3.65828
9 Al 0.024837 1.36927 7.43679
10 Al 2.00071 -0.175994 8.73986
11 Al 1.81861 2.94884 6.21245
12 Ni 0.0364358 -0.782626 4.9791
13 Ni -0.134234 0.998522 9.92121
14 Ni -0.11715 3.88052 7.44222
15 Ni 1.87372 0.482162 6.22835
16 Ni 1.88353 2.28468 8.54941
17 Al -0.0675948 7.10794 2.50592
18 Al 1.81336 5.48212 3.8085
19 Al 1.71239 8.69667 0.963266
20 Ni 0.047732 4.96752 0.133073
21 Ni -0.11427 6.69889 5.09415
22 Ni 0.00223134 9.58901 2.47477
23 Ni 1.88602 6.16916 1.41275
24 Ni 1.88553 8.00849 3.5635
25 Al -0.0532567 6.43746 7.46984
26 Al 1.83449 4.75553 8.8256
27 Al 1.81611 8.05993 6.01651
28 Ni 0.0362771 4.28365 4.95521
29 Ni -0.0642426 5.93192 9.83444
30 Ni 0.0540091 9.13049 7.49835
31 Ni 1.78712 5.45012 6.31931
32 Ni 1.91202 7.33322 8.3435
33 Al -0.00882489 12.0024 2.431
34 Al 1.79583 10.4066 3.78186
35 Al 1.83374 13.779 1.01161
36 Ni -0.166083 9.90679 -0.0551572
37 Ni 0.0847877 11.6906 4.78672
38 Ni 0.00642031 14.6877 2.47163
39 Ni 1.95651 11.1521 1.30641
40 Ni 1.89894 12.9714 3.55983
41 Al 0.11657 11.5049 7.503
42 Al 1.95565 9.89937 8.80298
43 Al 1.88819 13.1447 6.07223
44 Ni -0.014375 9.24201 4.9289
45 Ni -0.00304388 10.9783 9.84384
46 Ni -0.0944853 13.8963 7.51682
47 Ni 1.79778 10.4664 6.35865
48 Ni 2.00938 12.4469 8.44233
49 Al 3.74391 2.15246 2.57282
50 Al 5.73901 0.473473 3.83702
51 Al 5.60133 3.82927 1.14797
52 Ni 3.84437 0.103909 0.0699965
53 Ni 3.79646 1.68144 4.99029
54 Ni 3.80834 4.61116 2.60347
55 Ni 5.67222 1.18137 1.44062
56 Ni 5.57871 3.01401 3.68144
57 Al 3.80437 1.43171 7.39643
58 Al 5.74824 -0.293667 8.82588
59 Al 5.71623 2.87395 5.98044
60 Ni 3.80342 -0.793159 4.93995
61 Ni 3.75982 1.0742 9.97589
62 Ni 3.77647 3.88293 7.51063
63 Ni 5.69899 0.443967 6.21396
64 Ni 5.68147 2.30757 8.54412
65 Al 3.75958 7.21373 2.57952
66 Al 5.70936 5.56476 4.02224
67 Al 5.68475 8.87003 1.16466
68 Ni 3.76966 5.03253 0.0610188
69 Ni 3.73741 6.83333 4.92544
70 Ni 3.76599 9.62548 2.43605
71 Ni 5.65939 6.20331 1.56373
72 Ni 5.71896 8.05299 3.63984
73 Al 3.66439 6.38452 7.40483
74 Al 5.66037 4.66659 8.86685
75 Al 5.66446 7.96368 5.96059
76 Ni 3.70037 4.26825 5.04376
77 Ni 3.80713 6.03683 9.93416
78 Ni 3.68161 8.91308 7.31781
79 Ni 5.55264 5.37836 6.40005
80 Ni 5.55702 7.35071 8.56011
81 Al 3.8219 12.1232 2.4081
82 Al 5.69557 10.4679 3.88366
83 Al 5.78033 13.7763 0.993797
84 Ni 3.74782 10.0413 -0.127265
85 Ni 3.75007 11.7485 4.9941
86 Ni 3.78886 14.5412 2.50517
87 Ni 5.74203 11.161 1.40533
88 Ni 5.77078 13.1379 3.56303
89 Al 3.79663 11.3243 7.32985
90 Al 5.57804 9.76434 8.76054
91 Al 5.66015 12.982 5.97767
92 Ni 3.70335 9.22675 4.97728
93 Ni 3.86601 11.1711 9.83826
94 Ni 3.87078 13.9425 7.40795
95 Ni 5.76939 10.5075 6.31359
96 Ni 5.74322 12.2762 8.50371
97 Al 7.62757 2.15264 2.41398
98 Al 9.48035 0.528213 3.87705
99 Al 9.45629 3.717 1.21199
100 Ni 7.71828 -0.0191967 -0.0350265
101 Ni 7.65097 1.60972 4.97109
102 Ni 7.56013 4.62855 2.6262
103 Ni 9.41638 1.16126 1.44717
104 Ni 9.34762 3.05506 3.60812
105 Al 7.59608 1.38972 7.39765
106 Al 9.49148 -0.182249 8.78709
107 Al 9.51013 2.85174 6.02619
108 Ni 7.68249 -0.876754 4.99541
109 Ni 7.59239 1.03863 9.94907
110 Ni 7.57024 3.87186 7.50462
111 Ni 9.49365 0.27821 6.39918
112 Ni 9.50051 2.39979 8.58228
113 Al 7.70187 7.14771 2.55283
114 Al 9.56437 5.48349 3.9937
115 Al 9.44665 8.68186 1.15879
116 Ni 7.62681 4.95982 0.309942
117 Ni 7.62013 6.6623 4.97367
118 Ni 7.69536 9.60243 2.50679
119 Ni 9.59477 6.09738 1.56353
120 Ni 9.63267 7.98157 3.67784
121 Al 7.52432 6.27218 7.40831
122 Al 9.49041 4.82505 8.83932
123 Al 9.45443 8.031 6.11567
124 Ni 7.57793 4.05791 5.00571
125 Ni 7.61497 6.02935 9.96068
126 Ni 7.56671 8.85481 7.35585
127 Ni 9.53192 5.32989 6.40078
128 Ni 9.42799 7.13447 8.54786
129 Al 7.69229 12.1788 2.42452
130 Al 9.55847 10.4896 3.88822
131 Al 9.58939 13.7354 1.11216
132 Ni 7.58356 9.99173 -0.0487607
133 Ni 7.67917 11.7839 4.95927
134 Ni 7.64845 14.7124 2.37847
135 Ni 9.50285 11.1416 1.47215
136 Ni 9.50199 13.0938 3.56861
137 Al 7.6931 11.3858 7.30844
138 Al 9.55947 9.77171 8.75608
139 Al 9.59796 12.9819 6.08166
140 Ni 7.68013 9.31019 4.90348
141 Ni 7.58991 10.8884 9.79848
142 Ni 7.52036 13.8383 7.41996
143 Ni 9.66442 10.4568 6.29511
144 Ni 9.57485 12.3074 8.5225
ITEM: TIMESTEP
5200
ITEM: NUMBER OF ATOMS
144
ITEM: BOX BOUNDS xy xz yz pp pp pp
-6.7798344829291771e-02 1.1499091006395917e+01 5.9735739993017428e-02
-1.5558217306216542e+00 1.5027559661176911e+01 -2.3503076773771794e-02
-2.2749836283836089e-02 9.9254680170238192e+00 -1.5387604926621186e+00
ITEM: ATOMS id element xu yu zu
1 Al 0.0232161 2.12516 2.49112
2 Al 1.70065 0.517855 3.99202
3 Al 1.86016 3.6995 1.00177
4 Ni -0.0344943 -0.0573142 0.13505
5 Ni -0.0722338 1.71201 5.10482
6 Ni -0.0636121 4.79247 2.45781
7 Ni 1.84489 1.19192 1.44213
8 Ni 1.83413 3.10957 3.5008
9 Al -0.0449288 1.40331 7.51425
10 Al 1.8774 -0.252248 8.88984
11 Al 1.84407 2.89583 6.10652
12 Ni -0.0917217 -0.829476 4.97454
13 Ni -0.0334971 0.896182 10.0052
14 Ni -0.0570587 3.88423 7.50816
15 Ni 1.77737 0.273638 6.4053
16 Ni 1.79917 2.40274 8.59761
17 Al -0.0458004 7.16041 2.60001
18 Al 1.89675 5.50216 4.028
19 Al 1.81655 8.72481 1.11015
20 Ni -0.138619 5.06273 -0.0181926
21 Ni -0.0276113 6.68734 4.88963
22 Ni 0.00592645 9.72623 2.44801
23 Ni 1.86114 6.18945 1.42505
24 Ni 1.92043 8.20054 3.55913
25 Al -0.108657 6.29378 7.51997
26 Al 1.77412 4.80627 8.99044
27 Al 1.93396 8.00772 6.0631
28 Ni -0.190577 4.23038 5.02289
29 Ni -0.130406 6.09882 10.0514
30 Ni -0.0993645 8.79787 7.3286
31 Ni 1.84415 5.43117 6.50086
32 Ni 1.83307 7.37326 8.60107
33 Al -0.0275071 12.1684 2.52687
34 Al 1.83228 10.6201 3.79088
35 Al 1.97408 13.8579 1.13013
36 Ni 0.0911201 10.0281 -0.111944
37 Ni -0.00832148 11.726 5.0631
38 Ni -0.0455491 14.6781 2.56923
39 Ni 1.86458 11.2699 1.42738
40 Ni 1.89474 13.2096 3.63721
41 Al 0.0301547 11.3263 7.46134
42 Al 1.86885 9.79344 8.81717
43 Al 1.93438 12.9115 6.09458
44 Ni -0.00757645 9.22212 4.849
45 Ni -0.051791 11.011 9.89956
46 Ni 0.101578 13.8669 7.4152
47 Ni 1.98417 10.3651 6.28031
48 Ni 1.82431 12.2483 8.73262
49 Al 3.7277 2.22691 2.39756
50 Al 5.65659 0.537476 4.0057
51 Al 5.76497 3.73139 1.04914
52 Ni 3.72783 -0.0491282 -0.00353082
53 Ni 3.76595 1.77066 4.86812
54 Ni 3.67895 4.58652 2.46555
55 Ni 5.82268 1.25365 1.29712
56 Ni 5.68808 3.09144 3.56147
57 Al 3.73653 1.39241 7.49278
58 Al 5.60454 -0.333321 8.79275
59 Al 5.56865 2.88046 6.08339
60 Ni 3.7641 -0.790152 5.00022
61 Ni 3.73282 0.936471 9.82595
62 Ni 3.73082 3.84685 7.54901
63 Ni 5.60681 0.359779 6.44802
64 Ni 5.66766 2.23373 8.57894
65 Al 3.84147 7.08274 2.63979
66 Al 5.75241 5.52944 3.90887
67 Al 5.69481 8.80511 1.15866
68 Ni 3.79225 4.89145 0.0632234
69 Ni 3.91974 6.67847 5.14472
70 Ni 3.79583 9.67317 2.42362
71 Ni 5.78834 6.14145 1.39221
72 Ni 5.66225 8.06821 3.60951
73 Al 3.70745 6.38401 7.61177
74 Al 5.58057 4.61628 8.78093
75 Al 5.70901 7.90756 6.00956
76 Ni 3.8027 4.2008 4.95231
77 Ni 3.80322 5.94421 9.97303
78 Ni 3.86493 8.80485 7.39257
79 Ni 5.78519 5.3598 6.43686
80 Ni 5.82484 7.2278 8.60467
81 Al 3.79377 12.2189 2.46234
82 Al 5.76072 10.5332 3.70867
83 Al 5.68807 13.8045 1.0286
84 Ni 3.92549 10.0363 -0.0419761
85 Ni 3.88428 11.7422 4.90028
86 Ni 3.863 14.7645 2.46955
87 Ni 5.66544 11.2325 1.24764
88 Ni 5.71642 13.0837 3.57149
89 Al 3.78514 11.3203 7.4554
90 Al 5.68241 9.66837 8.8521
91 Al 5.78163 12.9494 5.98639
92 Ni 3.90925 9.18493 4.81787
93 Ni 3.7414 10.8115 9.95136
94 Ni 3.74179 13.8744 7.46883
95 Ni 5.59356 10.3487 6.1752
96 Ni 5.70716 12.3385 8.46049
97 Al 7.73103 2.09259 2.52022
98 Al 9.48711 0.594013 3.93043
99 Al 9.44471 3.75381 1.08778
100 Ni 7.46607 0.00736535 -0.0397583
101 Ni 7.56147 1.8269 5.01493
102 Ni 7.62602 4.67822 2.49261
103 Ni 9.58348 1.21983 1.43221
104 Ni 9.6512 2.96412 3.68357
105 Al 7.54957 1.23421 7.42338
106 Al 9.62667 -0.322439 8.79886
107 Al 9.44178 2.96259 6.11867
108 Ni 7.50881 -0.774029 4.87866
109 Ni 7.6192 0.843832 9.97571
110 Ni 7.56495 3.66356 7.48036
111 Ni 9.54813 0.408718 6.3704
112 Ni 9.40197 2.08699 8.57503
113 Al 7.62402 7.19812 2.55401
114 Al 9.52246 5.52896 3.86867
115 Al 9.52149 8.80937 1.14262
116 Ni 7.59856 4.95384 -0.117919
117 Ni 7.57831 6.71884 5.01878
118 Ni 7.5839 9.68058 2.43001
119 Ni 9.46013 6.26436 1.32545
120 Ni 9.48119 8.13813 3.52715
121 Al 7.61374 6.25679 7.50444
122 Al 9.46443 4.78965 8.76142
123 Al 9.48929 7.96128 6.03956
124 Ni 7.56491 4.28781 5.06423
125 Ni 7.646 5.99081 9.99121
126 Ni 7.63419 8.86202 7.47963
127 Ni 9.48564 5.45191 6.39713
128 Ni 9.47829 7.41353 8.60574
129 Al 7.70939 12.1511 2.29111
130 Al 9.60343 10.5438 3.80088
131 Al 9.51453 13.8153 0.958709
132 Ni 7.6371 9.99785 0.0734902
133 Ni 7.64968 11.6715 4.76323
134 Ni 7.75305 14.6678 2.52664
135 Ni 9.65057 11.2848 1.20604
136 Ni 9.57651 13.0485 3.47603
137 Al 7.55891 11.2794 7.29075
138 Al 9.57673 9.83768 8.74259
139 Al 9.43428 13.0009 5.95668
140 Ni 7.61335 9.19092 4.97088
141 Ni 7.59176 10.9978 9.83114
142 Ni 7.72066 13.8187 7.38581
143 Ni 9.44272 10.4157 6.24813
144 Ni 9.48926 12.2015 8.44347
ITEM: TIMESTEP
5300
ITEM: NUMBER OF ATOMS
144
ITEM: BOX BOUNDS xy xz yz pp pp pp
-7.2776135175643117e-02 1.1432757615553413e+01 -2.0580993099216495e-02
-1.5584210527512834e+00 1.5047800975682552e+01 -1.4497524870398463e-02
4.3796257085126911e-03 9.8983385550314829e+00 -1.5211185002861161e+00
ITEM: ATOMS id element xu yu zu
1 Al -0.0407563 2.14451 2.49495
2 Al 1.7274 0.385345 3.8529
3 Al 1.99397 3.79003 1.1367
4 Ni -0.118562 0.0489793 -0.0524926
5 Ni -0.0262963 1.76728 4.86448
6 Ni -0.0997005 4.65747 2.60933
7 Ni 1.8234 1.21643 1.38022
8 Ni 1.9191 3.08953 3.65314
9 Al -0.167863 1.22896 7.373
10 Al 1.8331 -0.330952 8.8149
11 Al 1.87489 2.78458 6.15293
12 Ni -0.0538873 -0.733587 4.94778
13 Ni -0.103458 1.00954 9.92193
14 Ni 0.0402351 3.71501 7.45975
15 Ni 1.80581 0.426819 6.264
16 Ni 1.82852 2.1177 8.57408
17 Al -0.06867 7.15163 2.55598
18 Al 1.84417 5.56783 3.83192
19 Al 1.73565 8.72218 1.13548
20 Ni 0.0580791 4.97543 0.0532714
21 Ni -0.0822656 6.86645 5.04301
22 Ni -0.0697013 9.72851 2.44929
23 Ni 1.79538 6.26261 1.40226
24 Ni 1.77931 8.06006 3.61444
25 Al -0.050419 6.12262 7.44495
26 Al 1.83151 4.56683 8.82354
27 Al 1.88646 7.98851 6.13639
28 Ni 0.102153 4.25244 4.96515
29 Ni -0.0130782 5.87225 9.86103
30 Ni -0.0382364 8.77231 7.46182
31 Ni 1.92373 5.38635 6.28219
32 Ni 1.85912 7.05875 8.57647
33 Al -0.0884582 12.2007 2.40395
34 Al 1.75404 10.5158 3.74917
35 Al 1.87633 13.8849 0.936902
36 Ni -0.171112 10.0668 0.0505271
37 Ni -0.0949369 11.865 4.77374
38 Ni -0.0684699 14.7785 2.39879
39 Ni 1.89098 11.2383 1.25782
40 Ni 1.8584 13.1046 3.61917
41 Al -0.126217 11.302 7.46603
42 Al 1.83553 9.72 8.77303
43 Al 1.73335 13.0538 6.06633
44 Ni -0.117757 9.3522 5.00684
45 Ni -0.0579304 11.0026 9.85713
46 Ni -0.20223 13.7889 7.37141
47 Ni 1.76437 10.3526 6.32492
48 Ni 1.81698 12.258 8.35328
49 Al 3.70767 2.19353 2.61414
50 Al 5.68133 0.538774 4.02042
51 Al 5.64045 3.65647 1.04524
52 Ni 3.76007 -0.0356032 0.0498533
53 Ni 3.82192 1.73139 5.05871
54 Ni 3.83026 4.71009 2.50829
55 Ni 5.54951 1.01505 1.4608
56 Ni 5.71529 3.05928 3.64004
57 Al 3.87599 1.14439 7.56453
58 Al 5.63617 -0.380349 8.93854
59 Al 5.70949 2.90765 6.07508
60 Ni 3.71209 -0.799866 4.97241
61 Ni 3.73295 0.882369 10.0222
62 Ni 3.78616 3.76189 7.35632
63 Ni 5.69219 0.339014 6.28144
64 Ni 5.62517 2.27373 8.49848
65 Al 3.80241 7.25414 2.56953
66 Al 5.75816 5.58816 3.87276
67 Al 5.76204 8.79663 1.11885
68 Ni 3.78456 5.02979 -0.0346183
69 Ni 3.65991 6.7813 4.85083
70 Ni 3.7838 9.70501 2.55091
71 Ni 5.60495 6.19825 1.4157
72 Ni 5.70974 8.10626 3.62755
73 Al 3.8012 6.31147 7.49819
74 Al 5.64191 4.67762 8.68698
75 Al 5.53812 7.99132 5.9856
76 Ni 3.7468 4.22759 4.98157
77 Ni 3.75651 5.89472 9.94987
78 Ni 3.72542 8.83309 7.47791
79 Ni 5.67716 5.44129 6.24385
80 Ni 5.68702 7.3371 8.55953
81 Al 3.73508 12.2061 2.42927
82 Al 5.62095 10.5973 3.98099
83 Al 5.64041 13.7009 1.09583
84 Ni 3.69579 9.95158 0.0251923
85 Ni 3.67963 11.8083 4.99388
86 Ni 3.74331 14.6388 2.51448
87 Ni 5.61958 11.1701 1.3913
88 Ni 5.66358 13.1695 3.59431
89 Al 3.74738 11.2694 7.34251
90 Al 5.56983 9.74354 8.98071
91 Al 5.67175 13.0017 6.05191
92 Ni 3.67483 9.30965 5.08436
93 Ni 3.73766 11.0264 9.8688
94 Ni 3.74264 13.8437 7.4905
95 Ni 5.73403 10.4934 6.43717
96 Ni 5.61779 12.3083 8.5577
97 Al 7.44022 2.03247 2.43328
98 Al 9.49442 0.622455 3.85851
99 Al 9.48385 3.70015 1.14935
100 Ni 7.69938 -0.130175 0.0889944
101 Ni 7.68227 1.69548 4.97961
102 Ni 7.4999 4.6149 2.43827
103 Ni 9.50344 1.14135 1.38317
104 Ni 9.3919 3.26635 3.61949
105 Al 7.56087 1.40749 7.44119
106 Al 9.44154 -0.129001 8.82454
107 Al 9.54181 2.92069 5.98945
108 Ni 7.60901 -0.731793 5.12088
109 Ni 7.53116 1.02776 9.92276
110 Ni 7.63664 3.93727 7.36155
111 Ni 9.48072 0.347248 6.37914
112 Ni 9.59266 2.3494 8.55276
113 Al 7.57854 7.12514 2.47055
114 Al 9.55381 5.68593 3.92022
115 Al 9.48233 8.77535 1.05449
116 Ni 7.6074 5.06594 0.0324423
117 Ni 7.57507 6.83646 4.91592
118 Ni 7.53801 9.69489 2.50467
119 Ni 9.56068 6.18339 1.44141
120 Ni 9.48117 8.13909 3.63573
121 Al 7.52096 6.31483 7.36437
122 Al 9.50024 4.70993 8.80864
123 Al 9.51372 7.92477 6.14235
124 Ni 7.59779 4.30981 4.87263
125 Ni 7.63131 6.00323 9.84947
126 Ni 7.65188 8.80625 7.37053
127 Ni 9.56043 5.35933 6.25885
128 Ni 9.5516 7.191 8.49412
129 Al 7.47074 12.1369 2.47242
130 Al 9.48795 10.6171 3.9018
131 Al 9.56889 13.7308 1.07532
132 Ni 7.55308 10.1028 -0.00511998
133 Ni 7.44277 11.9172 5.00324
134 Ni 7.45504 14.6923 2.48024
135 Ni 9.36708 11.2576 1.459
136 Ni 9.39416 13.1664 3.62763
137 Al 7.63963 11.2996 7.45792
138 Al 9.48095 9.74502 8.82986
139 Al 9.41275 12.983 6.04279
140 Ni 7.51323 9.34388 5.03414
141 Ni 7.62862 11.0812 9.86424
142 Ni 7.42783 13.883 7.51399
143 Ni 9.54925 10.3411 6.30777
144 Ni 9.50324 12.3077 8.56487
ITEM: TIMESTEP
5400
ITEM: NUMBER OF ATOMS
144
ITEM: BOX BOUNDS xy xz yz pp pp pp
-1.1801996502833086e-01 1.1445025470685742e+01 -7.3387859961734539e-02
-1.5140428296519666e+00 1.5019042136441215e+01 5.3333672717562185e-03
-2.7522283713121709e-03 9.9054704091112971e+00 -1.5054991164281368e+00
ITEM: ATOMS id element xu yu zu
1 Al -0.0113183 1.96995 2.44733
2 Al 1.76628 0.475361 3.93333
3 Al 1.84913 3.67085 1.01709
4 Ni -0.0278275 -0.127941 -0.021494
5 Ni -0.0920674 1.72517 5.02195
6 Ni -0.10665 4.65934 2.42246
7 Ni 1.89097 1.09551 1.33114
8 Ni 1.7503 3.05677 3.51185
9 Al -0.127042 1.38924 7.3995
10 Al 1.89951 -0.19903 8.8143
11 Al 1.77649 2.96341 6.00555
12 Ni -0.0196301 -0.741174 4.94636
13 Ni -0.0819546 0.870574 9.81326
14 Ni -0.105776 3.89119 7.42255
15 Ni 1.95223 0.321876 6.36423
16 Ni 1.90167 2.32541 8.56531
17 Al 0.0325443 7.10855 2.42329
18 Al 1.86508 5.55968 3.85487
19 Al 1.8337 8.71966 1.16791
20 Ni -0.104178 4.97899 -0.108061
21 Ni -0.0781916 6.66983 4.8099
22 Ni -0.193844 9.638 2.58598
23 Ni 1.84785 6.11902 1.26113
24 Ni 1.92226 8.13797 3.59042
25 Al -0.0935393 6.42679 7.43442
26 Al 1.73688 4.71065 8.76905
27 Al 1.8441 8.06116 6.02155
28 Ni -0.29208 4.33215 4.91507
29 Ni -0.00786629 5.99155 9.86276
30 Ni -0.186301 9.01603 7.41576
31 Ni 1.78354 5.41628 6.27701
32 Ni 1.88712 7.44776 8.49211
33 Al -0.183277 12.1016 2.52644
34 Al 1.73225 10.5629 3.9104
35 Al 1.83043 13.6418 1.12809
36 Ni -0.0574639 9.90678 0.0987149
37 Ni -0.143908 11.7224 5.10649
38 Ni -0.130786 14.6299 2.51345
39 Ni 1.64752 11.1633 1.56736
40 Ni 1.6766 13.1961 3.50403
41 Al -0.193103 11.3995 7.61516
42 Al 1.76706 9.86584 8.94002
43 Al 1.78659 12.9851 5.99184
44 Ni -0.0894049 9.18513 5.04658
45 Ni -0.230248 10.9054 9.91867
46 Ni -0.0452998 13.9059 7.40944
47 Ni 1.81511 10.5026 6.40217
48 Ni 1.80337 12.2966 8.67168
49 Al 3.73947 2.19884 2.47042
50 Al 5.70857 0.561835 3.88065
51 Al 5.71627 3.70301 1.13965
52 Ni 3.77361 -0.0596897 -0.0567891
53 Ni 3.73958 1.81321 5.0013
54 Ni 3.64536 4.58269 2.43549
55 Ni 5.75979 1.33391 1.36616
56 Ni 5.63092 3.11816 3.5431
57 Al 3.83992 1.34485 7.49566
58 Al 5.5368 -0.289778 8.8813
59 Al 5.68817 3.03986 6.10653
60 Ni 3.8337 -0.647061 4.91452
61 Ni 3.7891 1.03775 9.90656
62 Ni 3.83773 3.87883 7.45907
63 Ni 5.74155 0.493251 6.38306
64 Ni 5.73795 2.33641 8.59263
65 Al 3.78576 7.0938 2.4829
66 Al 5.75133 5.50802 3.82809
67 Al 5.70211 8.83532 1.07354
68 Ni 3.7619 5.0209 0.00388629
69 Ni 3.86146 6.87623 4.97338
70 Ni 3.6432 9.61925 2.54223
71 Ni 5.65776 6.26699 1.3085
72 Ni 5.58987 8.12793 3.5134
73 Al 3.73216 6.34714 7.37153
74 Al 5.63898 4.7767 8.76796
75 Al 5.66854 7.99722 5.99663
76 Ni 3.80691 4.319 4.91898
77 Ni 3.64342 6.06585 9.70286
78 Ni 3.73001 8.87045 7.47644
79 Ni 5.66506 5.46124 6.35154
80 Ni 5.54868 7.26817 8.46113
81 Al 3.67107 12.1111 2.43777
82 Al 5.68289 10.599 3.92854
83 Al 5.61508 13.8146 1.22041
84 Ni 3.72974 10.0973 0.0757702
85 Ni 3.73499 11.7786 4.95642
86 Ni 3.62063 14.6195 2.42625
87 Ni 5.68198 11.1922 1.459
88 Ni 5.52636 13.0682 3.63156
89 Al 3.72686 11.4052 7.41122
90 Al 5.6026 9.74335 9.01605
91 Al 5.74385 13.0523 6.10391
92 Ni 3.77696 9.23987 5.06163
93 Ni 3.69981 11.001 9.93228
94 Ni 3.71614 13.8732 7.38268
95 Ni 5.58667 10.4481 6.34318
96 Ni 5.56815 12.3356 8.54931
97 Al 7.45636 2.21042 2.51702
98 Al 9.46228 0.56987 3.90483
99 Al 9.62495 3.65964 1.04368
100 Ni 7.44987 0.0438679 0.0381958
101 Ni 7.50505 1.77025 4.87622
102 Ni 7.65475 4.67434 2.5282
103 Ni 9.47406 1.24723 1.3265
104 Ni 9.59895 2.95282 3.52084
105 Al 7.58968 1.30678 7.49969
106 Al 9.52956 -0.252442 8.80986
107 Al 9.40403 2.95132 5.98879
108 Ni 7.51115 -0.834803 4.99684
109 Ni 7.64392 1.02731 9.96657
110 Ni 7.56406 3.86115 7.50789
111 Ni 9.47597 0.453519 6.221
112 Ni 9.48669 2.22303 8.48487
113 Al 7.50024 7.11336 2.52051
114 Al 9.50853 5.48357 3.84048
115 Al 9.49364 8.65546 1.05996
116 Ni 7.58219 4.91093 0.0313818
117 Ni 7.55079 6.77437 4.92768
118 Ni 7.55078 9.6257 2.47817
119 Ni 9.41752 6.16443 1.33991
120 Ni 9.45668 8.05425 3.54638
121 Al 7.47295 6.37401 7.45194
122 Al 9.49429 4.7109 8.84391
123 Al 9.46994 8.02797 6.05348
124 Ni 7.56573 4.26759 5.00394
125 Ni 7.51886 5.99866 9.88819
126 Ni 7.55006 8.93818 7.51261
127 Ni 9.45314 5.45691 6.40783
128 Ni 9.49727 7.3741 8.54346
129 Al 7.49309 12.1269 2.70014
130 Al 9.57562 10.5467 3.99933
131 Al 9.42958 13.7505 1.03356
132 Ni 7.57555 9.89984 0.0176252
133 Ni 7.58459 11.7752 5.12323
134 Ni 7.55221 14.753 2.42446
135 Ni 9.50598 11.0967 1.39042
136 Ni 9.53289 13.1324 3.61407
137 Al 7.45152 11.3727 7.56854
138 Al 9.39982 9.76387 8.9249
139 Al 9.54645 13.0952 6.01792
140 Ni 7.58653 9.2749 4.92038
141 Ni 7.48138 10.8423 10.1631
142 Ni 7.61554 13.8856 7.38288
143 Ni 9.32733 10.5372 6.46371
144 Ni 9.44752 12.2945 8.62285
ITEM: TIMESTEP
5500
ITEM: NUMBER OF ATOMS
144
ITEM: BOX BOUNDS xy xz yz pp pp pp
-5.1786571078947574e-02 1.1505645982757438e+01 4.2636292966115506e-02
-1.5766361625380116e+00 1.5047137948424314e+01 1.6163120364977725e-02
-1.9858488022425291e-02 9.9225766687624102e+00 -1.5399966373310865e+00
ITEM: ATOMS id element xu yu zu
1 Al -0.124899 2.06967 2.49125
2 Al 1.79088 0.344903 3.82465
3 Al 1.93271 3.67572 0.958789
4 Ni -0.142698 -0.0644524 0.0444094
5 Ni -0.0130434 1.69855 4.8342
6 Ni -0.0548358 4.54494 2.40401
7 Ni 1.74191 1.13504 1.40089
8 Ni 1.9281 3.04695 3.51762
9 Al -0.0882327 1.51174 7.48236
10 Al 1.84569 -0.144906 8.86157
11 Al 1.87802 2.98481 5.953
12 Ni -0.0814589 -0.835279 5.04345
13 Ni -0.0612189 0.911191 9.94467
14 Ni -0.00234644 4.02707 7.41815
15 Ni 1.76443 0.562587 6.29167
16 Ni 1.87679 2.4344 8.4484
17 Al -0.0664623 7.1247 2.46356
18 Al 1.76923 5.49774 3.76852
19 Al 1.8975 8.69822 1.08931
20 Ni -0.0816632 4.92407 -0.0483142
21 Ni -0.0518072 6.7346 4.9902
22 Ni 0.0594576 9.5457 2.38091
23 Ni 1.76123 6.06356 1.31501
24 Ni 1.7667 8.03212 3.50718
25 Al -0.0873043 6.42083 7.43461
26 Al 1.77473 4.82204 8.88343
27 Al 1.89775 8.08743 5.94297
28 Ni 0.0869355 4.20139 4.95896
29 Ni -0.179085 5.97971 9.8722
30 Ni 0.0423656 8.86388 7.53359
31 Ni 1.80751 5.58502 6.30038
32 Ni 1.8242 7.33107 8.53565
33 Al 0.0974416 12.0045 2.65389
34 Al 1.93198 10.492 3.8837
35 Al 2.03541 13.7224 1.27402
36 Ni -0.0786597 9.98254 -0.0398167
37 Ni -0.0172494 11.7913 5.11589
38 Ni 0.00599116 14.5277 2.55851
39 Ni 2.04067 11.1757 1.41089
40 Ni 1.96994 12.9558 3.79596
41 Al 0.000708169 11.381 7.6838
42 Al 1.90266 9.85664 8.93113
43 Al 1.83017 13.0822 6.2366
44 Ni -0.0473633 9.34878 4.88778
45 Ni 0.0476224 11.0778 10.2508
46 Ni -0.0389115 14.0093 7.53865
47 Ni 1.87178 10.4138 6.46461
48 Ni 2.01675 12.4308 8.61766
49 Al 3.84594 2.16023 2.29182
50 Al 5.75337 0.52409 3.84009
51 Al 5.8016 3.58017 1.02243
52 Ni 3.7839 0.0937979 0.0619699
53 Ni 3.78748 1.69085 4.78079
54 Ni 3.7886 4.58175 2.44513
55 Ni 5.69292 1.07108 1.26571
56 Ni 5.71202 3.00887 3.53551
57 Al 3.68919 1.37809 7.31549
58 Al 5.54549 -0.211219 8.76939
59 Al 5.63018 3.03562 6.07332
60 Ni 3.64597 -0.872058 4.99359
61 Ni 3.84631 1.00637 9.82197
62 Ni 3.6864 3.98584 7.38857
63 Ni 5.60882 0.272154 6.18117
64 Ni 5.65438 2.28648 8.4625
65 Al 3.73856 7.10795 2.48227
66 Al 5.64559 5.43273 3.85365
67 Al 5.85514 8.73811 1.12527
68 Ni 3.68387 4.9345 -0.0832143
69 Ni 3.56067 6.69999 4.79845
70 Ni 3.85086 9.5837 2.46899
71 Ni 5.76023 6.1578 1.44222
72 Ni 5.65779 7.91549 3.61759
73 Al 3.82646 6.48329 7.45993
74 Al 5.67096 4.7613 8.82511
75 Al 5.57822 7.96403 6.00427
76 Ni 3.71819 4.21294 4.92991
77 Ni 3.90139 5.98567 9.96156
78 Ni 3.82809 8.91203 7.50341
79 Ni 5.73564 5.43674 6.3244
80 Ni 5.75484 7.38041 8.60901
81 Al 3.88794 12.1444 2.58369
82 Al 5.79029 10.5335 3.93449
83 Al 5.72347 13.7605 1.12832
84 Ni 3.80725 9.97394 0.0192081
85 Ni 3.81229 11.7134 5.10115
86 Ni 3.81047 14.6082 2.49202
87 Ni 5.69124 11.1915 1.36707
88 Ni 5.79237 13.1432 3.63023
89 Al 3.91458 11.4134 7.50369
90 Al 5.8122 9.87646 8.94428
91 Al 5.81924 12.9878 6.00164
92 Ni 3.7811 9.23614 4.90697
93 Ni 3.81518 10.9393 10.093
94 Ni 3.85577 14.0014 7.55075
95 Ni 5.77253 10.4484 6.38385
96 Ni 5.75729 12.4091 8.61424
97 Al 7.53505 2.03949 2.44177
98 Al 9.64965 0.494322 3.99359
99 Al 9.48233 3.61116 1.05389
100 Ni 7.7392 -0.0271364 -0.0764802
101 Ni 7.73266 1.72114 4.92393
102 Ni 7.51714 4.59441 2.46936
103 Ni 9.55971 1.01254 1.31428
104 Ni 9.58239 3.0859 3.68325
105 Al 7.59728 1.36037 7.40457
106 Al 9.55503 -0.232998 8.80032
107 Al 9.59021 2.98286 6.08119
108 Ni 7.65332 -0.755737 4.89069
109 Ni 7.61194 0.787167 9.85422
110 Ni 7.56175 3.87727 7.38891
111 Ni 9.59355 0.378937 6.39604
112 Ni 9.4679 2.32263 8.5835
113 Al 7.67929 7.06528 2.56884
114 Al 9.61993 5.44841 3.79291
115 Al 9.53491 8.85856 1.03234
116 Ni 7.59377 4.99209 -0.12833
117 Ni 7.58065 6.67749 4.99354
118 Ni 7.6106 9.64737 2.51379
119 Ni 9.60966 6.16612 1.35566
120 Ni 9.55274 8.10312 3.58484
121 Al 7.62065 6.32036 7.4485
122 Al 9.54491 4.64496 8.83127
123 Al 9.60558 8.04536 6.00789
124 Ni 7.62018 4.14002 4.9266
125 Ni 7.63727 5.98804 9.94241
126 Ni 7.61964 8.84483 7.43934
127 Ni 9.54079 5.49435 6.23591
128 Ni 9.47195 7.39969 8.5795
129 Al 7.5603 12.1118 2.47885
130 Al 9.58787 10.5658 3.90901
131 Al 9.57313 13.6562 1.1816
132 Ni 7.5303 10.0815 0.0560796
133 Ni 7.59238 11.693 4.96331
134 Ni 7.62496 14.6074 2.45702
135 Ni 9.52315 11.238 1.52199
136 Ni 9.56006 12.9444 3.76458
137 Al 7.68793 11.3954 7.35899
138 Al 9.57039 9.79488 9.02944
139 Al 9.58731 13.0615 6.06585
140 Ni 7.54814 9.14179 5.00953
141 Ni 7.65758 11.0553 9.90745
142 Ni 7.51338 13.9255 7.29918
143 Ni 9.68205 10.4078 6.39749
144 Ni 9.64537 12.2679 8.55299
ITEM: TIMESTEP
5600
ITEM: NUMBER OF ATOMS
144
ITEM: BOX BOUNDS xy xz yz pp pp pp
-3.8575251429739055e-02 1.1487517352656484e+01 5.1223992563240534e-02
-1.6052623987828762e+00 1.5034901187971840e+01 2.6581103160879757e-03
2.0060893566294702e-02 9.8826572871736875e+00 -1.5808596340284242e+00
ITEM: ATOMS id element xu yu zu
1 Al -0.0840581 2.06419 2.52188
2 Al 1.79931 0.443724 3.79001
3 Al 1.89264 3.85648 1.06404
4 Ni -0.022617 0.127742 0.0345538
5 Ni -0.0803805 1.76739 5.08911
6 Ni -0.165572 4.51454 2.48184
7 Ni 1.89638 1.18465 1.29563
8 Ni 1.82848 2.92404 3.54459
9 Al -0.00204657 1.29545 7.46149
10 Al 1.8066 -0.307569 8.73019
11 Al 1.8346 2.94268 5.9383
12 Ni -0.0824433 -0.8111 4.9517
13 Ni -0.130108 1.03953 9.91351
14 Ni -0.0567625 3.75517 7.33589
15 Ni 1.8826 0.282255 6.35125
16 Ni 1.88642 2.18064 8.60179
17 Al -0.109356 6.95188 2.49229
18 Al 1.84598 5.43119 3.92858
19 Al 1.80498 8.83481 1.19849
20 Ni -0.0607953 5.13749 0.00503596
21 Ni -0.0546008 6.84316 4.94615
22 Ni -0.0861535 9.62688 2.63735
23 Ni 1.93557 6.25877 1.43545
24 Ni 1.96558 7.94538 3.63096
25 Al 0.0519449 6.30475 7.32685
26 Al 1.86745 4.61929 8.74327
27 Al 1.9075 7.8683 5.95495
28 Ni -0.151157 4.21978 4.86957
29 Ni 0.0545025 5.96216 9.9368
30 Ni -0.0480999 8.88017 7.36024
31 Ni 1.99622 5.297 6.34696
32 Ni 1.8848 7.20287 8.49616
33 Al 0.0454345 12.1029 2.56849
34 Al 1.92235 10.4538 3.91455
35 Al 2.01445 13.6768 1.36207
36 Ni 0.0280335 10.0488 -0.0303529
37 Ni 0.028977 11.6856 5.01654
38 Ni -0.0577379 14.6912 2.40257
39 Ni 1.84273 11.1506 1.45548
40 Ni 1.9199 13.0892 3.66328
41 Al -0.0146325 11.4872 7.41296
42 Al 1.90654 9.73736 8.75811
43 Al 1.94823 12.9213 6.09012
44 Ni 0.0038084 9.16474 4.99426
45 Ni 0.0542215 10.9117 9.77352
46 Ni -0.0558367 13.8486 7.41325
47 Ni 1.95237 10.4701 6.30507
48 Ni 1.83584 12.2107 8.64113
49 Al 3.73934 2.10216 2.41877
50 Al 5.80739 0.392082 3.88685
51 Al 5.64545 3.61325 1.01105
52 Ni 3.84199 -0.0644125 0.111343
53 Ni 3.71005 1.66201 4.92947
54 Ni 3.77003 4.50066 2.44304
55 Ni 5.64668 1.14138 1.43911
56 Ni 5.62503 2.9981 3.41927
57 Al 3.67545 1.30878 7.3597
58 Al 5.61697 -0.230944 8.87301
59 Al 5.69905 3.00152 5.93986
60 Ni 3.93149 -0.850099 5.0621
61 Ni 3.70119 0.838927 9.83303
62 Ni 3.8868 3.74708 7.35661
63 Ni 5.7736 0.408547 6.39933
64 Ni 5.69181 2.30988 8.40229
65 Al 3.81231 7.11177 2.64836
66 Al 5.71207 5.42258 3.75308
67 Al 5.70958 8.76053 1.06357
68 Ni 3.85029 5.13244 0.0170066
69 Ni 3.97757 6.70408 5.11422
70 Ni 3.69465 9.55358 2.46411
71 Ni 5.61945 6.15705 1.32028
72 Ni 5.69245 8.07931 3.64637
73 Al 3.78197 6.5024 7.47712
74 Al 5.78516 4.78582 8.73921
75 Al 5.79463 8.0766 6.0907
76 Ni 3.81505 4.12302 4.9053
77 Ni 3.70702 5.94619 9.91725
78 Ni 3.71496 8.90564 7.33797
79 Ni 5.60567 5.29066 6.35281
80 Ni 5.72664 7.2811 8.55792
81 Al 3.84496 12.0816 2.47889
82 Al 5.73348 10.5481 3.92739
83 Al 5.71057 13.7089 1.16491
84 Ni 3.77307 10.006 -0.0278759
85 Ni 3.78622 11.7042 5.0279
86 Ni 3.95049 14.5518 2.64244
87 Ni 5.69741 11.0973 1.42987
88 Ni 5.74218 12.9463 3.66243
89 Al 3.88878 11.3877 7.52543
90 Al 5.83688 9.70878 8.94437
91 Al 5.86345 13.0599 6.12362
92 Ni 3.76172 9.18029 5.01613
93 Ni 3.82736 10.9756 9.92693
94 Ni 3.78429 13.8759 7.55393
95 Ni 5.64576 10.4311 6.36262
96 Ni 5.74034 12.2699 8.57829
97 Al 7.61493 2.10706 2.39499
98 Al 9.51888 0.540103 3.94672
99 Al 9.55529 3.74652 0.944369
100 Ni 7.5775 -0.0919793 0.10219
101 Ni 7.52896 1.6679 4.94452
102 Ni 7.61099 4.50731 2.40644
103 Ni 9.48071 1.21293 1.41935
104 Ni 9.4053 2.96949 3.47913
105 Al 7.64012 1.42897 7.44475
106 Al 9.5265 -0.193026 8.88805
107 Al 9.48825 2.92644 5.91468
108 Ni 7.57163 -0.870992 5.10839
109 Ni 7.59489 1.14682 9.9042
110 Ni 7.58343 3.82054 7.35423
111 Ni 9.44657 0.419535 6.21446
112 Ni 9.52375 2.35178 8.46236
113 Al 7.57612 7.11078 2.46114
114 Al 9.46716 5.41757 3.81678
115 Al 9.65944 8.7385 1.12433
116 Ni 7.60911 5.11752 0.0306157
117 Ni 7.60211 6.83828 4.88444
118 Ni 7.58892 9.55356 2.53528
119 Ni 9.37004 6.1662 1.3562
120 Ni 9.46816 7.93643 3.63766
121 Al 7.67297 6.28218 7.3623
122 Al 9.57686 4.67298 8.79195
123 Al 9.49575 7.97448 6.04563
124 Ni 7.54375 4.30882 4.89262
125 Ni 7.60169 5.94299 9.89749
126 Ni 7.66432 8.90993 7.52632
127 Ni 9.4944 5.32443 6.4214
128 Ni 9.59955 7.18903 8.55578
129 Al 7.64882 11.9715 2.47703
130 Al 9.5729 10.6073 3.88899
131 Al 9.6413 13.6837 1.10872
132 Ni 7.81296 10.0405 0.106467
133 Ni 7.64224 11.771 4.98088
134 Ni 7.615 14.5033 2.48035
135 Ni 9.67752 11.1827 1.29245
136 Ni 9.50374 13.1248 3.52001
137 Al 7.64592 11.376 7.33635
138 Al 9.64582 9.77243 8.79888
139 Al 9.56412 13.0358 5.89264
140 Ni 7.64908 9.34689 5.09355
141 Ni 7.69081 10.9291 9.96739
142 Ni 7.79138 13.8334 7.63308
143 Ni 9.54454 10.4722 6.38119
144 Ni 9.48853 12.3635 8.58248
ITEM: TIMESTEP
5700
ITEM: NUMBER OF ATOMS
144
ITEM: BOX BOUNDS xy xz yz pp pp pp
-1.3570468094472410e-01 1.1467868422877146e+01 -6.9176451377358159e-02
-1.6333779760686546e+00 1.5020252077286546e+01 6.2801949623509674e-03
-1.8445208894361187e-02 9.9211633896343550e+00 -1.6236243219995021e+00
ITEM: ATOMS id element xu yu zu
1 Al -0.131227 2.16669 2.56273
2 Al 1.87896 0.579188 3.87596
3 Al 1.83431 3.58517 1.09658
4 Ni -0.154481 -0.071056 -0.119978
5 Ni -0.117783 1.62036 4.80666
6 Ni -0.0174205 4.79348 2.5311
7 Ni 1.75658 1.12482 1.50402
8 Ni 1.78259 3.15215 3.65896
9 Al -0.0106949 1.20584 7.40315
10 Al 1.8879 -0.371096 8.85497
11 Al 1.75876 2.92335 5.9541
12 Ni -0.0508494 -0.824747 4.91602
13 Ni 0.0465527 0.770753 9.8488
14 Ni -0.0894982 3.70854 7.52048
15 Ni 1.89364 0.316935 6.38756
16 Ni 1.77728 2.18178 8.4523
17 Al -0.082676 7.2225 2.51625
18 Al 1.82297 5.58361 3.86045
19 Al 1.86089 8.87855 1.07587
20 Ni -0.0950636 4.91206 -0.0205738
21 Ni -0.0829551 6.54734 4.91911
22 Ni -0.0692659 9.71546 2.36466
23 Ni 1.81421 6.06572 1.29998
24 Ni 1.77427 8.20219 3.723
25 Al -0.0955067 6.2232 7.44818
26 Al 1.83492 4.66582 8.82828
27 Al 1.80768 7.80761 6.0684
28 Ni -0.0703973 4.09641 4.97913
29 Ni -0.13421 5.81737 9.91637
30 Ni -0.0945479 8.64186 7.47938
31 Ni 1.77119 5.33876 6.28891
32 Ni 1.87903 7.23047 8.59359
33 Al -0.18094 12.1232 2.44602
34 Al 1.79177 10.574 3.89341
35 Al 1.67925 13.6948 0.999839
36 Ni -0.169875 10.0276 0.137368
37 Ni -0.22146 11.7967 4.86758
38 Ni -0.0922716 14.6688 2.51936
39 Ni 1.7509 11.3015 1.37374
40 Ni 1.71803 13.07 3.47198
41 Al -0.0988554 11.2587 7.37482
42 Al 1.75425 9.64046 8.8233
43 Al 1.78664 12.8204 5.91136
44 Ni -0.152106 9.14107 5.02524
45 Ni -0.311787 10.8905 9.99771
46 Ni -0.0675671 13.7398 7.3648
47 Ni 1.77384 10.2709 6.30079
48 Ni 1.76881 12.2415 8.32378
49 Al 3.69928 2.25202 2.62129
50 Al 5.59613 0.376798 3.88741
51 Al 5.59162 3.68485 1.22318
52 Ni 3.65438 -0.0535882 -0.0309947
53 Ni 3.80209 1.73717 5.10774
54 Ni 3.72111 4.71257 2.46474
55 Ni 5.56645 1.10113 1.39764
56 Ni 5.64446 3.06944 3.75501
57 Al 3.7553 1.20918 7.55418
58 Al 5.59901 -0.335643 8.94088
59 Al 5.64957 3.0275 6.23953
60 Ni 3.60253 -0.771949 4.97767
61 Ni 3.80817 0.818073 10.0551
62 Ni 3.64482 3.69459 7.42096
63 Ni 5.65378 0.284983 6.38335
64 Ni 5.72445 2.10495 8.70292
65 Al 3.66397 7.25616 2.539
66 Al 5.60173 5.51631 3.87253
67 Al 5.65769 8.74087 1.0704
68 Ni 3.58833 4.88361 -0.0415921
69 Ni 3.58508 6.7922 4.92392
70 Ni 3.82856 9.64793 2.47685
71 Ni 5.65522 6.18363 1.39737
72 Ni 5.71105 7.93023 3.55801
73 Al 3.71178 6.26007 7.35962
74 Al 5.74285 4.6193 8.88348
75 Al 5.61938 7.94919 6.00232
76 Ni 3.74375 4.24433 5.00517
77 Ni 3.83529 5.86291 9.96945
78 Ni 3.79627 8.71947 7.52622
79 Ni 5.81851 5.42804 6.3438
80 Ni 5.56123 7.22456 8.60253
81 Al 3.69716 12.2004 2.37292
82 Al 5.72781 10.5428 3.85964
83 Al 5.52538 13.7399 1.12825
84 Ni 3.74017 10.0128 0.0955834
85 Ni 3.74403 11.7095 4.90962
86 Ni 3.47537 14.6541 2.38415
87 Ni 5.64524 11.1983 1.38382
88 Ni 5.582 13.118 3.6454
89 Al 3.7501 11.1793 7.42073
90 Al 5.69081 9.74645 8.81908
91 Al 5.63299 12.9348 5.99172
92 Ni 3.73565 9.24057 4.97024
93 Ni 3.61668 10.9077 9.92507
94 Ni 3.76038 13.7435 7.44107
95 Ni 5.70197 10.3841 6.34317
96 Ni 5.55759 12.2272 8.61087
97 Al 7.73734 2.23005 2.4792
98 Al 9.5425 0.509717 3.96082
99 Al 9.53223 3.7689 1.01084
100 Ni 7.61576 -0.00468832 0.033533
101 Ni 7.62398 1.73953 4.92653
102 Ni 7.50138 4.59885 2.4867
103 Ni 9.57477 1.23833 1.34081
104 Ni 9.55031 3.09396 3.58593
105 Al 7.59767 1.4811 7.44113
106 Al 9.55245 -0.413945 8.77072
107 Al 9.65356 2.88198 6.08515
108 Ni 7.59709 -0.749824 4.95827
109 Ni 7.68716 0.844435 9.95006
110 Ni 7.6007 3.89692 7.4904
111 Ni 9.51274 0.279838 6.36031
112 Ni 9.57621 2.16085 8.59083
113 Al 7.6905 7.10235 2.46909
114 Al 9.4753 5.49307 3.71558
115 Al 9.48747 8.76846 0.97329
116 Ni 7.58311 4.89104 -0.0633593
117 Ni 7.5852 6.65848 5.09758
118 Ni 7.60438 9.56205 2.47393
119 Ni 9.67583 6.2245 1.39033
120 Ni 9.55036 8.08866 3.56773
121 Al 7.71798 6.31752 7.51524
122 Al 9.54917 4.5939 8.8583
123 Al 9.52068 7.86833 5.97295
124 Ni 7.61683 4.16542 4.97312
125 Ni 7.56791 5.88313 9.94683
126 Ni 7.4849 8.80701 7.38053
127 Ni 9.4498 5.41229 6.25068
128 Ni 9.54418 7.30692 8.52579
129 Al 7.59314 12.1611 2.52976
130 Al 9.53108 10.5728 3.82635
131 Al 9.36795 13.738 1.213
132 Ni 7.38668 10.0558 -0.0551567
133 Ni 7.5496 11.7618 5.00418
134 Ni 7.47738 14.7064 2.56858
135 Ni 9.42891 11.1955 1.43897
136 Ni 9.48836 13.0504 3.65256
137 Al 7.59857 11.3321 7.47527
138 Al 9.50652 9.56372 8.94025
139 Al 9.43633 12.8945 6.0248
140 Ni 7.54156 9.06579 4.89384
141 Ni 7.47162 10.9075 9.94423
142 Ni 7.44963 13.8184 7.28752
143 Ni 9.36447 10.3139 6.3259
144 Ni 9.54756 12.169 8.48917
ITEM: TIMESTEP
5800
ITEM: NUMBER OF ATOMS
144
ITEM: BOX BOUNDS xy xz yz pp pp pp
-1.0425560568149631e-01 1.1471644463324845e+01 -5.8667724822278479e-02
-1.6896999165303099e+00 1.5050069620198734e+01 3.0996584118197723e-02
2.0401779259658248e-02 9.8823164014803293e+00 -1.6501287195489662e+00
ITEM: ATOMS id element xu yu zu
1 Al -0.0509061 2.06563 2.55774
2 Al 1.91012 0.531953 3.7946
3 Al 1.95466 3.7866 1.31512
4 Ni -0.0231361 -0.0773673 0.0694231
5 Ni -0.0436998 1.81332 5.05427
6 Ni -0.0616215 4.56194 2.55577
7 Ni 1.93919 1.20599 1.29473
8 Ni 1.91616 3.02935 3.65931
9 Al -0.0420885 1.23674 7.48066
10 Al 1.84465 -0.431273 8.78106
11 Al 1.89169 2.97748 6.08013
12 Ni -0.115762 -0.839017 4.982
13 Ni -0.179398 0.830644 9.85109
14 Ni -0.107895 3.76527 7.39279
15 Ni 1.83977 0.336314 6.32463
16 Ni 1.8351 2.08813 8.67498
17 Al -0.140616 7.04712 2.50116
18 Al 1.77499 5.56778 3.92648
19 Al 1.82636 8.81432 1.09414
20 Ni -0.0943468 4.98148 0.147971
21 Ni -0.0736972 6.86927 5.07433
22 Ni -0.166912 9.67678 2.54148
23 Ni 1.81827 6.30795 1.44689
24 Ni 1.95374 8.04964 3.48217
25 Al -0.0893421 6.37646 7.44142
26 Al 1.81413 4.47775 8.8511
27 Al 1.88389 7.88172 5.94863
28 Ni -0.017024 4.28301 5.0415
29 Ni -0.0185 5.84258 9.87913
30 Ni -0.153771 8.86254 7.40581
31 Ni 1.78554 5.3112 6.35244
32 Ni 1.76293 7.13335 8.513
33 Al -0.145868 12.1602 2.43403
34 Al 1.80804 10.5346 3.91624
35 Al 1.91421 13.8121 1.16251
36 Ni -0.112082 9.89391 -0.0713459
37 Ni -0.0965093 11.6904 4.99439
38 Ni -0.126201 14.7188 2.49735
39 Ni 1.8056 11.1114 1.32025
40 Ni 1.80213 13.1823 3.60491
41 Al -0.0697296 11.357 7.51042
42 Al 1.9269 9.50916 8.76563
43 Al 1.68673 12.9626 6.0351
44 Ni -0.0907654 9.29266 5.03807
45 Ni 0.0212844 10.8185 9.79256
46 Ni -0.175149 13.7474 7.53925
47 Ni 1.75137 10.3931 6.30929
48 Ni 1.85384 12.1373 8.57955
49 Al 3.82783 2.10341 2.57486
50 Al 5.76413 0.413047 3.82592
51 Al 5.71097 3.72516 1.23976
52 Ni 3.84597 0.00197913 -0.0614854
53 Ni 3.71865 1.71583 5.00713
54 Ni 3.81198 4.55312 2.63286
55 Ni 5.72441 1.21923 1.36104
56 Ni 5.74582 3.10312 3.57275
57 Al 3.80176 1.10825 7.55107
58 Al 5.6302 -0.379774 8.85891
59 Al 5.6884 2.81428 6.0905
60 Ni 3.89804 -0.829713 4.86703
61 Ni 3.79742 0.881344 9.92577
62 Ni 3.8423 3.73686 7.49528
63 Ni 5.65716 0.324443 6.30487
64 Ni 5.71294 2.17158 8.48863
65 Al 3.80105 7.07025 2.47273
66 Al 5.68247 5.51972 3.89132
67 Al 5.57311 8.74858 1.05656
68 Ni 3.93138 4.9269 0.139502
69 Ni 3.82146 6.67831 4.9167
70 Ni 3.6368 9.73823 2.53439
71 Ni 5.71223 6.1611 1.45262
72 Ni 5.5523 8.17169 3.58344
73 Al 3.69346 6.27174 7.39017
74 Al 5.8584 4.62981 8.91077
75 Al 5.67025 7.81384 6.0915
76 Ni 3.7305 4.18567 5.02234
77 Ni 3.69079 5.89346 9.76458
78 Ni 3.69958 8.71903 7.3738
79 Ni 5.61729 5.22419 6.33038
80 Ni 5.64694 7.10604 8.49375
81 Al 3.6629 12.2435 2.35536
82 Al 5.64555 10.5905 3.84214
83 Al 5.5839 13.7696 0.95522
84 Ni 3.68186 9.94681 -0.00516216
85 Ni 3.70315 11.791 4.89651
86 Ni 3.87542 14.7375 2.43534
87 Ni 5.59377 11.2641 1.37659
88 Ni 5.5942 13.2297 3.44074
89 Al 3.69049 11.2401 7.30443
90 Al 5.75784 9.46656 8.74953
91 Al 5.70736 12.974 5.90506
92 Ni 3.7316 9.23481 4.9767
93 Ni 3.82776 10.8413 9.7685
94 Ni 3.66521 13.8094 7.30191
95 Ni 5.68595 10.2564 6.31976
96 Ni 5.52764 12.2016 8.36362
97 Al 7.72935 2.17613 2.64547
98 Al 9.54361 0.50075 3.91994
99 Al 9.35436 3.66248 1.13324
100 Ni 7.55009 -0.0620762 -0.0466626
101 Ni 7.6141 1.59468 5.04086
102 Ni 7.72685 4.66904 2.67498
103 Ni 9.41968 1.12975 1.39834
104 Ni 9.52545 2.9936 3.68303
105 Al 7.58144 1.16225 7.53771
106 Al 9.59875 -0.478479 8.80109
107 Al 9.53817 2.81553 6.14482
108 Ni 7.57905 -0.943072 4.85271
109 Ni 7.60024 0.699295 9.9522
110 Ni 7.62081 3.56939 7.57676
111 Ni 9.47913 0.307287 6.25476
112 Ni 9.46693 2.12209 8.56776
113 Al 7.53496 7.23673 2.5046
114 Al 9.57788 5.47872 3.98217
115 Al 9.53812 8.78956 1.14287
116 Ni 7.63723 5.01449 0.156868
117 Ni 7.6196 6.70744 4.83851
118 Ni 7.49238 9.81677 2.42235
119 Ni 9.4561 6.19168 1.4871
120 Ni 9.51799 8.00296 3.60412
121 Al 7.63923 6.06261 7.29492
122 Al 9.6182 4.59374 8.87376
123 Al 9.47884 7.88186 6.0447
124 Ni 7.59631 4.14989 5.03484
125 Ni 7.63517 5.82686 9.89993
126 Ni 7.54962 8.71384 7.37946
127 Ni 9.55603 5.26504 6.51631
128 Ni 9.43908 7.05444 8.57095
129 Al 7.54401 12.2424 2.57291
130 Al 9.46688 10.6126 3.7823
131 Al 9.44133 13.709 1.14469
132 Ni 7.6299 9.84125 -0.0355851
133 Ni 7.52298 11.654 4.99269
134 Ni 7.50231 14.659 2.34138
135 Ni 9.37447 11.2175 1.36939
136 Ni 9.4073 13.14 3.58175
137 Al 7.56378 11.1498 7.49923
138 Al 9.5751 9.50937 8.84471
139 Al 9.40549 12.8254 6.02282
140 Ni 7.5367 9.18205 4.91689
141 Ni 7.59506 10.836 9.9963
142 Ni 7.55498 13.74 7.38766
143 Ni 9.45616 10.385 6.33186
144 Ni 9.43228 12.1742 8.52941
ITEM: TIMESTEP
5900
ITEM: NUMBER OF ATOMS
144
ITEM: BOX BOUNDS xy xz yz pp pp pp
-6.8922047233696659e-02 1.1533438677653418e+01 5.2700585272250251e-02
-1.5992622727762664e+00 1.4997025031082305e+01 1.6756046800045717e-02
5.7368080656567955e-03 9.8969813726743219e+00 -1.6127356649113493e+00
ITEM: ATOMS id element xu yu zu
1 Al -0.0923619 2.05474 2.63012
2 Al 1.8531 0.521951 3.83177
3 Al 1.92434 3.63843 1.17783
4 Ni -0.0929899 0.0847968 -0.0704564
5 Ni -0.105132 1.69972 4.99452
6 Ni -0.0742479 4.64665 2.56662
7 Ni 1.83466 1.13985 1.41888
8 Ni 1.77445 2.96588 3.59674
9 Al -0.0243012 1.28821 7.61367
10 Al 1.90109 -0.274596 8.83053
11 Al 1.83052 3.02911 6.00466
12 Ni 0.00692327 -0.657199 4.94634
13 Ni 0.101382 0.83992 10.0017
14 Ni -0.0559718 3.73827 7.60265
15 Ni 1.82506 0.424196 6.3244
16 Ni 1.93788 2.2529 8.47953
17 Al -0.047835 7.05155 2.54158
18 Al 1.8725 5.40796 3.96344
19 Al 1.859 8.75939 1.01489
20 Ni -0.0805373 5.00712 0.038705
21 Ni -0.0223351 6.59152 4.95089
22 Ni 0.00550463 9.52775 2.42664
23 Ni 1.77815 6.02244 1.48179
24 Ni 1.8277 8.02865 3.73287
25 Al -0.0751776 6.17111 7.54133
26 Al 1.82646 4.7731 8.86833
27 Al 1.84228 7.91861 6.1553
28 Ni -0.0647158 4.14404 5.0858
29 Ni -0.164775 5.8759 10.0274
30 Ni -0.0587569 8.68613 7.39261
31 Ni 1.95531 5.40868 6.34503
32 Ni 2.03193 7.29232 8.52638
33 Al 0.0186009 12.0704 2.46608
34 Al 1.86947 10.5026 3.77555
35 Al 1.86081 13.7413 1.07087
36 Ni -0.0657526 10.0744 -0.116468
37 Ni 0.00911446 11.772 4.94969
38 Ni -0.008185 14.5502 2.4091
39 Ni 1.92677 11.1929 1.35441
40 Ni 1.94562 12.9886 3.63706
41 Al -0.0292529 11.3349 7.5195
42 Al 1.92328 9.70127 8.80211
43 Al 1.82417 12.9587 6.07961
44 Ni -0.0412489 9.17656 4.78604
45 Ni -0.10933 10.9623 9.95326
46 Ni 0.0597318 13.858 7.3754
47 Ni 1.89566 10.4655 6.19498
48 Ni 1.82394 12.2865 8.44372
49 Al 3.79723 2.13999 2.47317
50 Al 5.66663 0.343347 3.78938
51 Al 5.50068 3.82081 1.1931
52 Ni 3.72128 -0.0262862 0.0156949
53 Ni 3.77387 1.74233 4.80706
54 Ni 3.80417 4.74399 2.4783
55 Ni 5.70922 1.1354 1.37148
56 Ni 5.66275 3.06537 3.66662
57 Al 3.885 1.11372 7.39871
58 Al 5.76735 -0.396405 8.9642
59 Al 5.67707 2.81556 6.15219
60 Ni 3.64999 -0.779445 4.98788
61 Ni 3.81884 0.85003 9.83228
62 Ni 3.69046 3.78309 7.49491
63 Ni 5.73348 0.286741 6.31379
64 Ni 5.64318 2.12998 8.58446
65 Al 3.73209 7.11496 2.58867
66 Al 5.5933 5.53604 3.95698
67 Al 5.74727 8.69924 0.994202
68 Ni 3.60072 5.05563 0.104387
69 Ni 3.73028 6.75906 4.96916
70 Ni 3.80488 9.50991 2.33006
71 Ni 5.72136 6.25185 1.37766
72 Ni 5.73411 8.03038 3.50065
73 Al 3.8951 6.31765 7.48872
74 Al 5.78397 4.54328 8.83749
75 Al 5.70918 7.94193 6.05509
76 Ni 3.80998 4.17932 5.07983
77 Ni 3.8758 5.91987 10.0027
78 Ni 3.86266 8.8282 7.34978
79 Ni 5.71468 5.34654 6.38038
80 Ni 5.7617 7.2732 8.51527
81 Al 3.8121 12.0864 2.43746
82 Al 5.74275 10.4649 3.84701
83 Al 5.62376 13.6213 1.18675
84 Ni 3.78252 10.0057 -0.10215
85 Ni 3.68977 11.6986 4.97482
86 Ni 3.72302 14.5911 2.56859
87 Ni 5.73795 11.1612 1.41398
88 Ni 5.77759 12.9901 3.62097
89 Al 3.7548 11.3101 7.49826
90 Al 5.72555 9.68024 8.68939
91 Al 5.70983 12.9062 5.959
92 Ni 3.68751 9.27832 4.88318
93 Ni 3.67082 10.9381 9.93672
94 Ni 3.91433 13.7275 7.50176
95 Ni 5.63952 10.4046 6.28157
96 Ni 5.84214 12.1649 8.54519
97 Al 7.63104 2.1278 2.54155
98 Al 9.57623 0.429988 4.00076
99 Al 9.4454 3.75976 1.18091
100 Ni 7.64355 -0.0363153 -0.0455166
101 Ni 7.6529 1.8294 4.93241
102 Ni 7.54859 4.63505 2.51202
103 Ni 9.60619 1.13408 1.4571
104 Ni 9.55464 3.07851 3.61533
105 Al 7.62863 1.34442 7.51984
106 Al 9.65076 -0.324966 8.86134
107 Al 9.64734 2.86352 6.19015
108 Ni 7.63507 -0.671963 4.95319
109 Ni 7.65991 0.986136 9.90782
110 Ni 7.52143 3.80135 7.41025
111 Ni 9.58186 0.410987 6.45371
112 Ni 9.56805 2.14896 8.59103
113 Al 7.59033 7.00432 2.65107
114 Al 9.50146 5.55135 3.84804
115 Al 9.44908 8.80002 1.07184
116 Ni 7.57377 5.01459 0.0588362
117 Ni 7.59888 6.69536 5.13139
118 Ni 7.68643 9.60543 2.61553
119 Ni 9.48059 6.1528 1.45339
120 Ni 9.49875 8.11038 3.63191
121 Al 7.61492 6.19546 7.44268
122 Al 9.4963 4.65009 8.79839
123 Al 9.69018 7.79785 6.04828
124 Ni 7.65731 4.27676 4.99978
125 Ni 7.52213 5.82546 9.93202
126 Ni 7.66397 8.72243 7.46688
127 Ni 9.56628 5.36011 6.28335
128 Ni 9.58854 7.27628 8.54498
129 Al 7.70989 12.0834 2.33665
130 Al 9.62698 10.5866 3.78863
131 Al 9.50852 13.6895 1.02964
132 Ni 7.59675 10.1728 0.129142
133 Ni 7.72134 11.8061 4.81287
134 Ni 7.72348 14.5988 2.52562
135 Ni 9.7649 11.1173 1.36956
136 Ni 9.65427 13.0253 3.46975
137 Al 7.65858 11.2292 7.22616
138 Al 9.61766 9.65023 8.75286
139 Al 9.61703 12.859 5.95081
140 Ni 7.63891 9.28583 5.05493
141 Ni 7.70186 10.9563 9.68919
142 Ni 7.6475 13.6889 7.34416
143 Ni 9.58812 10.3024 6.29802
144 Ni 9.55755 12.2814 8.42972
ITEM: TIMESTEP
6000
ITEM: NUMBER OF ATOMS
144
ITEM: BOX BOUNDS xy xz yz pp pp pp
-1.2419588811690588e-01 1.1497516174072164e+01 4.1693410638504666e-02
-1.6220606954962704e+00 1.5052295885924941e+01 -6.3433123030671973e-02
-1.1009716146097581e-02 9.9137278968860656e+00 -1.5802632327887156e+00
ITEM: ATOMS id element xu yu zu
1 Al -0.0850957 2.09379 2.57843
2 Al 1.88227 0.344078 3.87765
3 Al 1.84067 3.78258 1.04454
4 Ni -0.0899623 -0.0492979 0.018184
5 Ni -0.0955601 1.59709 4.95323
6 Ni -0.0880832 4.54978 2.48578
7 Ni 1.72003 1.09006 1.38125
8 Ni 1.87598 3.03816 3.65046
9 Al -0.194242 1.39106 7.45973
10 Al 1.71168 -0.224112 8.86315
11 Al 1.75607 2.96867 6.0283
12 Ni -0.173314 -1.03958 4.8725
13 Ni -0.265051 0.872797 9.84067
14 Ni -0.089537 3.91822 7.4191
15 Ni 1.80099 0.259352 6.39133
16 Ni 1.73036 2.26655 8.56552
17 Al -0.0397857 6.9712 2.44271
18 Al 1.77134 5.57902 4.01148
19 Al 1.86383 8.76431 1.08611
20 Ni -0.0349664 5.05472 -0.0161779
21 Ni -0.239454 6.7349 5.042
22 Ni -0.107451 9.6911 2.48476
23 Ni 1.87351 6.24688 1.40539
24 Ni 1.82826 7.98647 3.40007
25 Al -0.242904 6.40505 7.45653
26 Al 1.81741 4.71894 8.8161
27 Al 1.84063 7.85287 5.99558
28 Ni -0.0994469 4.19621 4.87169
29 Ni -0.0426952 5.89181 9.84974
30 Ni -0.0766825 8.96396 7.4954
31 Ni 1.73955 5.30314 6.45885
32 Ni 1.62995 7.31148 8.60874
33 Al -0.124923 12.125 2.37438
34 Al 1.85502 10.4643 3.96495
35 Al 1.90552 13.7325 1.07338
36 Ni -0.0146783 10.0826 0.0758147
37 Ni -0.0169466 11.6599 4.79006
38 Ni -0.10519 14.7073 2.5033
39 Ni 1.86517 11.1366 1.32812
40 Ni 1.79909 13.0237 3.50298
41 Al -0.0244443 11.5377 7.39512
42 Al 1.91799 9.68201 8.92417
43 Al 1.87155 12.918 5.98613
44 Ni -0.0500152 9.13599 4.92957
45 Ni -0.0234445 10.8825 9.79919
46 Ni -0.146308 13.8956 7.38266
47 Ni 1.9416 10.2811 6.39791
48 Ni 1.93983 12.2854 8.60659
49 Al 3.69922 1.96774 2.54618
50 Al 5.64127 0.392473 3.86448
51 Al 5.58009 3.63184 1.14082
52 Ni 3.78787 0.00285493 0.0826833
53 Ni 3.78571 1.62914 5.09931
54 Ni 3.68958 4.41614 2.41338
55 Ni 5.59776 1.12639 1.4654
56 Ni 5.59972 2.97163 3.49907
57 Al 3.70821 1.3659 7.55935
58 Al 5.62652 -0.247766 8.85921
59 Al 5.7063 3.04202 5.9953
60 Ni 3.92482 -0.835833 4.97637
61 Ni 3.65209 0.883931 9.98321
62 Ni 3.8119 3.91941 7.36853
63 Ni 5.61699 0.483755 6.39543
64 Ni 5.7639 2.41479 8.46932
65 Al 3.78999 6.9905 2.64628
66 Al 5.62434 5.41081 3.89697
67 Al 5.64035 8.62357 1.10982
68 Ni 3.91014 4.95486 -0.011364
69 Ni 3.78644 6.61779 5.10702
70 Ni 3.78372 9.6407 2.51398
71 Ni 5.6052 5.98918 1.44298
72 Ni 5.69237 7.97789 3.73189
73 Al 3.70952 6.41911 7.55082
74 Al 5.78494 4.83754 8.91499
75 Al 5.69399 7.97726 6.28762
76 Ni 3.70323 4.22244 4.96038
77 Ni 3.64716 5.97709 9.98232
78 Ni 3.68388 8.83377 7.50929
79 Ni 5.66758 5.51772 6.39284
80 Ni 5.6181 7.29206 8.69061
81 Al 3.75388 12.0912 2.4881
82 Al 5.7606 10.4285 3.79449
83 Al 5.68478 13.7279 1.14596
84 Ni 3.76391 10.0486 0.0518006
85 Ni 3.94723 11.7266 4.97599
86 Ni 3.86275 14.5509 2.48914
87 Ni 5.68372 11.2514 1.38031
88 Ni 5.74315 13.1659 3.53129
89 Al 3.766 11.3787 7.43927
90 Al 5.63763 9.7372 8.67158
91 Al 5.71868 13.0696 6.02772
92 Ni 3.86227 9.15327 4.91904
93 Ni 3.88568 10.9636 9.96217
94 Ni 3.70102 13.9635 7.49112
95 Ni 5.75562 10.4229 6.38781
96 Ni 5.6776 12.3769 8.52735
97 Al 7.45674 2.01274 2.57138
98 Al 9.53889 0.446899 3.83924
99 Al 9.44759 3.73457 1.16825
100 Ni 7.56117 0.0596981 0.0717956
101 Ni 7.52297 1.62951 5.06327
102 Ni 7.58615 4.50119 2.31093
103 Ni 9.49221 1.18289 1.32004
104 Ni 9.46638 2.95482 3.61419
105 Al 7.63804 1.3947 7.53338
106 Al 9.58749 -0.318748 8.80345
107 Al 9.5316 2.96194 6.04901
108 Ni 7.57948 -0.879197 4.99749
109 Ni 7.51928 0.935498 9.92997
110 Ni 7.59785 3.89532 7.46286
111 Ni 9.52316 0.347575 6.29648
112 Ni 9.46936 2.36149 8.53236
113 Al 7.52417 6.91846 2.44859
114 Al 9.40121 5.49036 3.91284
115 Al 9.58841 8.83011 1.09684
116 Ni 7.5665 4.98208 -0.0873308
117 Ni 7.59999 6.75467 4.87247
118 Ni 7.64779 9.60081 2.44812
119 Ni 9.59699 6.13985 1.34911
120 Ni 9.44863 7.93401 3.6022
121 Al 7.46023 6.35831 7.41186
122 Al 9.49144 4.78795 8.81571
123 Al 9.51857 8.00643 6.21257
124 Ni 7.52703 4.23799 4.95764
125 Ni 7.66611 5.99031 9.92805
126 Ni 7.54297 8.96559 7.50199
127 Ni 9.4554 5.47617 6.39549
128 Ni 9.51661 7.33093 8.60483
129 Al 7.53255 12.1583 2.4607
130 Al 9.50945 10.4071 3.79609
131 Al 9.53291 13.8056 0.935631
132 Ni 7.65823 9.98262 -0.070443
133 Ni 7.58805 11.6701 4.85209
134 Ni 7.58649 14.5793 2.5509
135 Ni 9.4329 11.2299 1.29963
136 Ni 9.46678 13.1174 3.56148
137 Al 7.58118 11.4427 7.36477
138 Al 9.54555 9.73171 8.72715
139 Al 9.44986 12.8932 6.01071
140 Ni 7.5858 9.26308 4.89958
141 Ni 7.55342 10.9829 9.93113
142 Ni 7.61841 13.9513 7.531
143 Ni 9.52162 10.5253 6.27628
144 Ni 9.57407 12.2979 8.46418
ITEM: TIMESTEP
6100
ITEM: NUMBER OF ATOMS
144
ITEM: BOX BOUNDS xy xz yz pp pp pp
-8.4621295653018125e-02 1.1414472382835402e+01 -1.7374000612039177e-02
-1.5350466752063168e+00 1.5025350434887951e+01 -4.7834910553002388e-02
6.4774310112163391e-03 9.8962407497287614e+00 -1.5201946635357497e+00
ITEM: ATOMS id element xu yu zu
1 Al -0.0757128 2.03466 2.41346
2 Al 1.83816 0.500946 3.78134
3 Al 1.8875 3.76834 1.16378
4 Ni -0.0516038 0.0268502 0.0338618
5 Ni -0.125828 1.79935 4.90383
6 Ni -0.0312895 4.66384 2.44237
7 Ni 1.9642 1.16491 1.37722
8 Ni 1.71702 2.96392 3.60502
9 Al -0.10721 1.33454 7.44591
10 Al 1.89714 -0.114766 8.79559
11 Al 1.76614 3.0823 6.07374
12 Ni -0.0108486 -0.727935 5.02663
13 Ni -0.0127314 0.948933 9.9383
14 Ni -0.158281 3.8373 7.39169
15 Ni 1.89263 0.463203 6.36059
16 Ni 1.76944 2.3026 8.57726
17 Al 0.0820677 7.09143 2.44868
18 Al 1.95508 5.41876 3.70035
19 Al 1.92789 8.73717 1.16003
20 Ni -0.0642325 5.0177 0.0378826
21 Ni 0.0600603 6.69176 4.81472
22 Ni -0.0598639 9.69499 2.5695
23 Ni 1.82516 6.11345 1.32658
24 Ni 1.94364 8.06562 3.84664
25 Al -0.0491961 6.36312 7.32596
26 Al 1.64104 4.87642 8.69475
27 Al 1.77888 8.07357 6.31723
28 Ni -0.0473854 4.20694 5.04665
29 Ni -0.118731 6.06404 9.96166
30 Ni -0.0893361 8.86427 7.51591
31 Ni 1.93392 5.50832 6.09341
32 Ni 1.97339 7.29906 8.57777
33 Al 0.0196061 12.1299 2.57654
34 Al 1.75519 10.5828 3.9014
35 Al 1.83407 13.7746 1.0222
36 Ni -0.0353 9.99009 0.100885
37 Ni -0.145296 11.7591 4.99869
38 Ni -0.0522497 14.6078 2.4733
39 Ni 1.85908 11.2311 1.44429
40 Ni 1.96137 13.0749 3.59892
41 Al -0.173422 11.4634 7.41592
42 Al 1.76489 9.74551 8.92172
43 Al 1.74869 13.0274 6.12701
44 Ni -0.100143 9.34296 5.17907
45 Ni -0.139871 11.1024 9.89722
46 Ni -0.0315609 13.8547 7.55403
47 Ni 1.80038 10.5856 6.30005
48 Ni 1.7315 12.3069 8.38855
49 Al 3.8291 2.17926 2.52727
50 Al 5.52636 0.401794 3.94251
51 Al 5.70878 3.8332 1.07296
52 Ni 3.76106 0.0170313 -0.00780526
53 Ni 3.57768 1.66975 4.95581
54 Ni 3.89861 4.6215 2.40187
55 Ni 5.69733 1.1509 1.45104
56 Ni 5.72167 2.94467 3.63833
57 Al 3.69054 1.4902 7.44546
58 Al 5.60921 -0.14623 8.84535
59 Al 5.66725 2.96741 6.02006
60 Ni 3.59868 -0.806403 4.97104
61 Ni 3.67377 1.0603 9.99697
62 Ni 3.65769 3.8802 7.39301
63 Ni 5.5507 0.403225 6.36463
64 Ni 5.55454 2.30244 8.5661
65 Al 3.68786 7.08688 2.42129
66 Al 5.58224 5.53418 3.8044
67 Al 5.61124 8.65762 0.9839
68 Ni 3.66468 4.91289 -0.0608885
69 Ni 3.75413 6.76545 4.84471
70 Ni 3.74431 9.5452 2.60716
71 Ni 5.73925 6.20821 1.32216
72 Ni 5.61585 8.0394 3.46244
73 Al 3.82681 6.43054 7.2664
74 Al 5.67814 4.77837 8.76135
75 Al 5.67887 7.95152 6.01913
76 Ni 3.73005 4.25504 4.85002
77 Ni 3.72953 5.98473 9.94518
78 Ni 3.81208 8.92543 7.4675
79 Ni 5.6647 5.31687 6.31904
80 Ni 5.66044 7.3855 8.47054
81 Al 3.79578 12.1173 2.34752
82 Al 5.66716 10.3629 3.96601
83 Al 5.55706 13.6981 1.17247
84 Ni 3.76433 9.99804 0.0665274
85 Ni 3.65028 11.7387 4.9063
86 Ni 3.71216 14.6846 2.45167
87 Ni 5.64396 11.0398 1.45619
88 Ni 5.61007 12.9075 3.67864
89 Al 3.69288 11.3466 7.39849
90 Al 5.62472 9.81495 8.75543
91 Al 5.48127 12.9617 6.03112
92 Ni 3.69564 9.29692 5.08529
93 Ni 3.59606 11.0245 9.82105
94 Ni 3.74188 13.9018 7.38253
95 Ni 5.68392 10.4649 6.35331
96 Ni 5.50964 12.4084 8.53816
97 Al 7.45316 2.14847 2.40698
98 Al 9.55033 0.405502 3.85873
99 Al 9.41383 3.7768 1.22581
100 Ni 7.64013 -0.0608986 -0.0709309
101 Ni 7.62202 1.71665 4.81605
102 Ni 7.58386 4.60712 2.64783
103 Ni 9.47688 1.07446 1.3626
104 Ni 9.54214 2.99419 3.48496
105 Al 7.49058 1.56965 7.45877
106 Al 9.59067 -0.169543 8.823
107 Al 9.45359 2.95584 6.01242
108 Ni 7.48507 -0.804534 4.94922
109 Ni 7.63176 0.95004 9.82256
110 Ni 7.5899 4.00654 7.44269
111 Ni 9.32432 0.423199 6.35055
112 Ni 9.46679 2.29768 8.44891
113 Al 7.59231 6.97872 2.64797
114 Al 9.53372 5.60316 3.87971
115 Al 9.41243 8.76633 1.11508
116 Ni 7.69555 5.10325 0.107701
117 Ni 7.51153 6.55463 5.02054
118 Ni 7.57079 9.53003 2.50724
119 Ni 9.48027 6.20621 1.38917
120 Ni 9.54495 8.09675 3.56455
121 Al 7.52739 6.39585 7.37542
122 Al 9.43941 4.85906 8.76651
123 Al 9.54687 7.86374 6.11615
124 Ni 7.59727 4.11073 4.91908
125 Ni 7.43461 6.06785 9.94392
126 Ni 7.57753 8.93449 7.42718
127 Ni 9.46897 5.42119 6.23904
128 Ni 9.56836 7.44879 8.52037
129 Al 7.48519 12.1124 2.53656
130 Al 9.34401 10.3849 3.98728
131 Al 9.4566 13.6989 1.08682
132 Ni 7.61432 9.96398 -0.0237974
133 Ni 7.54679 11.8122 5.11862
134 Ni 7.51944 14.6477 2.41895
135 Ni 9.55267 11.1159 1.46588
136 Ni 9.45632 13.0136 3.63246
137 Al 7.45928 11.5688 7.48942
138 Al 9.44021 9.79918 8.84524
139 Al 9.43323 13.0198 6.15976
140 Ni 7.56369 9.18434 4.94337
141 Ni 7.53137 10.998 10.0398
142 Ni 7.46465 14.0007 7.4213
143 Ni 9.40136 10.4511 6.41551
144 Ni 9.54206 12.3962 8.62277
ITEM: TIMESTEP
6200
ITEM: NUMBER OF ATOMS
144
ITEM: BOX BOUNDS xy xz yz pp pp pp
-5.7229659352899809e-02 1.1527616783303097e+01 2.9271611129051476e-03
-1.5114479780080954e+00 1.5032719369607765e+01 7.2399964489858290e-02
-4.1852457201212445e-02 9.9445706379412009e+00 -1.4892270316177232e+00
ITEM: ATOMS id element xu yu zu
1 Al -0.085107 2.11117 2.4555
2 Al 2.00011 0.583624 3.89686
3 Al 1.97329 3.74479 0.893766
4 Ni -0.0748242 -0.0418679 0.0155435
5 Ni -0.0152269 1.76307 4.9403
6 Ni -0.0975325 4.54461 2.36877
7 Ni 1.84118 1.20285 1.41576
8 Ni 1.94036 3.13684 3.46811
9 Al -0.042132 1.44814 7.50517
10 Al 1.86145 -0.131233 8.83122
11 Al 1.88129 2.97088 6.0348
12 Ni -0.149126 -0.663382 4.94969
13 Ni -0.0247232 1.02339 9.78883
14 Ni 0.099189 3.85842 7.48044
15 Ni 1.81483 0.386834 6.33385
16 Ni 1.97651 2.27269 8.46562
17 Al -0.0571699 6.93641 2.47502
18 Al 1.91086 5.58924 3.90315
19 Al 1.84907 8.72563 0.940359
20 Ni -0.0206472 4.99411 -0.0213139
21 Ni -0.0456598 6.85612 5.14572
22 Ni 0.0125616 9.594 2.44994
23 Ni 1.88553 6.18046 1.23029
24 Ni 1.83913 8.11042 3.30507
25 Al -0.085603 6.37568 7.4399
26 Al 1.88559 4.85572 8.74651
27 Al 1.89203 7.99932 6.01829
28 Ni -0.0114832 4.30773 5.0267
29 Ni 0.0913312 5.97372 9.83563
30 Ni -0.0937412 8.79293 7.4565
31 Ni 1.88133 5.37236 6.42893
32 Ni 1.8115 7.37267 8.52608
33 Al -0.114499 12.0119 2.53833
34 Al 1.85394 10.6953 3.93196
35 Al 1.81862 13.7765 1.22225
36 Ni -0.132277 10.021 -0.0531549
37 Ni -0.0129071 11.8775 5.14892
38 Ni -0.0830817 14.631 2.51848
39 Ni 1.82623 11.2304 1.34564
40 Ni 1.66721 13.1281 3.61676
41 Al -0.0802658 11.4784 7.58444
42 Al 1.91357 9.79915 8.95468
43 Al 1.89699 13.0042 6.11845
44 Ni 0.0339253 9.28713 4.84662
45 Ni 0.0452281 11.0862 10.1165
46 Ni -0.080823 13.9552 7.37311
47 Ni 1.87056 10.4023 6.40332
48 Ni 1.88288 12.3732 8.74928
49 Al 3.82228 2.12692 2.3978
50 Al 5.71214 0.606889 3.77108
51 Al 5.59862 3.81425 1.05969
52 Ni 3.73639 -0.0696657 0.0181931
53 Ni 4.01574 1.76259 4.91839
54 Ni 3.68736 4.66477 2.41887
55 Ni 5.71226 1.13424 1.30886
56 Ni 5.78164 3.18247 3.52833
57 Al 3.78816 1.3296 7.40178
58 Al 5.75524 -0.292892 8.61987
59 Al 5.83416 3.05117 6.06857
60 Ni 3.91383 -0.72186 4.9535
61 Ni 3.94021 0.962169 9.91018
62 Ni 3.95146 3.81807 7.39277
63 Ni 5.74085 0.36135 6.20092
64 Ni 5.80047 2.28769 8.5581
65 Al 3.80216 7.2255 2.37448
66 Al 5.76204 5.62683 3.6926
67 Al 5.71751 8.85074 1.02696
68 Ni 3.90498 5.04668 0.0175462
69 Ni 3.82419 6.70754 4.92823
70 Ni 3.77368 9.72124 2.38693
71 Ni 5.71368 6.2537 1.3124
72 Ni 5.74029 8.13451 3.58768
73 Al 3.78859 6.49529 7.28391
74 Al 5.77522 4.89119 8.76314
75 Al 5.72581 7.99658 6.09494
76 Ni 3.86714 4.22412 4.94731
77 Ni 3.87924 6.14633 9.84052
78 Ni 3.82464 8.89127 7.49524
79 Ni 5.72082 5.53246 6.30807
80 Ni 5.73185 7.33496 8.59737
81 Al 3.74608 12.2077 2.46809
82 Al 5.66439 10.5195 3.98739
83 Al 5.62457 13.8202 1.13486
84 Ni 3.75252 9.95981 0.0322756
85 Ni 3.81708 11.8491 5.09131
86 Ni 3.76499 14.6009 2.52009
87 Ni 5.72112 11.4034 1.47095
88 Ni 5.64545 13.1982 3.51042
89 Al 3.79637 11.4006 7.51768
90 Al 5.69403 9.76511 8.88265
91 Al 5.69609 12.9212 6.06025
92 Ni 3.8739 9.27929 4.95115
93 Ni 3.86574 11.0928 10.0593
94 Ni 3.75666 13.8947 7.49898
95 Ni 5.70009 10.462 6.47048
96 Ni 5.79022 12.207 8.57718
97 Al 7.59844 2.19263 2.37042
98 Al 9.52771 0.64045 3.75512
99 Al 9.48901 3.73674 1.12917
100 Ni 7.49819 -0.0770446 0.0397829
101 Ni 7.54682 1.78926 4.98833
102 Ni 7.71262 4.71234 2.29261
103 Ni 9.60129 1.18048 1.23259
104 Ni 9.51094 3.1109 3.66739
105 Al 7.6826 1.31414 7.42339
106 Al 9.52736 -0.258878 8.8395
107 Al 9.54575 2.98219 6.06395
108 Ni 7.66669 -0.874531 4.95282
109 Ni 7.53788 0.979192 9.97803
110 Ni 7.5938 3.73285 7.45926
111 Ni 9.64292 0.42153 6.28337
112 Ni 9.46558 2.28623 8.53558
113 Al 7.63978 7.21512 2.34257
114 Al 9.48688 5.61603 3.93955
115 Al 9.58004 8.78217 1.04398
116 Ni 7.4765 4.89829 -0.0897896
117 Ni 7.69112 6.87471 4.88101
118 Ni 7.67017 9.78643 2.53367
119 Ni 9.55231 6.14994 1.45708
120 Ni 9.49972 8.09024 3.57332
121 Al 7.63637 6.32369 7.30033
122 Al 9.52847 4.66181 8.85886
123 Al 9.59201 7.9806 6.18837
124 Ni 7.63348 4.30959 5.0508
125 Ni 7.74098 5.88971 9.87253
126 Ni 7.63738 8.80801 7.50197
127 Ni 9.54929 5.39974 6.48649
128 Ni 9.51081 7.20006 8.58233
129 Al 7.65872 12.2493 2.62667
130 Al 9.52098 10.4101 3.99228
131 Al 9.53269 13.8037 1.02104
132 Ni 7.5561 10.0545 0.143211
133 Ni 7.64392 11.6537 5.0218
134 Ni 7.65711 14.6243 2.48939
135 Ni 9.4575 11.1997 1.48175
136 Ni 9.57312 13.1503 3.63373
137 Al 7.60656 11.3063 7.47755
138 Al 9.53019 9.67713 8.95729
139 Al 9.52992 12.9334 6.1473
140 Ni 7.60928 9.29712 4.9986
141 Ni 7.69743 11.0676 10.0916
142 Ni 7.59125 13.7649 7.42359
143 Ni 9.47133 10.3809 6.45025
144 Ni 9.51779 12.3355 8.67534
ITEM: TIMESTEP
6300
ITEM: NUMBER OF ATOMS
144
ITEM: BOX BOUNDS xy xz yz pp pp pp
-3.1783509856340153e-02 1.1529282895221053e+01 5.2779200391659474e-02
-1.5205027983275465e+00 1.5036092445916541e+01 4.9660186625622514e-02
1.6797451209620284e-02 9.8859207295303655e+00 -1.4949087756283930e+00
ITEM: ATOMS id element xu yu zu
1 Al 0.0132133 2.21966 2.46746
2 Al 1.8714 0.541726 3.78294
3 Al 1.87996 3.77773 1.09378
4 Ni -0.0983277 -0.0690963 0.0819715
5 Ni -0.0189603 1.74072 4.96802
6 Ni 0.0159353 4.77442 2.49023
7 Ni 1.85619 1.15465 1.2778
8 Ni 1.88247 3.131 3.59075
9 Al 0.0480352 1.27819 7.47238
10 Al 1.84649 -0.178797 8.71905
11 Al 1.80346 2.97436 6.11966
12 Ni 0.0826543 -0.894029 5.05046
13 Ni 0.0296469 0.955831 9.98421
14 Ni 0.00198496 3.80827 7.35668
15 Ni 1.95429 0.431188 6.30579
16 Ni 1.87061 2.33409 8.45151
17 Al -0.0528073 7.20861 2.48267
18 Al 1.94119 5.57982 3.89476
19 Al 1.9796 8.7148 1.0403
20 Ni -0.0313839 4.89879 -0.0651758
21 Ni -0.0872229 6.76588 4.81235
22 Ni -0.133268 9.75949 2.41217
23 Ni 1.91947 6.23179 1.54953
24 Ni 1.90939 8.10853 3.69496
25 Al -0.0180371 6.43954 7.36589
26 Al 1.72701 4.87403 8.80234
27 Al 1.8392 7.92853 6.08957
28 Ni -0.0346411 4.22948 4.83494
29 Ni -0.0977475 5.99785 10.0005
30 Ni 0.137658 8.87932 7.37384
31 Ni 1.92333 5.47777 6.34607
32 Ni 1.96697 7.2778 8.45043
33 Al 0.00270607 12.3922 2.54074
34 Al 1.76547 10.5541 3.87182
35 Al 1.96695 13.7511 1.16408
36 Ni -0.033496 9.90504 -0.104664
37 Ni 0.110608 11.7347 4.94983
38 Ni 1.57935e-05 14.7821 2.45854
39 Ni 1.99797 11.2102 1.55311
40 Ni 2.08308 13.1768 3.7056
41 Al 0.128493 11.475 7.47791
42 Al 1.97435 9.79408 8.86366
43 Al 1.96554 12.9446 6.17975
44 Ni -0.0831684 9.15592 4.92901
45 Ni 0.000350548 10.8826 9.94438
46 Ni 0.0903919 13.8477 7.49904
47 Ni 2.04149 10.4728 6.35454
48 Ni 1.97687 12.2889 8.56414
49 Al 3.66084 2.23417 2.36623
50 Al 5.63976 0.668902 4.00543
51 Al 5.76705 3.77017 0.917559
52 Ni 3.80762 -0.00960301 0.0792551
53 Ni 3.6479 1.74352 4.77297
54 Ni 3.90282 4.6833 2.50832
55 Ni 5.7016 1.27998 1.48154
56 Ni 5.61856 3.05348 3.55591
57 Al 3.80833 1.29793 7.37361
58 Al 5.82068 -0.279799 8.74696
59 Al 5.7393 2.90096 6.03221
60 Ni 3.74685 -0.72235 4.98519
61 Ni 3.77594 1.01459 9.80803
62 Ni 3.71204 3.8723 7.30242
63 Ni 5.75873 0.337545 6.40004
64 Ni 5.73193 2.20718 8.41569
65 Al 3.85176 7.23769 2.56471
66 Al 5.68333 5.58083 3.85484
67 Al 5.66963 8.79282 1.09338
68 Ni 3.76132 4.85436 0.126266
69 Ni 3.78126 6.79262 4.9864
70 Ni 3.82964 9.70492 2.5374
71 Ni 5.69098 6.1138 1.43406
72 Ni 5.69316 8.22445 3.66676
73 Al 3.81371 6.27666 7.49225
74 Al 5.76412 4.64316 8.81579
75 Al 5.6595 7.90685 6.10355
76 Ni 3.7162 4.32866 4.95294
77 Ni 3.86736 5.8953 10.0796
78 Ni 3.78743 8.82799 7.3791
79 Ni 5.68476 5.32824 6.37031
80 Ni 5.69144 7.28127 8.58448
81 Al 3.95466 12.3042 2.54238
82 Al 5.73513 10.5946 4.02169
83 Al 5.73926 13.8544 1.2296
84 Ni 3.78621 10.0163 -0.0265779
85 Ni 3.80078 11.7023 5.10351
86 Ni 3.88199 14.8716 2.5272
87 Ni 5.66203 11.1213 1.42585
88 Ni 5.80093 13.1695 3.76982
89 Al 3.90502 11.364 7.51099
90 Al 5.68824 9.75248 8.79505
91 Al 5.73809 12.9016 6.21086
92 Ni 3.80215 9.26355 4.93307
93 Ni 3.82028 10.993 10.0627
94 Ni 3.94303 13.8206 7.46665
95 Ni 5.65989 10.3903 6.30953
96 Ni 5.76063 12.3405 8.64497
97 Al 7.62839 2.23973 2.51429
98 Al 9.64741 0.557642 3.92407
99 Al 9.54523 3.7815 1.17578
100 Ni 7.72524 -0.0487318 0.0167577
101 Ni 7.73396 1.80907 4.96097
102 Ni 7.53292 4.64395 2.4949
103 Ni 9.41205 1.18737 1.47956
104 Ni 9.57565 3.10279 3.46806
105 Al 7.64961 1.44934 7.41534
106 Al 9.59332 -0.333087 8.81203
107 Al 9.56216 3.06943 5.94696
108 Ni 7.58977 -0.585196 4.98403
109 Ni 7.77548 1.02656 9.81164
110 Ni 7.71057 3.84436 7.30057
111 Ni 9.55014 0.370198 6.39556
112 Ni 9.64895 2.21115 8.41361
113 Al 7.63617 7.11515 2.55413
114 Al 9.48742 5.62886 3.63936
115 Al 9.43023 8.7969 1.13138
116 Ni 7.71441 5.00976 0.00177725
117 Ni 7.54665 6.78698 5.02466
118 Ni 7.6028 9.65975 2.57251
119 Ni 9.50935 6.20182 1.28591
120 Ni 9.53587 8.17523 3.61495
121 Al 7.72192 6.32523 7.35664
122 Al 9.48291 4.73048 8.6467
123 Al 9.58604 8.0044 6.1012
124 Ni 7.62981 4.25224 4.9496
125 Ni 7.54605 6.05379 9.96014
126 Ni 7.64206 8.79953 7.44173
127 Ni 9.57747 5.48108 6.20796
128 Ni 9.49913 7.30691 8.53961
129 Al 7.72106 12.1698 2.4789
130 Al 9.49503 10.5828 3.8455
131 Al 9.50088 13.83 1.06644
132 Ni 7.66684 9.98669 -0.0153168
133 Ni 7.68009 11.9107 5.00943
134 Ni 7.60864 14.7965 2.49372
135 Ni 9.61787 11.2292 1.34498
136 Ni 9.54609 13.156 3.66109
137 Al 7.68031 11.2064 7.31616
138 Al 9.57266 9.72458 8.69373
139 Al 9.6745 12.9806 6.14843
140 Ni 7.67346 9.40482 5.07471
141 Ni 7.6772 10.9657 9.85628
142 Ni 7.76864 13.7853 7.44255
143 Ni 9.7407 10.4855 6.25478
144 Ni 9.6082 12.2467 8.50832
ITEM: TIMESTEP
6400
ITEM: NUMBER OF ATOMS
144
ITEM: BOX BOUNDS xy xz yz pp pp pp
-1.2675584576872639e-01 1.1432146623643291e+01 -1.3230302012918580e-02
-1.5711653185823904e+00 1.5016149423739114e+01 -7.6438918459936334e-02
-3.3796513141204798e-02 9.9365146938811879e+00 -1.5655143180606412e+00
ITEM: ATOMS id element xu yu zu
1 Al -0.0689913 2.12275 2.47181
2 Al 1.92814 0.471391 3.90702
3 Al 1.84092 3.68401 1.08041
4 Ni 0.0292508 0.0208498 -0.0871082
5 Ni -0.0783226 1.77329 4.86471
6 Ni -0.173264 4.73666 2.47619
7 Ni 1.83478 1.24445 1.50222
8 Ni 1.79336 3.074 3.42512
9 Al -0.142315 1.44516 7.50267
10 Al 1.76869 -0.344157 8.89154
11 Al 1.81687 2.89551 6.11562
12 Ni -0.169166 -0.754516 4.91357
13 Ni -0.0737786 0.909502 9.81883
14 Ni -0.164388 3.85678 7.4624
15 Ni 1.74358 0.339797 6.31445
16 Ni 1.77566 2.17429 8.62386
17 Al -0.12031 7.15645 2.52793
18 Al 1.74506 5.5481 3.81122
19 Al 1.9293 8.75666 1.13555
20 Ni -0.0922306 5.14503 -0.00294509
21 Ni -0.0729162 6.73204 5.06746
22 Ni 0.0207583 9.67202 2.67451
23 Ni 1.73495 6.27265 1.22221
24 Ni 1.83247 8.11222 3.60808
25 Al -0.140222 6.37757 7.41036
26 Al 1.66327 4.71728 8.66734
27 Al 1.73019 7.86244 6.15614
28 Ni -0.133284 4.16529 4.987
29 Ni -0.0916454 5.98425 9.86056
30 Ni -0.235375 8.80109 7.53747
31 Ni 1.79231 5.32415 6.28867
32 Ni 1.75647 7.23298 8.72765
33 Al -0.137484 12.1277 2.31159
34 Al 1.90868 10.5848 3.89917
35 Al 1.91042 13.7654 1.06484
36 Ni -0.0817866 10.1319 0.19706
37 Ni -0.129475 11.7824 4.94702
38 Ni -0.132328 14.5821 2.54693
39 Ni 1.88818 11.3061 1.25457
40 Ni 1.74135 13.0195 3.55126
41 Al -0.108011 11.3314 7.46463
42 Al 1.82195 9.68091 8.67082
43 Al 1.78057 12.8923 5.98579
44 Ni -0.0476108 9.35692 5.05312
45 Ni -0.0248655 11.0231 9.89352
46 Ni -0.0584952 13.8207 7.4256
47 Ni 1.76641 10.4084 6.30189
48 Ni 1.80187 12.1787 8.56862
49 Al 3.76443 2.00505 2.57683
50 Al 5.60668 0.500802 3.91689
51 Al 5.62007 3.77457 1.05436
52 Ni 3.8145 -0.0740264 0.0380742
53 Ni 3.76594 1.6395 5.05064
54 Ni 3.6286 4.66614 2.4586
55 Ni 5.68585 1.05334 1.39327
56 Ni 5.71364 3.1761 3.5157
57 Al 3.70399 1.24225 7.59874
58 Al 5.57507 -0.344421 8.77412
59 Al 5.67797 2.91693 6.13012
60 Ni 3.79261 -0.763601 5.0355
61 Ni 3.7578 0.89837 9.93558
62 Ni 3.73567 3.7597 7.49915
63 Ni 5.55008 0.46732 6.36652
64 Ni 5.57345 2.26523 8.58999
65 Al 3.70015 7.11217 2.48328
66 Al 5.64287 5.58081 3.85847
67 Al 5.63085 8.72047 1.07212
68 Ni 3.72056 4.9765 -0.0730354
69 Ni 3.70007 6.72039 5.07695
70 Ni 3.83031 9.56895 2.54209
71 Ni 5.55537 6.20641 1.38564
72 Ni 5.63566 7.94835 3.59141
73 Al 3.61929 6.24041 7.43215
74 Al 5.57639 4.74427 8.91741
75 Al 5.6532 7.88611 6.11815
76 Ni 3.76093 4.22632 4.96402
77 Ni 3.59764 5.97944 9.8847
78 Ni 3.78577 8.75211 7.5626
79 Ni 5.60457 5.34817 6.40938
80 Ni 5.62917 7.20458 8.60024
81 Al 3.76422 12.1081 2.30678
82 Al 5.6394 10.4916 3.9161
83 Al 5.64396 13.6936 1.02801
84 Ni 3.79318 9.9805 0.0404824
85 Ni 3.88781 11.8228 4.88719
86 Ni 3.74397 14.4932 2.51512
87 Ni 5.68422 11.203 1.28942
88 Ni 5.66626 13.0586 3.43644
89 Al 3.69807 11.3514 7.28758
90 Al 5.59392 9.64264 8.82399
91 Al 5.64576 12.9879 6.13358
92 Ni 3.79907 9.24864 5.04556
93 Ni 3.77554 10.828 9.83673
94 Ni 3.7221 13.9057 7.4809
95 Ni 5.6942 10.4277 6.34023
96 Ni 5.62463 12.2926 8.46783
97 Al 7.67514 2.05902 2.43821
98 Al 9.46297 0.570213 3.90754
99 Al 9.48805 3.75909 1.05532
100 Ni 7.59215 0.0255434 0.0545516
101 Ni 7.46059 1.74778 4.93466
102 Ni 7.57795 4.63292 2.38604
103 Ni 9.60677 1.14617 1.34219
104 Ni 9.41214 3.03385 3.67174
105 Al 7.49203 1.29415 7.60099
106 Al 9.41205 -0.311992 8.8298
107 Al 9.2708 2.91178 6.14685
108 Ni 7.60956 -0.839055 5.09404
109 Ni 7.46722 0.874438 10.0463
110 Ni 7.44681 3.77673 7.43041
111 Ni 9.51236 0.360425 6.30417
112 Ni 9.31423 2.30481 8.56349
113 Al 7.52358 7.0814 2.51457
114 Al 9.48245 5.465 3.77819
115 Al 9.47543 8.80786 1.02625
116 Ni 7.45956 4.94442 -0.0842222
117 Ni 7.60051 6.75641 5.0215
118 Ni 7.57436 9.66351 2.36029
119 Ni 9.46559 6.26948 1.45669
120 Ni 9.38958 8.10167 3.51146
121 Al 7.59214 6.30327 7.44596
122 Al 9.33915 4.71129 8.88289
123 Al 9.53839 8.02703 5.95519
124 Ni 7.52369 4.23319 4.88198
125 Ni 7.55863 5.89914 9.95976
126 Ni 7.59095 8.83946 7.45893
127 Ni 9.34311 5.30603 6.42763
128 Ni 9.44358 7.27326 8.56497
129 Al 7.63882 12.1222 2.4241
130 Al 9.44941 10.5203 3.89373
131 Al 9.48741 13.8354 1.05527
132 Ni 7.54613 9.97613 -0.0526954
133 Ni 7.50907 11.693 4.87318
134 Ni 7.61841 14.6258 2.51027
135 Ni 9.44888 11.2125 1.38974
136 Ni 9.49843 13.0589 3.46142
137 Al 7.6209 11.3532 7.41325
138 Al 9.39153 9.73837 8.98171
139 Al 9.52752 12.9398 6.12283
140 Ni 7.48372 9.23762 4.80863
141 Ni 7.56742 11.0168 9.91431
142 Ni 7.50381 13.9022 7.57732
143 Ni 9.31467 10.4306 6.37699
144 Ni 9.50147 12.3141 8.55125
ITEM: TIMESTEP
6500
ITEM: NUMBER OF ATOMS
144
ITEM: BOX BOUNDS xy xz yz pp pp pp
-1.0869747194412367e-01 1.1453457220278878e+01 -1.3042997402007007e-03
-1.6384038552983824e+00 1.5055276404247447e+01 -4.8995950272477939e-02
6.4694708970973736e-03 9.8962487098428848e+00 -1.5936258742683111e+00
ITEM: ATOMS id element xu yu zu
1 Al 0.00783687 1.97035 2.59253
2 Al 1.81797 0.422976 3.9696
3 Al 1.85701 3.61327 1.19118
4 Ni -0.147791 0.048811 0.0173772
5 Ni -0.153395 1.56431 5.06499
6 Ni -0.053091 4.45323 2.52753
7 Ni 1.85828 1.11672 1.31256
8 Ni 1.8107 2.98681 3.8011
9 Al -0.173529 1.26337 7.58752
10 Al 1.65957 -0.293771 8.81607
11 Al 1.76458 2.98905 6.19066
12 Ni -0.0669392 -0.831738 4.96023
13 Ni -0.196341 0.935365 10.1027
14 Ni -0.0834801 3.70654 7.45926
15 Ni 1.8904 0.345888 6.3989
16 Ni 1.7731 2.2931 8.48389
17 Al -0.0558318 6.95992 2.53695
18 Al 1.79244 5.51395 3.87997
19 Al 1.87184 8.60836 1.0572
20 Ni -0.0496042 5.01391 0.0580304
21 Ni -0.018037 6.71599 4.96586
22 Ni -0.12963 9.60597 2.43145
23 Ni 1.86555 6.07263 1.50417
24 Ni 1.78335 8.02835 3.62217
25 Al -0.0748568 6.25721 7.5415
26 Al 1.77155 4.68308 8.88458
27 Al 1.79165 7.86392 6.02587
28 Ni -0.0719955 4.36309 5.0009
29 Ni -0.131729 5.89166 10.007
30 Ni -0.0329131 8.83476 7.46315
31 Ni 1.81634 5.45309 6.4619
32 Ni 1.78595 7.29884 8.47818
33 Al -0.126284 12.1425 2.47837
34 Al 1.74847 10.4234 3.91727
35 Al 1.85255 13.6264 0.979685
36 Ni -0.0729015 10.0159 -0.049276
37 Ni -0.0641123 11.6762 4.88562
38 Ni -0.0119927 14.6489 2.44325
39 Ni 1.79339 11.1199 1.44179
40 Ni 1.93088 13.1651 3.42687
41 Al -0.102889 11.4191 7.36974
42 Al 1.81641 9.78368 8.80905
43 Al 1.77983 12.9716 5.8959
44 Ni -0.118488 9.18718 4.96154
45 Ni -0.227565 11.0413 9.82219
46 Ni -0.229217 13.8945 7.47626
47 Ni 1.81783 10.4068 6.37979
48 Ni 1.80304 12.3695 8.33322
49 Al 3.66982 1.96801 2.61655
50 Al 5.5397 0.492498 3.88035
51 Al 5.72754 3.65837 1.18203
52 Ni 3.70715 -0.0116988 -0.0649832
53 Ni 3.73815 1.71825 4.94488
54 Ni 3.80734 4.52664 2.50722
55 Ni 5.5574 1.17099 1.44288
56 Ni 5.61881 2.82861 3.6803
57 Al 3.80949 1.2386 7.5703
58 Al 5.59313 -0.349082 8.80159
59 Al 5.71077 3.00834 6.20761
60 Ni 3.7233 -0.799636 4.86235
61 Ni 3.6168 0.898874 10.0575
62 Ni 3.69963 3.89397 7.41114
63 Ni 5.64873 0.244791 6.32319
64 Ni 5.62963 2.29973 8.61144
65 Al 3.77134 7.06821 2.43708
66 Al 5.71584 5.36434 3.81467
67 Al 5.6754 8.74558 1.14761
68 Ni 3.80053 5.05241 0.0203889
69 Ni 3.76875 6.69504 4.82449
70 Ni 3.58344 9.6536 2.4206
71 Ni 5.76446 6.14644 1.38059
72 Ni 5.65918 8.08367 3.58372
73 Al 3.71393 6.34184 7.42567
74 Al 5.56178 4.72785 8.80461
75 Al 5.53127 7.9338 6.02471
76 Ni 3.7204 4.20297 4.91769
77 Ni 3.75775 5.96594 9.94153
78 Ni 3.70628 8.96745 7.48839
79 Ni 5.63075 5.53189 6.27024
80 Ni 5.59991 7.41178 8.50178
81 Al 3.76191 12.1527 2.25456
82 Al 5.65417 10.5342 3.84197
83 Al 5.58473 13.7683 1.14245
84 Ni 3.74573 10.0044 0.0112873
85 Ni 3.63867 11.6683 4.86013
86 Ni 3.71955 14.7341 2.38948
87 Ni 5.72738 11.1862 1.36355
88 Ni 5.58737 13.0123 3.57116
89 Al 3.74898 11.365 7.23728
90 Al 5.54531 9.72638 8.90178
91 Al 5.58613 12.8929 6.07703
92 Ni 3.69907 9.30508 4.90949
93 Ni 3.68406 11.075 9.77347
94 Ni 3.79373 13.8123 7.33543
95 Ni 5.78307 10.4099 6.24322
96 Ni 5.60117 12.3882 8.56383
97 Al 7.5472 1.99459 2.57212
98 Al 9.54361 0.409391 3.85863
99 Al 9.42877 3.63112 1.1262
100 Ni 7.57474 -0.11262 -0.0498307
101 Ni 7.63852 1.61675 4.94272
102 Ni 7.63037 4.57784 2.64564
103 Ni 9.35197 1.12704 1.37815
104 Ni 9.53824 3.03885 3.53748
105 Al 7.49634 1.44843 7.55455
106 Al 9.33837 -0.334762 8.79313
107 Al 9.45924 2.92574 6.11299
108 Ni 7.55571 -0.884413 4.75204
109 Ni 7.51087 0.962182 9.81061
110 Ni 7.63886 3.90268 7.58118
111 Ni 9.36928 0.337749 6.36805
112 Ni 9.54778 2.26827 8.5517
113 Al 7.60923 6.97907 2.55601
114 Al 9.53465 5.36883 3.82581
115 Al 9.41652 8.71132 1.12409
116 Ni 7.66544 5.07738 0.130413
117 Ni 7.44249 6.70158 4.84967
118 Ni 7.62756 9.55089 2.52067
119 Ni 9.61134 6.05464 1.4299
120 Ni 9.61349 7.97283 3.71919
121 Al 7.49439 6.35471 7.53563
122 Al 9.52366 4.73327 8.86588
123 Al 9.63134 7.82755 6.13195
124 Ni 7.61088 4.0603 5.1194
125 Ni 7.53402 5.91941 9.93742
126 Ni 7.55671 8.9604 7.39999
127 Ni 9.56368 5.42564 6.44301
128 Ni 9.54127 7.24822 8.59311
129 Al 7.57933 12.1243 2.57699
130 Al 9.51071 10.4499 3.83215
131 Al 9.50327 13.8022 1.18134
132 Ni 7.68486 10.1012 0.0303047
133 Ni 7.67571 11.6334 4.97304
134 Ni 7.55394 14.5694 2.37179
135 Ni 9.50765 11.1438 1.41045
136 Ni 9.56189 13.049 3.63793
137 Al 7.62194 11.3949 7.38896
138 Al 9.40302 9.78626 8.79526
139 Al 9.5829 13.0534 6.07539
140 Ni 7.66206 9.13352 4.99382
141 Ni 7.52378 10.9062 10.0122
142 Ni 7.50567 13.9557 7.30775
143 Ni 9.49092 10.3535 6.27081
144 Ni 9.48914 12.4021 8.44749
ITEM: TIMESTEP
6600
ITEM: NUMBER OF ATOMS
144
ITEM: BOX BOUNDS xy xz yz pp pp pp
-4.8684438537893726e-02 1.1551342515962050e+01 3.8193348090761151e-02
-1.5778440957129471e+00 1.4992885645180760e+01 6.9404730985963239e-02
1.5315814024748242e-02 9.8874023667152500e+00 -1.5954568737495687e+00
ITEM: ATOMS id element xu yu zu
1 Al -0.0749072 2.07324 2.54373
2 Al 1.79007 0.420277 3.82971
3 Al 1.86324 3.65538 1.24549
4 Ni -0.120112 -0.0228675 -0.00977064
5 Ni 0.0648546 1.6491 4.96538
6 Ni -0.0223747 4.62022 2.65245
7 Ni 1.84226 1.20974 1.47432
8 Ni 1.87326 2.94659 3.47201
9 Al -0.040855 1.54079 7.56537
10 Al 1.91963 -0.286629 8.83964
11 Al 1.90202 3.00766 6.13387
12 Ni -0.0577063 -0.789287 4.94484
13 Ni 0.0685288 0.882013 9.79604
14 Ni 0.0153575 4.00435 7.57593
15 Ni 1.8402 0.421361 6.29576
16 Ni 1.91467 2.31653 8.69315
17 Al -0.00803211 6.99618 2.5678
18 Al 1.83147 5.47906 3.90731
19 Al 2.03039 8.74372 1.11025
20 Ni -0.0710918 4.92044 0.0604265
21 Ni -0.0209622 6.67008 5.05163
22 Ni -0.0301511 9.48711 2.41617
23 Ni 1.89867 6.22577 1.41156
24 Ni 2.01542 7.96187 3.55871
25 Al 0.00183803 6.38643 7.51905
26 Al 1.95414 4.74583 8.86706
27 Al 1.85232 7.89718 5.94296
28 Ni -0.0152983 4.09451 5
29 Ni 0.0585732 5.9769 9.91952
30 Ni -0.028239 8.83897 7.25721
31 Ni 1.97567 5.35083 6.30758
32 Ni 2.03426 7.34657 8.57147
33 Al -0.0497856 11.9049 2.53094
34 Al 1.94439 10.3335 3.80926
35 Al 1.89725 13.6104 1.18203
36 Ni -0.0732727 9.97907 -0.105117
37 Ni -0.0718988 11.7556 4.99406
38 Ni -0.16408 14.4862 2.42378
39 Ni 1.8723 11.2098 1.26166
40 Ni 1.75586 12.9108 3.68199
41 Al 0.0279153 11.4401 7.41986
42 Al 1.9188 9.6935 8.62675
43 Al 1.98174 12.9571 6.03614
44 Ni 0.0171651 9.13182 4.82971
45 Ni 0.0472016 10.8132 9.9289
46 Ni 0.134502 13.8338 7.35607
47 Ni 1.95021 10.4767 6.19356
48 Ni 1.87489 12.2374 8.60981
49 Al 3.8556 1.97679 2.50987
50 Al 5.59464 0.588335 3.75089
51 Al 5.71892 3.70835 1.21741
52 Ni 3.83642 0.0707571 -0.0414733
53 Ni 3.79353 1.66182 4.9887
54 Ni 3.74169 4.62453 2.59273
55 Ni 5.73566 1.22534 1.32474
56 Ni 5.69557 3.14601 3.60014
57 Al 3.82375 1.4846 7.45816
58 Al 5.73558 -0.249225 8.6995
59 Al 5.8559 2.92416 6.03858
60 Ni 3.78796 -0.785341 4.90919
61 Ni 3.96764 1.00105 9.82808
62 Ni 3.89003 3.90779 7.61266
63 Ni 5.71811 0.501641 6.29144
64 Ni 5.86697 2.29278 8.55296
65 Al 3.83052 7.00792 2.53602
66 Al 5.79653 5.57447 3.98919
67 Al 5.68225 8.68296 1.11572
68 Ni 3.78348 5.05483 0.182962
69 Ni 3.88403 6.72433 5.11751
70 Ni 3.96377 9.48259 2.48797
71 Ni 5.66441 6.19851 1.42542
72 Ni 5.80165 7.9493 3.57029
73 Al 3.934 6.31755 7.42112
74 Al 5.76555 4.62201 8.9301
75 Al 5.83756 7.87631 6.05732
76 Ni 3.84769 4.17868 5.15079
77 Ni 3.89328 5.90198 9.88889
78 Ni 3.83557 8.84331 7.36156
79 Ni 5.82508 5.24833 6.46706
80 Ni 5.79723 7.29769 8.57971
81 Al 3.72036 12.0451 2.49111
82 Al 5.77167 10.5429 3.89015
83 Al 5.7134 13.7162 0.9889
84 Ni 3.79786 10.1402 0.0147793
85 Ni 3.82167 11.6671 4.98189
86 Ni 3.78695 14.4865 2.43471
87 Ni 5.6648 11.1577 1.39533
88 Ni 5.75213 12.9805 3.36133
89 Al 3.72934 11.3973 7.45362
90 Al 5.68632 9.6945 8.89962
91 Al 5.67423 13.021 6.03903
92 Ni 3.8646 9.14322 4.91908
93 Ni 3.79327 10.9441 9.98627
94 Ni 3.86515 14.0025 7.38177
95 Ni 5.55046 10.4833 6.37564
96 Ni 5.72151 12.3426 8.34965
97 Al 7.5999 2.09293 2.60617
98 Al 9.51445 0.392909 3.87799
99 Al 9.58244 3.70918 1.23739
100 Ni 7.64486 0.17615 -0.0873438
101 Ni 7.56204 1.71941 4.95818
102 Ni 7.61807 4.6111 2.53472
103 Ni 9.56038 1.16567 1.44119
104 Ni 9.4813 2.87962 3.78494
105 Al 7.70171 1.34766 7.54018
106 Al 9.609 -0.336127 8.7077
107 Al 9.48031 2.89616 6.20464
108 Ni 7.61254 -0.71122 4.93104
109 Ni 7.76564 0.971652 10.0346
110 Ni 7.64966 3.84787 7.40702
111 Ni 9.72145 0.388641 6.30091
112 Ni 9.51394 2.22054 8.65117
113 Al 7.56171 7.049 2.47221
114 Al 9.6151 5.2717 3.81963
115 Al 9.43412 8.72546 1.10667
116 Ni 7.59309 4.98581 0.133162
117 Ni 7.75 6.65299 5.04468
118 Ni 7.631 9.65696 2.46999
119 Ni 9.48627 6.17681 1.46469
120 Ni 9.46175 7.99501 3.50409
121 Al 7.56187 6.23613 7.58832
122 Al 9.60114 4.72076 8.87657
123 Al 9.55744 8.01062 6.00281
124 Ni 7.60922 4.21944 4.94372
125 Ni 7.75141 5.94461 9.85421
126 Ni 7.65673 8.82675 7.51201
127 Ni 9.60686 5.37151 6.3906
128 Ni 9.54543 7.31872 8.50159
129 Al 7.55101 12.0974 2.3363
130 Al 9.52296 10.4026 3.90876
131 Al 9.54857 13.6491 1.14781
132 Ni 7.53549 10.0324 0.0593506
133 Ni 7.60246 11.7039 4.88944
134 Ni 7.66475 14.6144 2.39773
135 Ni 9.52252 11.1293 1.29503
136 Ni 9.50311 12.9641 3.4718
137 Al 7.56883 11.2238 7.24194
138 Al 9.57816 9.72816 8.74574
139 Al 9.63034 13.011 6.06406
140 Ni 7.55301 9.28301 4.9857
141 Ni 7.69301 10.9642 9.80904
142 Ni 7.74813 13.7495 7.4402
143 Ni 9.62525 10.4864 6.35711
144 Ni 9.56472 12.167 8.50184
ITEM: TIMESTEP
6700
ITEM: NUMBER OF ATOMS
144
ITEM: BOX BOUNDS xy xz yz pp pp pp
-1.1260816695174544e-01 1.1488152135179281e+01 -4.7227188427886840e-02
-1.6374331625487868e+00 1.5047666718444097e+01 2.7711158307993890e-02
-2.1852607223421749e-02 9.9245707879634111e+00 -1.6002648673220741e+00
ITEM: ATOMS id element xu yu zu
1 Al -0.036165 2.06543 2.49329
2 Al 1.87735 0.44432 3.83127
3 Al 1.80168 3.69908 1.09047
4 Ni -0.0370113 0.000501413 -0.00627136
5 Ni -0.0866922 1.75614 4.89429
6 Ni -0.0881105 4.60106 2.49341
7 Ni 1.79489 1.12748 1.2315
8 Ni 1.86532 3.03492 3.69706
9 Al -0.0618238 1.30158 7.50948
10 Al 1.77518 -0.255319 8.75002
11 Al 1.86981 2.99108 6.13932
12 Ni -0.0755423 -0.94502 4.96692
13 Ni -0.0921843 0.951401 10.0817
14 Ni -0.0357212 3.72918 7.48724
15 Ni 1.93714 0.37095 6.23741
16 Ni 1.90632 2.2518 8.43994
17 Al -0.115354 7.04348 2.54809
18 Al 1.76292 5.46539 3.9384
19 Al 1.78149 8.66076 1.07157
20 Ni -0.0377916 5.05392 0.0345236
21 Ni -0.0682203 6.75447 4.91994
22 Ni -0.136784 9.77378 2.44761
23 Ni 1.82703 6.11123 1.51838
24 Ni 1.67822 8.06679 3.68048
25 Al -0.203155 6.34573 7.45282
26 Al 1.88796 4.6419 8.97724
27 Al 1.77366 7.92664 6.04496
28 Ni -0.0339155 4.22902 5.00119
29 Ni -0.115647 5.86072 9.94201
30 Ni -0.0322007 8.91548 7.52548
31 Ni 1.74218 5.42239 6.54044
32 Ni 1.69737 7.19282 8.61711
33 Al -0.0441002 12.2826 2.43427
34 Al 1.80441 10.4995 3.89571
35 Al 1.93272 13.6269 1.06553
36 Ni -0.0585226 10.0585 0.0169581
37 Ni -0.0625618 11.6859 4.86563
38 Ni -0.116241 14.7375 2.57418
39 Ni 1.81119 11.133 1.44795
40 Ni 1.84466 13.0556 3.4828
41 Al -0.136614 11.4062 7.36712
42 Al 1.8992 9.65421 8.95093
43 Al 1.74796 13.0011 6.06652
44 Ni -0.137929 9.22844 4.98949
45 Ni -0.0966809 11.0045 9.87155
46 Ni -0.212327 13.9461 7.51889
47 Ni 1.78101 10.313 6.42364
48 Ni 1.79407 12.3912 8.55234
49 Al 3.74985 2.04401 2.37939
50 Al 5.73278 0.605407 3.87347
51 Al 5.69796 3.64062 1.08774
52 Ni 3.74953 -0.0165201 0.0243107
53 Ni 3.8096 1.6067 4.84381
54 Ni 3.76833 4.54377 2.42769
55 Ni 5.76519 1.06394 1.46728
56 Ni 5.7138 2.86494 3.56394
57 Al 3.75927 1.2792 7.38846
58 Al 5.6935 -0.402826 8.88478
59 Al 5.78091 2.98927 5.93626
60 Ni 3.79467 -0.879728 5.0477
61 Ni 3.68513 0.818984 9.86939
62 Ni 3.73227 3.71087 7.48521
63 Ni 5.67195 0.213217 6.42055
64 Ni 5.60181 2.14695 8.53351
65 Al 3.67521 7.16764 2.53575
66 Al 5.74255 5.41296 3.87091
67 Al 5.54776 8.76816 1.16279
68 Ni 3.76539 4.97072 -0.0262385
69 Ni 3.6758 6.6864 4.93383
70 Ni 3.55333 9.69047 2.40948
71 Ni 5.67348 6.11774 1.49195
72 Ni 5.62126 8.09129 3.6692
73 Al 3.75136 6.28102 7.47847
74 Al 5.6734 4.61459 8.83193
75 Al 5.60177 7.94561 6.04662
76 Ni 3.75711 4.21719 5.06652
77 Ni 3.7753 5.86282 10.1042
78 Ni 3.73256 8.83615 7.51725
79 Ni 5.58135 5.48052 6.31746
80 Ni 5.74914 7.19823 8.53551
81 Al 3.76634 12.1736 2.3976
82 Al 5.59662 10.5908 3.77239
83 Al 5.60959 13.7007 1.13682
84 Ni 3.72907 9.93793 -0.0876236
85 Ni 3.62352 11.8296 4.93599
86 Ni 3.83405 14.6692 2.49494
87 Ni 5.59922 11.2348 1.19544
88 Ni 5.62799 13.1034 3.61858
89 Al 3.70483 11.2526 7.34419
90 Al 5.68108 9.58595 8.79214
91 Al 5.59182 12.8814 6.16581
92 Ni 3.64876 9.21333 4.97087
93 Ni 3.83933 10.8541 9.91667
94 Ni 3.75337 13.7483 7.5263
95 Ni 5.77547 10.3701 6.23136
96 Ni 5.75856 12.2335 8.62034
97 Al 7.67164 2.07604 2.50423
98 Al 9.4997 0.475924 3.87564
99 Al 9.49589 3.76956 1.00119
100 Ni 7.55241 -0.116391 0.0271599
101 Ni 7.71526 1.76885 5.04213
102 Ni 7.57922 4.54709 2.45199
103 Ni 9.57533 1.12809 1.37909
104 Ni 9.64829 3.23548 3.45658
105 Al 7.58316 1.37265 7.49844
106 Al 9.39721 -0.293649 8.8251
107 Al 9.59658 2.87726 6.05348
108 Ni 7.71485 -0.842332 5.0365
109 Ni 7.55904 0.867296 9.88214
110 Ni 7.62761 3.68716 7.47684
111 Ni 9.56754 0.331339 6.3756
112 Ni 9.62465 2.25764 8.50968
113 Al 7.62106 7.12734 2.49097
114 Al 9.53315 5.51718 3.8828
115 Al 9.48499 8.71064 1.11715
116 Ni 7.60045 4.97023 -0.0207966
117 Ni 7.4186 6.81253 4.90618
118 Ni 7.5709 9.53232 2.49341
119 Ni 9.56942 6.20719 1.40215
120 Ni 9.51678 8.14187 3.64312
121 Al 7.51241 6.22217 7.41743
122 Al 9.51967 4.76629 8.82835
123 Al 9.54279 7.94895 6.04886
124 Ni 7.62033 4.25871 5.11268
125 Ni 7.58164 6.00276 10.033
126 Ni 7.61287 8.82086 7.45621
127 Ni 9.53699 5.40511 6.38242
128 Ni 9.48068 7.20359 8.56534
129 Al 7.46588 12.1076 2.33544
130 Al 9.50489 10.6056 3.72089
131 Al 9.51578 13.7539 1.08825
132 Ni 7.60535 9.95756 -0.0654919
133 Ni 7.55894 11.7473 4.84823
134 Ni 7.61051 14.5618 2.60052
135 Ni 9.53472 11.2086 1.32521
136 Ni 9.48259 13.1441 3.54318
137 Al 7.55914 11.2794 7.28326
138 Al 9.49534 9.71523 8.82547
139 Al 9.61983 12.955 6.04021
140 Ni 7.6073 9.31059 4.88002
141 Ni 7.53586 10.8885 9.77538
142 Ni 7.49294 13.807 7.41589
143 Ni 9.49707 10.3267 6.25092
144 Ni 9.5399 12.3987 8.3758
ITEM: TIMESTEP
6800
ITEM: NUMBER OF ATOMS
144
ITEM: BOX BOUNDS xy xz yz pp pp pp
-1.3562214714079149e-01 1.1413901000797754e+01 -6.3916873515887124e-02
-1.5929584760599222e+00 1.5034041190077776e+01 -5.2864271174576323e-02
1.5594910996926004e-02 9.8871232697430642e+00 -1.5694157091995364e+00
ITEM: ATOMS id element xu yu zu
1 Al -0.109436 2.20267 2.38925
2 Al 1.84411 0.733859 3.90354
3 Al 1.80494 3.77838 1.05178
4 Ni -0.0591937 -0.039486 -0.0262819
5 Ni -0.117053 1.7938 4.98903
6 Ni -0.063841 4.73367 2.39012
7 Ni 2.0022 1.22973 1.51204
8 Ni 1.84553 3.15392 3.43012
9 Al -0.196255 1.35705 7.45099
10 Al 1.92544 -0.52369 8.93822
11 Al 1.83039 2.92626 6.02049
12 Ni -0.0761906 -0.689007 4.93512
13 Ni -0.0474105 0.862245 9.70416
14 Ni -0.149673 3.80203 7.29031
15 Ni 1.76833 0.26694 6.51459
16 Ni 1.77119 2.14591 8.49235
17 Al -0.0628416 7.101 2.54263
18 Al 1.76657 5.60399 3.80056
19 Al 1.79564 8.88094 1.15712
20 Ni -0.130359 4.99036 -0.0111299
21 Ni -0.113883 6.72812 5.05868
22 Ni -0.065406 9.62673 2.65671
23 Ni 1.79359 6.23344 1.26716
24 Ni 1.91334 8.08114 3.65792
25 Al -0.0509234 6.27063 7.42244
26 Al 1.76349 4.59814 8.72389
27 Al 1.7396 8.04154 5.98018
28 Ni -0.129924 4.26544 4.88255
29 Ni -0.159057 5.91801 9.93514
30 Ni -0.20859 8.66481 7.49283
31 Ni 1.91525 5.2783 6.16809
32 Ni 1.7945 7.33226 8.57968
33 Al 0.0131447 12.2271 2.48922
34 Al 1.92921 10.7103 3.78662
35 Al 1.84751 13.7676 1.06143
36 Ni -0.100133 10.0327 0.136751
37 Ni -0.175261 11.8867 4.97312
38 Ni -0.066013 14.6897 2.42719
39 Ni 1.8322 11.3298 1.32584
40 Ni 1.80997 13.2044 3.61994
41 Al -0.170117 11.2956 7.42584
42 Al 1.79669 9.66613 8.82264
43 Al 1.78247 12.9463 5.97945
44 Ni -0.0685751 9.24586 5.10968
45 Ni -0.15991 10.9511 9.87139
46 Ni -0.0950458 13.6913 7.3464
47 Ni 1.79629 10.4977 6.2869
48 Ni 1.78924 12.152 8.43448
49 Al 3.79848 2.25204 2.57537
50 Al 5.56215 0.581642 3.77241
51 Al 5.66837 3.78622 1.11345
52 Ni 3.83592 -0.151979 0.0878434
53 Ni 3.77342 1.76447 5.0443
54 Ni 3.72593 4.66541 2.48794
55 Ni 5.52238 1.2147 1.41215
56 Ni 5.68027 3.18766 3.66032
57 Al 3.69603 1.17918 7.52746
58 Al 5.67573 -0.385522 8.86586
59 Al 5.68162 2.89296 5.97219
60 Ni 3.77599 -0.807265 4.98315
61 Ni 3.78653 0.827249 9.94957
62 Ni 3.67446 3.87445 7.3839
63 Ni 5.72784 0.415952 6.39888
64 Ni 5.67228 2.1803 8.50496
65 Al 3.69061 7.14219 2.38836
66 Al 5.64425 5.69633 3.93709
67 Al 5.60418 8.72307 1.11979
68 Ni 3.69231 4.96062 -0.0349814
69 Ni 3.71006 6.78661 5.15107
70 Ni 3.86972 9.60507 2.56682
71 Ni 5.61787 6.14968 1.29583
72 Ni 5.57746 8.07386 3.64386
73 Al 3.63794 6.28722 7.37679
74 Al 5.5385 4.66512 8.69413
75 Al 5.60882 7.95438 6.02696
76 Ni 3.69781 4.14634 4.77451
77 Ni 3.63181 5.86077 9.84292
78 Ni 3.68351 8.79112 7.44028
79 Ni 5.601 5.31077 6.34875
80 Ni 5.53562 7.29006 8.64942
81 Al 3.74577 12.2076 2.38829
82 Al 5.79873 10.5188 3.89683
83 Al 5.61255 13.68 1.13436
84 Ni 3.68471 9.97025 0.123757
85 Ni 3.8821 11.6869 4.91333
86 Ni 3.65135 14.7473 2.54761
87 Ni 5.69527 11.1242 1.51378
88 Ni 5.644 12.9533 3.53271
89 Al 3.68283 11.2599 7.2906
90 Al 5.62018 9.70435 8.86728
91 Al 5.61753 13.0021 6.13254
92 Ni 3.74651 9.24841 4.99359
93 Ni 3.65829 10.9065 9.81615
94 Ni 3.67834 13.7698 7.37328
95 Ni 5.58795 10.3853 6.33223
96 Ni 5.59172 12.2354 8.50746
97 Al 7.44241 2.16985 2.4847
98 Al 9.42467 0.490468 3.77653
99 Al 9.45516 3.75602 1.14818
100 Ni 7.62677 -0.0437416 0.104338
101 Ni 7.45901 1.69302 4.93426
102 Ni 7.50295 4.70715 2.47994
103 Ni 9.41816 1.24576 1.4392
104 Ni 9.35233 2.92092 3.67671
105 Al 7.50671 1.44429 7.44267
106 Al 9.41546 -0.326212 8.7589
107 Al 9.35646 2.90525 6.02622
108 Ni 7.54742 -0.790934 4.91948
109 Ni 7.55912 0.90464 9.94021
110 Ni 7.48571 3.89724 7.40133
111 Ni 9.33362 0.344003 6.33802
112 Ni 9.3271 2.16185 8.49724
113 Al 7.58164 7.23018 2.50648
114 Al 9.49165 5.4908 3.79322
115 Al 9.33363 8.74746 1.1972
116 Ni 7.50519 4.91725 0.00473459
117 Ni 7.58682 6.73186 5.08327
118 Ni 7.58886 9.70221 2.53188
119 Ni 9.37533 6.19928 1.39553
120 Ni 9.457 8.04757 3.57011
121 Al 7.55079 6.39876 7.52515
122 Al 9.43644 4.72536 8.7172
123 Al 9.48219 8.02655 6.00007
124 Ni 7.46397 4.19794 4.84404
125 Ni 7.50613 5.76036 9.89556
126 Ni 7.52555 8.77716 7.30629
127 Ni 9.39903 5.36788 6.33502
128 Ni 9.43295 7.27 8.63268
129 Al 7.6111 12.2216 2.56014
130 Al 9.42198 10.4905 3.88569
131 Al 9.5103 13.7758 1.32046
132 Ni 7.54811 10.0735 -0.0778471
133 Ni 7.53492 11.6944 5.01002
134 Ni 7.50516 14.73 2.44939
135 Ni 9.43168 11.2667 1.41392
136 Ni 9.46398 13.1537 3.63244
137 Al 7.41821 11.2568 7.4294
138 Al 9.33798 9.67092 8.85163
139 Al 9.46566 13.0189 6.16787
140 Ni 7.46352 9.11369 4.96847
141 Ni 7.51042 10.9819 10.073
142 Ni 7.60405 13.826 7.55724
143 Ni 9.36674 10.4378 6.39811
144 Ni 9.38529 12.1786 8.6859
ITEM: TIMESTEP
6900
ITEM: NUMBER OF ATOMS
144
ITEM: BOX BOUNDS xy xz yz pp pp pp
-7.3504826854351002e-02 1.1545839689125325e+01 6.3439085494932990e-02
-1.5394328473113899e+00 1.5015703943528569e+01 1.3835778428617777e-02
-2.1960760789070832e-02 9.9246789415290664e+00 -1.5342273270002107e+00
ITEM: ATOMS id element xu yu zu
1 Al -0.157594 2.11906 2.51038
2 Al 1.8043 0.554458 3.7496
3 Al 1.79075 3.79128 1.13311
4 Ni -0.078796 -0.0312565 0.101076
5 Ni -0.143706 1.67952 4.95482
6 Ni -0.0824749 4.59103 2.42259
7 Ni 1.71915 1.17044 1.34154
8 Ni 1.74396 3.02531 3.66321
9 Al -0.0100071 1.2572 7.43625
10 Al 1.80596 -0.209231 8.85979
11 Al 1.82163 2.97951 6.08457
12 Ni -0.0546217 -0.805585 5.13416
13 Ni -0.141807 0.985835 10.1021
14 Ni -0.0467531 3.69914 7.35782
15 Ni 1.94062 0.439336 6.24111
16 Ni 1.75477 2.28194 8.5527
17 Al -0.000531968 7.09908 2.42554
18 Al 1.79598 5.52909 3.79692
19 Al 1.93802 8.79147 1.03412
20 Ni 0.0344986 4.92196 -0.105051
21 Ni -0.0225583 6.80221 4.84208
22 Ni 0.00478359 9.6718 2.34309
23 Ni 1.93401 6.18028 1.32564
24 Ni 1.83283 8.0832 3.60496
25 Al -0.0384001 6.30861 7.38747
26 Al 1.92699 4.702 8.74848
27 Al 1.98851 7.94604 6.02036
28 Ni -0.150749 4.28209 4.91405
29 Ni 0.0509079 6.02862 9.8747
30 Ni 0.017887 8.8944 7.34
31 Ni 1.70701 5.41882 6.29037
32 Ni 1.8627 7.11743 8.53696
33 Al -0.0809877 12.2041 2.5641
34 Al 1.87809 10.6325 3.83407
35 Al 1.92211 13.7142 1.15795
36 Ni 0.0401428 9.99182 -0.125843
37 Ni 0.0965114 11.764 5.16154
38 Ni -0.0794497 14.6181 2.57201
39 Ni 1.8267 11.0962 1.43422
40 Ni 1.85528 13.0068 3.57555
41 Al 0.0763469 11.3361 7.52784
42 Al 1.98896 9.71024 8.99533
43 Al 1.91303 13.0394 6.18142
44 Ni -0.0275211 9.17917 4.86849
45 Ni 0.0121176 10.9088 10.0957
46 Ni 0.0245192 13.7852 7.49294
47 Ni 1.99569 10.3212 6.39207
48 Ni 1.86068 12.3759 8.63277
49 Al 3.65241 2.02956 2.43904
50 Al 5.61003 0.711772 3.81147
51 Al 5.68552 3.78076 1.0969
52 Ni 3.66584 0.0761605 -0.054616
53 Ni 3.72327 1.79018 4.97067
54 Ni 3.7441 4.77504 2.37225
55 Ni 5.72705 1.18865 1.35094
56 Ni 5.65733 3.00341 3.53532
57 Al 3.74872 1.37344 7.55375
58 Al 5.62099 -0.165234 8.89085
59 Al 5.8022 2.87846 5.96643
60 Ni 3.72947 -0.734626 4.96471
61 Ni 3.65401 1.04588 9.92724
62 Ni 3.75205 3.76992 7.38146
63 Ni 5.58109 0.346569 6.26649
64 Ni 5.7355 2.34606 8.57181
65 Al 3.80429 7.31721 2.37742
66 Al 5.70519 5.49132 3.83298
67 Al 5.63765 8.8672 1.11439
68 Ni 3.7406 5.04209 -0.118743
69 Ni 3.8258 6.74688 4.67984
70 Ni 3.75496 9.75912 2.53157
71 Ni 5.72286 6.32514 1.43248
72 Ni 5.81474 8.10649 3.60962
73 Al 3.71984 6.18726 7.2229
74 Al 5.77573 4.84325 8.838
75 Al 5.78596 7.97265 5.9394
76 Ni 3.74855 4.29561 5.03222
77 Ni 3.84921 6.00681 9.92026
78 Ni 3.88349 8.85174 7.54209
79 Ni 5.74035 5.46116 6.27866
80 Ni 5.76182 7.21736 8.50775
81 Al 3.83366 12.1888 2.49617
82 Al 5.75724 10.5054 4.0047
83 Al 5.74174 13.7389 1.06023
84 Ni 3.89008 10.0582 0.0514523
85 Ni 3.6272 11.8049 5.02724
86 Ni 3.81831 14.6343 2.43973
87 Ni 5.733 11.3148 1.42266
88 Ni 5.63691 13.2652 3.60034
89 Al 3.82529 11.3406 7.44265
90 Al 5.79694 9.74243 8.87384
91 Al 5.65399 12.7879 5.99762
92 Ni 3.87703 9.24285 5.10462
93 Ni 3.82535 11.0524 10.0749
94 Ni 3.84029 13.9386 7.48505
95 Ni 5.85236 10.4136 6.48662
96 Ni 5.67575 12.3668 8.61341
97 Al 7.65048 2.10229 2.45185
98 Al 9.48714 0.420652 3.73518
99 Al 9.51192 3.76161 1.08984
100 Ni 7.58688 0.0503325 -0.196239
101 Ni 7.62367 1.68404 4.92377
102 Ni 7.58257 4.54579 2.42433
103 Ni 9.56438 1.12731 1.34094
104 Ni 9.51098 3.13357 3.4595
105 Al 7.62657 1.33059 7.43395
106 Al 9.55961 -0.27173 8.78127
107 Al 9.57068 2.92383 5.96824
108 Ni 7.61008 -0.844645 4.95929
109 Ni 7.57115 0.992842 9.88994
110 Ni 7.60714 3.72644 7.52417
111 Ni 9.55297 0.362442 6.26131
112 Ni 9.67183 2.1915 8.49787
113 Al 7.78087 7.16734 2.37374
114 Al 9.7124 5.66878 3.82277
115 Al 9.6165 8.6998 1.08028
116 Ni 7.67158 5.09568 0.01229
117 Ni 7.59259 6.70374 4.87452
118 Ni 7.61628 9.66844 2.53668
119 Ni 9.65396 6.26015 1.33593
120 Ni 9.56007 8.09114 3.64235
121 Al 7.77921 6.29053 7.37072
122 Al 9.58326 4.76075 8.8194
123 Al 9.53835 7.94921 6.09513
124 Ni 7.63696 4.18788 5.00539
125 Ni 7.68411 6.04899 9.97918
126 Ni 7.68347 8.87203 7.6963
127 Ni 9.53633 5.41147 6.27006
128 Ni 9.57184 7.21086 8.45425
129 Al 7.67622 12.1926 2.63545
130 Al 9.57299 10.5153 3.89878
131 Al 9.52854 13.6601 1.11413
132 Ni 7.68519 10.0195 0.172336
133 Ni 7.66144 11.7431 5.12638
134 Ni 7.63622 14.6835 2.49299
135 Ni 9.4967 11.1579 1.50085
136 Ni 9.59504 12.9765 3.63761
137 Al 7.74859 11.4132 7.56586
138 Al 9.6251 9.61165 8.98074
139 Al 9.66463 12.9667 6.14478
140 Ni 7.71858 9.2534 5.05055
141 Ni 7.72197 10.8796 10.0137
142 Ni 7.47118 13.8648 7.27013
143 Ni 9.56612 10.2932 6.46721
144 Ni 9.74114 12.3223 8.51093
ITEM: TIMESTEP
7000
ITEM: NUMBER OF ATOMS
144
ITEM: BOX BOUNDS xy xz yz pp pp pp
-4.7972383372186123e-02 1.1540707610991046e+01 3.4523100948237607e-02
-1.6026451037416520e+00 1.5055238508906935e+01 6.3152128323175336e-02
6.2020360636365623e-03 9.8965161446763723e+00 -1.5579050180521175e+00
ITEM: ATOMS id element xu yu zu
1 Al -0.0686279 2.0417 2.34068
2 Al 1.82573 0.492158 3.84682
3 Al 1.80904 3.72853 1.0445
4 Ni -0.07743 0.0155694 -0.018235
5 Ni 0.0434232 1.74681 4.90063
6 Ni -0.0367978 4.60098 2.60133
7 Ni 1.88511 1.15357 1.40219
8 Ni 1.8885 3.01934 3.5092
9 Al -0.0434766 1.45413 7.47063
10 Al 2.00559 -0.255687 8.81407
11 Al 1.9341 2.94519 5.99225
12 Ni -0.142713 -0.8937 4.95166
13 Ni 0.00419778 0.935349 9.73868
14 Ni -0.0249923 3.96659 7.5566
15 Ni 1.81859 0.33672 6.40158
16 Ni 2.01382 2.34264 8.48797
17 Al -0.0443679 6.99052 2.4667
18 Al 1.89118 5.49584 3.84806
19 Al 1.85476 8.73499 0.990021
20 Ni -0.140463 5.01563 0.0998593
21 Ni -0.0515461 6.55833 4.96648
22 Ni -0.115658 9.57681 2.50993
23 Ni 1.87298 6.15997 1.40196
24 Ni 1.90927 7.9224 3.39022
25 Al 0.122022 6.29743 7.45822
26 Al 2.00502 4.81061 8.84039
27 Al 1.92847 7.93319 5.95231
28 Ni 0.110822 4.08745 4.95937
29 Ni -0.105569 5.99494 9.82452
30 Ni -0.00999749 8.76168 7.4748
31 Ni 2.0671 5.43226 6.38187
32 Ni 2.00754 7.47334 8.38168
33 Al -0.0386042 12.1473 2.67669
34 Al 1.95878 10.4918 3.88463
35 Al 1.84686 13.8372 1.23703
36 Ni -0.0406425 10.0052 0.0861708
37 Ni -0.0743481 11.6872 5.06784
38 Ni -0.0225476 14.6407 2.49941
39 Ni 1.92649 11.206 1.41855
40 Ni 1.87632 13.04 3.73406
41 Al 0.0682826 11.5801 7.51293
42 Al 1.9059 9.88478 8.97714
43 Al 1.80592 12.9189 6.13526
44 Ni -0.108647 9.21286 5.04032
45 Ni 0.0540776 11.0305 9.95083
46 Ni -0.0886785 13.946 7.47981
47 Ni 1.87113 10.4157 6.42749
48 Ni 1.97877 12.339 8.70431
49 Al 3.75884 1.8965 2.47875
50 Al 5.79627 0.449218 3.78315
51 Al 5.73915 3.63356 1.09239
52 Ni 3.80214 0.0606439 0.0345658
53 Ni 3.84157 1.58405 4.82031
54 Ni 3.85078 4.48856 2.4536
55 Ni 5.72734 1.19967 1.32087
56 Ni 5.72072 3.04439 3.5844
57 Al 3.824 1.21804 7.34342
58 Al 5.78158 -0.334703 8.7682
59 Al 5.72949 2.81204 6.00534
60 Ni 3.78696 -0.88482 4.94466
61 Ni 3.95783 0.947733 9.7614
62 Ni 3.86277 3.97764 7.47723
63 Ni 5.73716 0.402809 6.31484
64 Ni 5.69958 2.17711 8.44035
65 Al 3.86161 7.01643 2.3826
66 Al 5.71518 5.52974 3.82847
67 Al 5.77128 8.74437 1.11056
68 Ni 3.83384 5.01434 0.140697
69 Ni 3.88958 6.6917 5.07509
70 Ni 3.82267 9.56831 2.4228
71 Ni 5.76454 6.13726 1.28482
72 Ni 5.61332 8.13145 3.55407
73 Al 3.89327 6.26132 7.51636
74 Al 5.86933 4.7815 8.72742
75 Al 5.79433 7.98897 5.92118
76 Ni 3.84295 4.20197 4.98344
77 Ni 3.88737 5.99612 9.82123
78 Ni 3.83228 8.87048 7.36636
79 Ni 5.76219 5.3624 6.21373
80 Ni 5.80869 7.43203 8.59738
81 Al 3.79215 12.1762 2.6274
82 Al 5.76881 10.4228 3.97372
83 Al 5.58694 13.755 1.21124
84 Ni 3.72599 10.026 0.068748
85 Ni 3.88306 11.7364 5.13164
86 Ni 3.77583 14.6322 2.51858
87 Ni 5.61881 11.127 1.53758
88 Ni 5.76996 12.9158 3.58287
89 Al 3.84615 11.3684 7.47545
90 Al 5.7745 9.84684 8.85613
91 Al 5.78348 12.9863 6.03194
92 Ni 3.79547 9.1661 4.93605
93 Ni 3.85571 10.9922 10.0303
94 Ni 3.77937 13.8453 7.50755
95 Ni 5.64955 10.4692 6.40951
96 Ni 5.79851 12.3117 8.5623
97 Al 7.64985 2.12556 2.55318
98 Al 9.52645 0.526595 3.85673
99 Al 9.53961 3.63798 1.22024
100 Ni 7.55049 -0.0131618 0.147705
101 Ni 7.54635 1.77193 4.91128
102 Ni 7.62687 4.72823 2.39697
103 Ni 9.39237 1.21449 1.42432
104 Ni 9.61054 2.93285 3.64736
105 Al 7.63823 1.28723 7.42349
106 Al 9.53994 -0.301179 8.94454
107 Al 9.63628 2.88648 6.06316
108 Ni 7.6172 -0.831842 4.93081
109 Ni 7.63553 0.92029 9.865
110 Ni 7.67736 3.91773 7.29777
111 Ni 9.46037 0.261392 6.42794
112 Ni 9.36909 2.3225 8.49603
113 Al 7.59504 7.19529 2.38842
114 Al 9.62114 5.54064 3.93153
115 Al 9.47039 8.75797 1.09768
116 Ni 7.58497 4.98274 -0.0864976
117 Ni 7.65599 6.7499 4.90793
118 Ni 7.69873 9.66066 2.64561
119 Ni 9.48047 6.17227 1.33532
120 Ni 9.54013 8.07703 3.43388
121 Al 7.7699 6.36422 7.31805
122 Al 9.47662 4.75322 8.83871
123 Al 9.55905 8.00204 6.0106
124 Ni 7.607 4.2154 4.95646
125 Ni 7.67336 5.98809 9.72666
126 Ni 7.65293 8.85313 7.37998
127 Ni 9.62889 5.32612 6.32752
128 Ni 9.55569 7.39716 8.55946
129 Al 7.72462 12.0763 2.43874
130 Al 9.49849 10.5121 3.92364
131 Al 9.59538 13.7115 1.20811
132 Ni 7.62025 10.0726 -0.0539445
133 Ni 7.65801 11.7541 4.97044
134 Ni 7.66084 14.618 2.47608
135 Ni 9.67637 11.2261 1.42107
136 Ni 9.53555 13.1317 3.63586
137 Al 7.71658 11.2939 7.36917
138 Al 9.54206 9.75348 8.86778
139 Al 9.58318 13.0248 6.11493
140 Ni 7.62008 9.28726 5.01982
141 Ni 7.60864 11.0985 9.9564
142 Ni 7.80873 13.8048 7.475
143 Ni 9.63568 10.5138 6.40301
144 Ni 9.44166 12.3136 8.61305
ITEM: TIMESTEP
7100
ITEM: NUMBER OF ATOMS
144
ITEM: BOX BOUNDS xy xz yz pp pp pp
-1.9010797088726711e-01 1.1422821540808552e+01 -9.9505132691108542e-02
-1.5909041324245354e+00 1.5013508849882928e+01 -6.2841295735048819e-02
-6.7174155471736441e-03 9.9094355962871887e+00 -1.5878937057590017e+00
ITEM: ATOMS id element xu yu zu
1 Al -0.0130825 2.11858 2.52953
2 Al 1.91597 0.446091 3.79814
3 Al 1.79633 3.67809 1.07089
4 Ni -0.0608847 0.00693392 0.0319881
5 Ni -0.0857618 1.69359 4.91695
6 Ni -0.0669944 4.61504 2.39942
7 Ni 1.91781 1.13502 1.3781
8 Ni 1.92417 2.93756 3.54873
9 Al -0.000772702 1.30717 7.46578
10 Al 1.91091 -0.286565 8.76594
11 Al 1.68255 2.91499 5.95696
12 Ni 0.00332333 -0.807246 4.93473
13 Ni -0.0987493 0.853802 9.9491
14 Ni -0.0530885 3.86061 7.36379
15 Ni 1.86465 0.469245 6.26501
16 Ni 1.72834 2.22672 8.55432
17 Al -0.101372 7.0804 2.503
18 Al 1.67272 5.43292 3.87194
19 Al 1.81807 8.62486 1.20664
20 Ni 0.0212785 5.02449 -0.0130597
21 Ni -0.0621499 6.73926 4.87753
22 Ni -0.0710709 9.59211 2.49008
23 Ni 1.70858 6.06557 1.43327
24 Ni 1.81352 8.00365 3.72887
25 Al -0.137364 6.34456 7.43579
26 Al 1.78872 4.75992 8.7717
27 Al 1.78334 7.97989 6.26085
28 Ni -0.191978 4.27886 5.01111
29 Ni -0.162326 5.92549 9.99704
30 Ni -0.230456 9.01038 7.45793
31 Ni 1.73881 5.39394 6.37812
32 Ni 1.62242 7.16607 8.71582
33 Al -0.194788 12.0628 2.57145
34 Al 1.82137 10.5003 3.84669
35 Al 1.71671 13.7642 1.12891
36 Ni -0.137952 10.0802 -0.0370385
37 Ni -0.101423 11.7597 4.96883
38 Ni -0.119116 14.6598 2.53363
39 Ni 1.75241 11.0908 1.39337
40 Ni 1.81621 13.036 3.579
41 Al -0.215864 11.5002 7.34591
42 Al 1.69815 9.8087 8.91233
43 Al 1.72433 12.9347 6.08808
44 Ni -0.0709594 9.2337 4.94835
45 Ni -0.26152 10.9545 9.98818
46 Ni -0.158747 13.8871 7.49015
47 Ni 1.72029 10.4989 6.35413
48 Ni 1.61987 12.2803 8.50599
49 Al 3.77752 1.96627 2.5339
50 Al 5.70157 0.505106 3.99315
51 Al 5.57202 3.71696 1.08622
52 Ni 3.7815 -0.130961 0.100649
53 Ni 3.70556 1.7576 4.94924
54 Ni 3.68221 4.67043 2.48559
55 Ni 5.67978 1.06618 1.42956
56 Ni 5.64449 3.03434 3.58871
57 Al 3.75044 1.3694 7.42211
58 Al 5.54488 -0.185169 8.96427
59 Al 5.69346 2.86356 6.00645
60 Ni 3.75922 -0.79469 5.05516
61 Ni 3.63214 0.849813 9.93915
62 Ni 3.63242 3.80766 7.32992
63 Ni 5.6952 0.388818 6.37827
64 Ni 5.60512 2.30992 8.51032
65 Al 3.63249 7.02805 2.52875
66 Al 5.56821 5.44861 3.94624
67 Al 5.55932 8.72833 1.05753
68 Ni 3.66153 5.02906 -0.0653344
69 Ni 3.66358 6.72699 4.89617
70 Ni 3.62661 9.50676 2.45801
71 Ni 5.5647 6.22998 1.40279
72 Ni 5.58474 7.92343 3.60451
73 Al 3.54686 6.25748 7.52495
74 Al 5.55766 4.84165 8.84268
75 Al 5.62536 7.93552 5.96817
76 Ni 3.70625 4.15236 4.87721
77 Ni 3.57482 5.93842 9.96653
78 Ni 3.63219 9.02687 7.39781
79 Ni 5.52232 5.47173 6.41239
80 Ni 5.53153 7.23825 8.42366
81 Al 3.68118 12.0494 2.4706
82 Al 5.62483 10.3495 3.76561
83 Al 5.60015 13.6392 1.19635
84 Ni 3.67976 9.96848 -0.0862271
85 Ni 3.61248 11.6598 4.94599
86 Ni 3.72944 14.5709 2.54372
87 Ni 5.61316 11.2121 1.23701
88 Ni 5.53663 13.0949 3.72465
89 Al 3.67234 11.4133 7.43595
90 Al 5.62749 9.71613 8.70329
91 Al 5.60902 12.7949 6.00131
92 Ni 3.66531 9.25649 4.92972
93 Ni 3.61917 10.8769 9.94428
94 Ni 3.65819 13.8824 7.48964
95 Ni 5.52026 10.3884 6.20259
96 Ni 5.53143 12.2684 8.63172
97 Al 7.60515 1.97631 2.53665
98 Al 9.5286 0.468965 3.81559
99 Al 9.50418 3.69329 1.10717
100 Ni 7.66388 -0.00657552 -0.0220771
101 Ni 7.57985 1.64569 5.01925
102 Ni 7.48305 4.53989 2.39485
103 Ni 9.56984 1.19178 1.37479
104 Ni 9.43265 3.03868 3.56738
105 Al 7.62003 1.34367 7.56224
106 Al 9.46281 -0.284905 8.83211
107 Al 9.46453 3.04346 6.0934
108 Ni 7.5651 -0.822037 5.11945
109 Ni 7.55958 0.962012 9.97
110 Ni 7.48119 3.82984 7.42851
111 Ni 9.50743 0.568085 6.31104
112 Ni 9.59947 2.21535 8.50598
113 Al 7.48575 7.09294 2.52749
114 Al 9.56753 5.52275 3.8197
115 Al 9.51021 8.80805 1.10702
116 Ni 7.55242 5.08124 0.0041769
117 Ni 7.49701 6.68695 5.01423
118 Ni 7.3869 9.5747 2.36106
119 Ni 9.38161 6.2253 1.32052
120 Ni 9.46361 7.97307 3.74205
121 Al 7.48747 6.22309 7.54453
122 Al 9.41724 4.62528 8.86641
123 Al 9.36861 7.93591 6.1237
124 Ni 7.51493 4.15578 4.87972
125 Ni 7.46701 5.90534 10.0352
126 Ni 7.5015 8.88603 7.43091
127 Ni 9.35366 5.51154 6.25162
128 Ni 9.35754 7.26713 8.52392
129 Al 7.36877 12.1505 2.50284
130 Al 9.3582 10.4053 3.8536
131 Al 9.44195 13.735 1.17159
132 Ni 7.52828 10.0298 -0.017068
133 Ni 7.48016 11.6079 4.91365
134 Ni 7.49878 14.6047 2.57246
135 Ni 9.27651 11.2131 1.43497
136 Ni 9.38577 12.9852 3.56993
137 Al 7.56139 11.3447 7.46901
138 Al 9.33407 9.65242 8.87442
139 Al 9.3411 12.9858 6.06366
140 Ni 7.48576 9.14646 4.78185
141 Ni 7.51167 10.9403 9.86651
142 Ni 7.37206 13.9703 7.55252
143 Ni 9.33021 10.2991 6.27435
144 Ni 9.3912 12.3162 8.54941
ITEM: TIMESTEP
7200
ITEM: NUMBER OF ATOMS
144
ITEM: BOX BOUNDS xy xz yz pp pp pp
-1.6765091181894487e-01 1.1471715022374957e+01 -2.6097698366663383e-02
-1.6338378942348675e+00 1.5059778897336805e+01 -6.4898189424772046e-02
-3.0620737118391972e-03 9.9057802544518587e+00 -1.5845574201154629e+00
ITEM: ATOMS id element xu yu zu
1 Al -0.119558 2.02111 2.51635
2 Al 1.83541 0.456978 3.93287
3 Al 1.76303 3.75615 1.07732
4 Ni -0.0531596 -0.123092 0.0296618
5 Ni -0.0988397 1.68835 5.01349
6 Ni -0.107998 4.55932 2.43767
7 Ni 1.73523 1.04839 1.48265
8 Ni 1.68683 3.12086 3.64941
9 Al -0.181674 1.26454 7.44469
10 Al 1.74379 -0.312257 8.81293
11 Al 1.74269 2.94503 6.07286
12 Ni -0.14002 -0.735538 5.05833
13 Ni -0.204833 0.982703 9.92617
14 Ni -0.241501 3.71865 7.37216
15 Ni 1.8268 0.357797 6.46419
16 Ni 1.73659 2.20083 8.56167
17 Al -0.104683 7.02859 2.56307
18 Al 1.76313 5.57286 3.75695
19 Al 1.87849 8.72297 1.07945
20 Ni -0.191963 4.93205 -0.0278168
21 Ni -0.307518 6.76727 5.14393
22 Ni -0.198929 9.64836 2.50192
23 Ni 1.87146 6.2461 1.34372
24 Ni 1.71134 8.16406 3.51603
25 Al -0.204785 6.19783 7.52569
26 Al 1.7539 4.74975 8.77286
27 Al 1.75426 7.98685 6.01042
28 Ni -0.0516002 4.27178 4.8975
29 Ni -0.178559 5.89688 9.92774
30 Ni -0.129643 8.59179 7.46683
31 Ni 1.68883 5.43574 6.32023
32 Ni 1.74112 7.29138 8.47882
33 Al -0.144668 12.0922 2.38177
34 Al 1.80608 10.585 3.84363
35 Al 1.83241 13.8253 1.03141
36 Ni -0.132942 9.99689 0.00335913
37 Ni -0.156993 11.8242 4.84217
38 Ni -0.133738 14.6012 2.45433
39 Ni 1.78862 11.2186 1.28222
40 Ni 1.78902 13.0784 3.50639
41 Al -0.119566 11.3162 7.36478
42 Al 1.81769 9.72105 8.82238
43 Al 1.77038 12.8798 6.01374
44 Ni -0.240555 9.28368 4.93826
45 Ni -0.100016 10.8855 9.75841
46 Ni -0.147229 13.7883 7.41171
47 Ni 1.86956 10.4121 6.20851
48 Ni 1.85059 12.24 8.4669
49 Al 3.69752 2.03809 2.588
50 Al 5.67923 0.445987 3.92389
51 Al 5.74891 3.64846 1.08669
52 Ni 3.74526 0.0433263 -0.0233494
53 Ni 3.75854 1.779 5.1024
54 Ni 3.79776 4.52016 2.45083
55 Ni 5.65313 1.19717 1.46938
56 Ni 5.68634 2.98073 3.63291
57 Al 3.72226 1.33343 7.55421
58 Al 5.63794 -0.247085 8.88383
59 Al 5.64078 2.94585 6.07556
60 Ni 3.75912 -0.722037 4.95133
61 Ni 3.7535 0.866021 9.98643
62 Ni 3.75966 3.84112 7.57341
63 Ni 5.57149 0.468076 6.41817
64 Ni 5.68051 2.2137 8.57044
65 Al 3.71168 7.2091 2.60618
66 Al 5.56472 5.45794 3.90609
67 Al 5.70337 8.62656 1.21874
68 Ni 3.81081 4.91127 -0.0353514
69 Ni 3.65457 6.74607 5.05353
70 Ni 3.72728 9.76789 2.53798
71 Ni 5.64947 6.07456 1.49082
72 Ni 5.67959 8.15052 3.59849
73 Al 3.80295 6.19697 7.42799
74 Al 5.60623 4.84455 8.87215
75 Al 5.61425 7.96481 6.04947
76 Ni 3.6808 4.26957 5.0167
77 Ni 3.66463 5.85268 9.9196
78 Ni 3.70811 8.75186 7.53693
79 Ni 5.67197 5.37515 6.31338
80 Ni 5.53579 7.25748 8.72241
81 Al 3.72749 12.1863 2.34544
82 Al 5.72874 10.5347 3.93522
83 Al 5.55678 13.7878 1.08243
84 Ni 3.74861 10.0283 0.0624581
85 Ni 3.74858 11.8933 4.89408
86 Ni 3.6354 14.6987 2.42312
87 Ni 5.73514 11.0888 1.41727
88 Ni 5.67396 13.0849 3.43552
89 Al 3.78782 11.3229 7.26455
90 Al 5.70201 9.73909 8.80494
91 Al 5.63341 13.0638 5.88644
92 Ni 3.69877 9.28439 4.98104
93 Ni 3.7178 10.976 9.71185
94 Ni 3.66595 13.9839 7.48043
95 Ni 5.7215 10.4597 6.42562
96 Ni 5.64853 12.3708 8.46023
97 Al 7.59265 1.97912 2.53033
98 Al 9.56275 0.443977 3.87554
99 Al 9.46149 3.68074 1.10239
100 Ni 7.58674 0.0208863 0.0601487
101 Ni 7.54371 1.65135 4.89385
102 Ni 7.58982 4.56442 2.56829
103 Ni 9.4714 1.04585 1.41108
104 Ni 9.56086 2.98781 3.53935
105 Al 7.56161 1.26737 7.38704
106 Al 9.54322 -0.34966 8.88042
107 Al 9.49556 2.89756 6.01701
108 Ni 7.53821 -0.848618 4.86635
109 Ni 7.53401 0.863822 9.87814
110 Ni 7.54045 3.88483 7.52643
111 Ni 9.3646 0.175044 6.40524
112 Ni 9.40308 2.24479 8.55887
113 Al 7.51509 7.08013 2.43857
114 Al 9.56148 5.49966 4.05173
115 Al 9.55948 8.68301 1.06474
116 Ni 7.61577 4.99648 0.0456117
117 Ni 7.46249 6.75257 4.96401
118 Ni 7.60883 9.62581 2.47557
119 Ni 9.57511 6.08082 1.48712
120 Ni 9.41196 8.08867 3.51282
121 Al 7.43472 6.34123 7.50836
122 Al 9.45495 4.70639 8.93756
123 Al 9.36983 7.93185 6.02502
124 Ni 7.54709 4.19729 5.04557
125 Ni 7.47548 5.85365 9.88633
126 Ni 7.53997 8.90166 7.37362
127 Ni 9.48217 5.26031 6.43518
128 Ni 9.51005 7.27312 8.5738
129 Al 7.53923 12.1452 2.43471
130 Al 9.41566 10.5109 3.89508
131 Al 9.50105 13.7085 1.01133
132 Ni 7.56183 10.0283 -0.0396416
133 Ni 7.4715 11.8607 4.96709
134 Ni 7.52794 14.6157 2.4913
135 Ni 9.52034 11.103 1.22006
136 Ni 9.57974 13.0715 3.60271
137 Al 7.57648 11.3644 7.50267
138 Al 9.40057 9.68693 8.71485
139 Al 9.48488 12.8855 6.06667
140 Ni 7.53152 9.273 5.00918
141 Ni 7.44336 10.8953 9.95209
142 Ni 7.63798 13.8161 7.39923
143 Ni 9.41685 10.5217 6.31556
144 Ni 9.47615 12.2714 8.5372
ITEM: TIMESTEP
7300
ITEM: NUMBER OF ATOMS
144
ITEM: BOX BOUNDS xy xz yz pp pp pp
-3.4701415752683040e-02 1.1586316456969884e+01 1.0129599863572523e-01
-1.5643888284292080e+00 1.4998278947961914e+01 5.5259044234029761e-02
1.2867975343829663e-02 9.8898502053961934e+00 -1.5766083036846847e+00
ITEM: ATOMS id element xu yu zu
1 Al -0.0708451 2.22352 2.5864
2 Al 1.83831 0.606697 3.85499
3 Al 1.71046 3.69413 1.17414
4 Ni -0.0783007 -0.0083824 0.010665
5 Ni -0.0447391 1.86226 5.04378
6 Ni -0.0130564 4.6635 2.69317
7 Ni 1.93991 1.24207 1.4382
8 Ni 1.93142 3.06936 3.66199
9 Al -0.00308348 1.36091 7.57374
10 Al 1.95167 -0.333796 8.74652
11 Al 1.82458 2.92625 6.06445
12 Ni -0.055387 -0.791227 4.86714
13 Ni 0.00816659 0.80196 9.95212
14 Ni 0.0394082 3.82175 7.64418
15 Ni 1.83692 0.472713 6.36548
16 Ni 1.93684 2.15644 8.6396
17 Al -0.0185297 7.09179 2.51393
18 Al 1.92858 5.46437 3.98007
19 Al 2.0379 8.67423 1.1669
20 Ni 0.0114111 4.96011 0.165975
21 Ni 0.162563 6.70612 4.85286
22 Ni 0.0569103 9.58005 2.41035
23 Ni 1.83733 6.10351 1.55888
24 Ni 2.06367 8.00469 3.65205
25 Al 0.0373967 6.32493 7.37513
26 Al 2.04163 4.75047 8.94554
27 Al 1.99149 7.93023 6.02175
28 Ni -0.0820338 4.24691 5.06459
29 Ni 0.033696 5.98211 9.95706
30 Ni 0.0790514 8.8696 7.36874
31 Ni 2.08433 5.30813 6.46484
32 Ni 2.03689 7.15798 8.55374
33 Al 0.113991 12.1883 2.42655
34 Al 1.95201 10.4108 3.86079
35 Al 1.95343 13.9137 1.05402
36 Ni 0.138138 9.94393 -0.056834
37 Ni 0.0930019 11.7226 4.91154
38 Ni 0.0669898 14.7036 2.43735
39 Ni 2.00788 11.2258 1.36262
40 Ni 1.92197 13.1839 3.48287
41 Al 0.0203104 11.2789 7.42873
42 Al 1.98997 9.62665 8.72231
43 Al 1.91537 12.8494 5.97068
44 Ni 0.124122 9.25304 4.92037
45 Ni 0.0997978 10.9453 9.8803
46 Ni 0.0832086 13.833 7.40672
47 Ni 1.9039 10.3876 6.28885
48 Ni 1.88995 12.2826 8.45227
49 Al 3.94632 2.19004 2.50119
50 Al 5.77482 0.531015 3.77064
51 Al 5.67206 3.78267 1.12516
52 Ni 3.7583 -0.00878043 -0.051159
53 Ni 3.74464 1.65447 4.94924
54 Ni 3.71889 4.75314 2.70233
55 Ni 5.68033 1.14457 1.23678
56 Ni 5.72758 3.13992 3.70051
57 Al 3.75613 1.22742 7.44794
58 Al 5.68206 -0.335355 8.7966
59 Al 5.6446 2.94362 6.11799
60 Ni 3.71479 -0.826888 4.82865
61 Ni 3.83717 0.958538 9.93628
62 Ni 3.78599 3.79374 7.411
63 Ni 5.63471 0.340452 6.20242
64 Ni 5.73308 2.11228 8.60535
65 Al 3.83906 7.14623 2.40765
66 Al 5.72933 5.54361 3.88283
67 Al 5.8046 8.80854 1.09054
68 Ni 3.72579 5.05823 0.232035
69 Ni 3.97911 6.79731 4.93414
70 Ni 3.86472 9.52701 2.47862
71 Ni 5.7293 6.27024 1.36041
72 Ni 5.67558 8.05508 3.60136
73 Al 4.03042 6.30683 7.41658
74 Al 5.72567 4.66031 8.79705
75 Al 5.94288 7.96796 6.01439
76 Ni 3.90096 4.29763 5.00638
77 Ni 3.95838 5.9872 9.87227
78 Ni 3.8649 8.84362 7.32174
79 Ni 5.7846 5.40703 6.3719
80 Ni 5.84079 7.26947 8.42695
81 Al 3.82057 12.171 2.55194
82 Al 5.83295 10.5359 3.80506
83 Al 5.75512 13.708 1.12953
84 Ni 3.7785 10.0499 -0.0011867
85 Ni 3.81113 11.6988 4.87726
86 Ni 3.8718 14.634 2.44367
87 Ni 5.73188 11.3344 1.36575
88 Ni 5.80027 13.1011 3.66071
89 Al 3.77336 11.2184 7.35021
90 Al 5.85572 9.67749 8.84825
91 Al 5.78393 12.8517 5.92781
92 Ni 3.89862 9.22763 4.95548
93 Ni 3.84556 10.9138 9.97033
94 Ni 3.85505 13.6761 7.34337
95 Ni 5.73967 10.4425 6.17768
96 Ni 5.72502 12.0556 8.43548
97 Al 7.53663 2.14109 2.47897
98 Al 9.49542 0.601767 3.86487
99 Al 9.62934 3.79315 1.05279
100 Ni 7.59616 -0.108088 -0.133471
101 Ni 7.53018 1.83955 4.99826
102 Ni 7.59703 4.62261 2.52588
103 Ni 9.51398 1.21822 1.38915
104 Ni 9.44194 3.0528 3.75748
105 Al 7.56929 1.23973 7.33748
106 Al 9.51275 -0.296784 8.68473
107 Al 9.5816 3.05481 6.21006
108 Ni 7.58076 -0.686869 4.95803
109 Ni 7.64564 0.825012 9.94768
110 Ni 7.7263 3.73673 7.47451
111 Ni 9.63412 0.567062 6.29854
112 Ni 9.51739 2.17936 8.5729
113 Al 7.64996 7.20003 2.52437
114 Al 9.57834 5.58278 3.91073
115 Al 9.62939 8.75281 1.17118
116 Ni 7.59618 4.8991 0.134044
117 Ni 7.75142 6.73311 4.98934
118 Ni 7.69891 9.57817 2.58215
119 Ni 9.50365 6.18436 1.38883
120 Ni 9.63478 8.08148 3.66953
121 Al 7.65657 6.23771 7.51834
122 Al 9.5786 4.75797 8.83023
123 Al 9.65766 7.79852 6.1048
124 Ni 7.63985 4.27639 5.033
125 Ni 7.70178 5.93539 9.97339
126 Ni 7.71749 8.82261 7.55999
127 Ni 9.53607 5.44144 6.33851
128 Ni 9.65963 7.22649 8.59564
129 Al 7.61642 12.1622 2.38332
130 Al 9.67356 10.4781 3.85325
131 Al 9.60478 13.8565 0.970444
132 Ni 7.65359 9.98623 0.0642907
133 Ni 7.82385 11.7551 4.91968
134 Ni 7.76203 14.6669 2.35809
135 Ni 9.63597 11.1547 1.52407
136 Ni 9.57578 13.1717 3.50428
137 Al 7.65471 11.1933 7.34608
138 Al 9.59667 9.60676 8.92589
139 Al 9.642 12.911 6.05592
140 Ni 7.72683 9.25152 5.02646
141 Ni 7.83344 10.8676 9.79305
142 Ni 7.65058 13.7527 7.35672
143 Ni 9.65219 10.2479 6.30832
144 Ni 9.68952 12.173 8.39735
ITEM: TIMESTEP
7400
ITEM: NUMBER OF ATOMS
144
ITEM: BOX BOUNDS xy xz yz pp pp pp
-5.9997164069571340e-02 1.1475578748222533e+01 -1.3109886383897876e-02
-1.6377446451720286e+00 1.5060071043850256e+01 3.3631472189428212e-02
-2.2057865001166910e-02 9.9247760457411918e+00 -1.5881720245391497e+00
ITEM: ATOMS id element xu yu zu
1 Al -0.102239 2.19528 2.47567
2 Al 1.88568 0.408573 3.6655
3 Al 1.83013 3.76544 1.09137
4 Ni -0.123782 -0.0379961 -0.145543
5 Ni -0.0300896 1.59702 4.92295
6 Ni -0.0267403 4.63502 2.49179
7 Ni 1.73271 1.1249 1.22182
8 Ni 1.8317 2.99788 3.66131
9 Al -0.0738366 1.28711 7.42158
10 Al 1.83707 -0.339067 8.77695
11 Al 1.87759 2.82635 6.08513
12 Ni -0.0616539 -0.873374 4.84394
13 Ni -0.0276207 1.01178 9.96943
14 Ni 0.00847538 3.78925 7.47657
15 Ni 1.85057 0.298045 6.16855
16 Ni 1.87536 2.31294 8.61938
17 Al -0.0912105 7.14041 2.55787
18 Al 1.83859 5.42974 3.81039
19 Al 1.9116 8.70882 1.05829
20 Ni -0.0513335 4.97482 0.126647
21 Ni -0.153443 6.74087 5.12506
22 Ni -0.0387027 9.77177 2.57249
23 Ni 1.93892 6.24604 1.43061
24 Ni 1.83171 8.13983 3.53029
25 Al -0.0766838 6.39969 7.556
26 Al 1.94495 4.71438 8.92162
27 Al 1.86682 7.926 5.95395
28 Ni 0.0749785 4.12371 5.1069
29 Ni -0.0459657 5.82139 9.93097
30 Ni 0.0111154 8.85928 7.45135
31 Ni 1.76964 5.40483 6.38729
32 Ni 1.83673 7.39494 8.56861
33 Al -0.0519805 12.2205 2.42123
34 Al 1.88583 10.4809 4.00008
35 Al 1.80913 13.8103 1.12267
36 Ni -0.133551 9.99658 0.0978076
37 Ni -0.0501689 11.7369 4.99699
38 Ni -0.160027 14.7179 2.41922
39 Ni 1.80952 11.1381 1.43372
40 Ni 1.90493 12.9731 3.65599
41 Al -0.0834413 11.4507 7.56489
42 Al 1.90434 9.72165 8.82045
43 Al 1.78193 12.9308 6.06845
44 Ni -0.0201153 9.21355 4.98745
45 Ni -0.087232 10.9955 9.96979
46 Ni -0.100031 13.9269 7.37825
47 Ni 1.89243 10.3703 6.30959
48 Ni 1.88454 12.2783 8.59626
49 Al 3.75495 2.06629 2.42301
50 Al 5.68872 0.459637 3.90794
51 Al 5.76554 3.67839 1.01239
52 Ni 3.68118 -0.0711832 -0.0263978
53 Ni 3.8107 1.68806 4.90685
54 Ni 3.96912 4.47453 2.48603
55 Ni 5.6856 1.22112 1.48544
56 Ni 5.63299 3.03647 3.57401
57 Al 3.6994 1.12535 7.44047
58 Al 5.70505 -0.324117 8.96004
59 Al 5.68971 2.84821 6.01953
60 Ni 3.85301 -0.786653 4.97341
61 Ni 3.86407 0.832242 9.91219
62 Ni 3.81976 3.76695 7.59741
63 Ni 5.80381 0.264016 6.34454
64 Ni 5.63141 2.24311 8.54989
65 Al 3.8654 7.23494 2.60411
66 Al 5.59566 5.48988 3.99969
67 Al 5.76535 8.64129 1.11412
68 Ni 3.90646 4.95827 0.0340964
69 Ni 3.67801 6.58505 5.0441
70 Ni 3.73721 9.73381 2.36234
71 Ni 5.82802 6.14504 1.44406
72 Ni 5.81785 8.11226 3.57964
73 Al 3.67102 6.2183 7.5833
74 Al 5.70603 4.74433 8.97652
75 Al 5.64191 7.87179 6.0835
76 Ni 3.71871 4.04094 5.12373
77 Ni 3.7855 5.81119 10.0751
78 Ni 3.72199 8.74563 7.44327
79 Ni 5.64037 5.30019 6.45341
80 Ni 5.75254 7.13491 8.64417
81 Al 3.72233 12.2085 2.37218
82 Al 5.4982 10.6066 3.89391
83 Al 5.67465 13.8039 1.07142
84 Ni 3.81403 9.97494 -0.0502746
85 Ni 3.75051 11.7627 5.12319
86 Ni 3.78637 14.6855 2.41987
87 Ni 5.70436 11.109 1.28901
88 Ni 5.6518 13.1723 3.43879
89 Al 3.78621 11.3203 7.448
90 Al 5.79272 9.69377 8.83256
91 Al 5.6748 12.9151 5.92932
92 Ni 3.72866 9.18298 4.88155
93 Ni 3.85172 10.9601 9.87044
94 Ni 3.72751 13.8949 7.3998
95 Ni 5.70759 10.2485 6.42029
96 Ni 5.83396 12.3361 8.51513
97 Al 7.62691 2.12757 2.53733
98 Al 9.50796 0.432272 3.82174
99 Al 9.48677 3.85825 0.988763
100 Ni 7.54849 0.0212367 0.00589169
101 Ni 7.74906 1.59179 5.0381
102 Ni 7.59875 4.72481 2.55054
103 Ni 9.52079 1.13868 1.31735
104 Ni 9.60879 3.14752 3.64887
105 Al 7.53619 1.24847 7.50779
106 Al 9.52735 -0.237918 8.78079
107 Al 9.50715 2.86706 6.10857
108 Ni 7.55055 -0.833844 4.88808
109 Ni 7.54891 0.978283 9.91537
110 Ni 7.51804 3.7345 7.39682
111 Ni 9.47594 0.278687 6.38596
112 Ni 9.55176 2.13433 8.6207
113 Al 7.71977 7.26607 2.464
114 Al 9.54371 5.58501 3.96438
115 Al 9.57684 8.7139 1.09479
116 Ni 7.55134 4.97578 -0.0174602
117 Ni 7.57596 6.79323 5.02224
118 Ni 7.58321 9.78044 2.44067
119 Ni 9.57484 6.21013 1.53234
120 Ni 9.50952 8.11042 3.57441
121 Al 7.59213 6.24807 7.35091
122 Al 9.47014 4.69082 8.76187
123 Al 9.49021 7.92701 6.02264
124 Ni 7.64763 4.16734 4.97809
125 Ni 7.67344 5.91621 9.92448
126 Ni 7.68405 8.7597 7.45005
127 Ni 9.62689 5.31544 6.41597
128 Ni 9.45451 7.21819 8.54434
129 Al 7.60125 12.1162 2.40627
130 Al 9.54043 10.5125 3.74904
131 Al 9.39257 13.949 1.0099
132 Ni 7.63896 10.0042 -0.0673763
133 Ni 7.42498 11.7294 4.8634
134 Ni 7.52932 14.7264 2.47541
135 Ni 9.46331 11.2505 1.20996
136 Ni 9.49789 13.0181 3.47339
137 Al 7.56218 11.2512 7.32437
138 Al 9.44502 9.7971 8.73002
139 Al 9.47517 12.9349 5.96969
140 Ni 7.58788 9.26843 4.8754
141 Ni 7.50781 10.9527 9.86578
142 Ni 7.63908 13.8413 7.34806
143 Ni 9.5932 10.6009 6.28048
144 Ni 9.46482 12.4033 8.56238
ITEM: TIMESTEP
7500
ITEM: NUMBER OF ATOMS
144
ITEM: BOX BOUNDS xy xz yz pp pp pp
-2.1464984939354462e-01 1.1432389946272925e+01 -1.2928227163956682e-01
-1.5808830141052888e+00 1.5036127874940693e+01 -4.8037629828484425e-02
1.9941963454366274e-03 9.9007239843945971e+00 -1.5552535623819950e+00
ITEM: ATOMS id element xu yu zu
1 Al -0.039457 2.02407 2.39165
2 Al 1.82398 0.436311 3.90573
3 Al 1.72576 3.6647 1.04577
4 Ni 0.0208784 -0.0324352 0.050742
5 Ni -0.0342413 1.65538 4.90754
6 Ni -0.0540822 4.60956 2.41856
7 Ni 1.98175 1.09991 1.39761
8 Ni 1.80006 3.03368 3.47083
9 Al -0.1428 1.31242 7.3799
10 Al 1.8206 -0.389922 8.88663
11 Al 1.72679 3.04517 5.90875
12 Ni -0.0602765 -0.81434 5.00603
13 Ni -0.120771 0.94058 9.75331
14 Ni -0.190942 3.89028 7.26808
15 Ni 1.88094 0.383668 6.4337
16 Ni 1.79839 2.21181 8.48798
17 Al -0.157801 7.11006 2.48887
18 Al 1.68121 5.5287 3.943
19 Al 1.86291 8.76973 1.24964
20 Ni -0.0677563 4.98427 -0.00428314
21 Ni -0.0789627 6.76129 4.93054
22 Ni -0.245808 9.53378 2.45936
23 Ni 1.69621 6.13001 1.36775
24 Ni 1.75885 8.03001 3.78947
25 Al -0.136388 6.28169 7.44025
26 Al 1.78352 4.7169 8.85472
27 Al 1.69952 7.99623 6.16571
28 Ni -0.19213 4.27939 4.86076
29 Ni -0.181745 6.15723 10.0311
30 Ni -0.235928 8.75853 7.50501
31 Ni 1.78289 5.38124 6.37584
32 Ni 1.72881 7.22203 8.61555
33 Al -0.175147 12.0671 2.52928
34 Al 1.66589 10.4313 3.99227
35 Al 1.81507 13.6928 1.08491
36 Ni -0.106478 10.1429 -0.0469427
37 Ni -0.16331 11.7259 4.93916
38 Ni -0.100192 14.4843 2.41936
39 Ni 1.73925 11.2643 1.38178
40 Ni 1.69299 13.1086 3.50453
41 Al -0.227038 11.372 7.36208
42 Al 1.73614 9.6648 8.65725
43 Al 1.77875 12.9569 5.96291
44 Ni -0.20503 9.21717 4.95322
45 Ni -0.163922 10.9532 9.86065
46 Ni -0.180052 13.7579 7.42855
47 Ni 1.7717 10.4093 6.36638
48 Ni 1.75642 12.3453 8.5204
49 Al 3.78059 2.04419 2.49124
50 Al 5.58749 0.28111 3.93356
51 Al 5.60986 3.74507 1.05526
52 Ni 3.85865 0.0971813 0.0414163
53 Ni 3.62555 1.7255 4.95815
54 Ni 3.50464 4.67239 2.53449
55 Ni 5.73638 1.16452 1.3246
56 Ni 5.62652 2.98897 3.59895
57 Al 3.67889 1.36674 7.47925
58 Al 5.66929 -0.146069 8.87596
59 Al 5.6443 3.03764 6.10889
60 Ni 3.71631 -0.893871 5.00935
61 Ni 3.66895 0.966682 9.8864
62 Ni 3.64073 3.91364 7.39183
63 Ni 5.53929 0.499705 6.35881
64 Ni 5.83034 2.27389 8.60543
65 Al 3.58172 7.1055 2.54065
66 Al 5.55934 5.50569 3.78895
67 Al 5.60074 8.73946 1.14424
68 Ni 3.59418 5.06477 -0.0707819
69 Ni 3.70361 6.83044 5.0913
70 Ni 3.69347 9.4444 2.60453
71 Ni 5.44401 6.16979 1.40883
72 Ni 5.49349 7.97001 3.6167
73 Al 3.5239 6.29217 7.53247
74 Al 5.56015 4.68307 8.96169
75 Al 5.52939 7.94705 6.06887
76 Ni 3.76683 4.24655 4.85568
77 Ni 3.67011 6.03586 9.94138
78 Ni 3.6653 8.94275 7.52283
79 Ni 5.61153 5.37763 6.3455
80 Ni 5.50185 7.33463 8.54791
81 Al 3.63894 12.0842 2.53594
82 Al 5.62252 10.5016 3.82536
83 Al 5.58808 13.7684 1.18139
84 Ni 3.56378 10.024 0.0544082
85 Ni 3.70457 11.612 4.84374
86 Ni 3.57651 14.5932 2.525
87 Ni 5.50604 11.2811 1.34583
88 Ni 5.53221 13.0489 3.74808
89 Al 3.61741 11.3965 7.3809
90 Al 5.56111 9.91111 8.81464
91 Al 5.54487 13.0229 6.08591
92 Ni 3.62643 9.29112 5.0246
93 Ni 3.6472 10.9752 9.9646
94 Ni 3.70636 13.9571 7.47713
95 Ni 5.49504 10.5481 6.17895
96 Ni 5.48463 12.3167 8.58474
97 Al 7.54287 2.04412 2.45517
98 Al 9.47642 0.513436 3.81339
99 Al 9.63145 3.76543 0.979092
100 Ni 7.64578 -0.0176023 0.0759189
101 Ni 7.45867 1.6992 4.88857
102 Ni 7.56736 4.57521 2.45365
103 Ni 9.45298 1.14763 1.46741
104 Ni 9.54154 2.88117 3.49845
105 Al 7.58534 1.19408 7.39385
106 Al 9.53219 -0.403545 8.80326
107 Al 9.39534 2.86332 5.96899
108 Ni 7.59823 -0.786059 5.0194
109 Ni 7.70883 1.02073 9.94245
110 Ni 7.63134 3.83224 7.52415
111 Ni 9.49829 0.339196 6.23053
112 Ni 9.54733 2.45258 8.53178
113 Al 7.52943 7.10677 2.5318
114 Al 9.41375 5.47998 3.78426
115 Al 9.33561 8.76193 1.0393
116 Ni 7.59989 5.00252 0.0760206
117 Ni 7.56316 6.59439 4.97051
118 Ni 7.53984 9.52114 2.48045
119 Ni 9.45943 6.20063 1.39919
120 Ni 9.40366 8.06364 3.64427
121 Al 7.50636 6.41624 7.48581
122 Al 9.35436 4.92945 8.75179
123 Al 9.41447 7.74938 6.01464
124 Ni 7.53974 4.13666 5.01234
125 Ni 7.40945 6.00208 10.0323
126 Ni 7.34329 8.88994 7.36908
127 Ni 9.35926 5.40479 6.32249
128 Ni 9.45111 7.37217 8.58147
129 Al 7.56739 12.1443 2.42637
130 Al 9.36822 10.4986 3.83099
131 Al 9.42296 13.8586 1.03535
132 Ni 7.34633 10.1503 0.0269791
133 Ni 7.54097 11.8181 4.91278
134 Ni 7.50278 14.6814 2.49544
135 Ni 9.36913 11.2182 1.51983
136 Ni 9.34655 13.158 3.61393
137 Al 7.32004 11.3202 7.38646
138 Al 9.1736 9.80175 8.89943
139 Al 9.31827 12.8767 6.07827
140 Ni 7.48516 9.14364 5.01997
141 Ni 7.46571 11.0595 9.83604
142 Ni 7.45373 13.9541 7.53025
143 Ni 9.22719 10.2971 6.38683
144 Ni 9.31768 12.2207 8.45286
ITEM: TIMESTEP
7600
ITEM: NUMBER OF ATOMS
144
ITEM: BOX BOUNDS xy xz yz pp pp pp
-4.3999244109490243e-02 1.1471941435268082e+01 3.6353507398882212e-02
-1.5301006065684770e+00 1.5018887799156378e+01 -3.4713145877258186e-03
9.8467769231724844e-05 9.9026197129708002e+00 -1.5217112306295097e+00
ITEM: ATOMS id element xu yu zu
1 Al -0.119408 2.15685 2.54104
2 Al 1.8749 0.495421 3.89479
3 Al 1.8002 3.72641 1.07757
4 Ni -0.0478581 0.0583447 0.066524
5 Ni -0.0558537 1.79164 4.90484
6 Ni -0.0908444 4.52275 2.44532
7 Ni 1.80331 1.19625 1.43437
8 Ni 1.88225 3.0127 3.61715
9 Al -0.00277486 1.29717 7.43749
10 Al 1.84251 -0.190091 8.95777
11 Al 1.84659 3.03479 5.97606
12 Ni 0.0358652 -0.726725 5.02516
13 Ni -0.0790977 0.98616 9.97013
14 Ni -0.0894251 3.83141 7.48367
15 Ni 1.89646 0.47848 6.30325
16 Ni 1.82146 2.42574 8.46856
17 Al 0.0118404 6.97572 2.49549
18 Al 1.8097 5.50601 3.78995
19 Al 1.89063 8.63992 1.14677
20 Ni -0.112659 4.95909 -0.0512726
21 Ni -0.135979 6.6596 5.03226
22 Ni -0.00950918 9.5834 2.66464
23 Ni 1.91332 6.12655 1.32272
24 Ni 1.90417 8.04155 3.54606
25 Al 0.0242107 6.34941 7.48273
26 Al 2.00112 4.82077 8.74139
27 Al 1.83219 7.99154 5.98867
28 Ni 0.0363703 4.22514 4.93023
29 Ni -0.0827869 5.86868 9.89015
30 Ni 0.0866332 8.88763 7.45537
31 Ni 1.86469 5.4536 6.28627
32 Ni 1.93108 7.39616 8.55217
33 Al -0.0267406 12.1185 2.50612
34 Al 1.85219 10.5143 4.01627
35 Al 1.86358 13.7269 1.21732
36 Ni -0.0523452 9.89136 0.00205496
37 Ni -0.0601892 11.7332 4.96689
38 Ni -0.0386819 14.7595 2.61231
39 Ni 1.89832 11.169 1.40285
40 Ni 1.92607 13.0873 3.69162
41 Al -0.00621234 11.5625 7.36653
42 Al 1.85687 9.74785 8.74074
43 Al 1.91877 13.1392 6.08448
44 Ni -0.0360695 9.25398 4.97616
45 Ni -0.07529 11.0851 9.99199
46 Ni -0.0131877 13.9374 7.52923
47 Ni 1.88938 10.4462 6.2306
48 Ni 1.81398 12.348 8.49364
49 Al 3.68628 2.07919 2.5303
50 Al 5.74974 0.426728 3.89852
51 Al 5.84475 3.71089 0.989839
52 Ni 3.68524 -0.0174645 -0.00358672
53 Ni 3.91835 1.70352 5.02148
54 Ni 3.91087 4.54751 2.32927
55 Ni 5.63326 1.16022 1.39093
56 Ni 5.75981 3.03355 3.54589
57 Al 3.79319 1.33779 7.39306
58 Al 5.59047 -0.208314 8.72398
59 Al 5.7259 3.11379 5.98647
60 Ni 3.83742 -0.702511 4.93443
61 Ni 3.94495 0.972628 9.93852
62 Ni 3.82268 3.93476 7.35659
63 Ni 5.78936 0.365246 6.28485
64 Ni 5.61279 2.41731 8.46931
65 Al 3.78456 7.15065 2.46679
66 Al 5.61345 5.48964 3.76428
67 Al 5.6398 8.68819 1.16866
68 Ni 3.8638 5.02006 -0.0924625
69 Ni 3.76625 6.64402 4.80315
70 Ni 3.69768 9.75071 2.51067
71 Ni 5.68309 6.26094 1.24423
72 Ni 5.69255 7.9638 3.59856
73 Al 3.71616 6.41283 7.44225
74 Al 5.61764 4.82872 8.81073
75 Al 5.67944 7.96704 6.14875
76 Ni 3.71395 4.26474 4.92852
77 Ni 3.6755 5.96968 9.84614
78 Ni 3.754 8.9693 7.44144
79 Ni 5.6774 5.54916 6.27056
80 Ni 5.76483 7.40347 8.65546
81 Al 3.82399 12.2111 2.43466
82 Al 5.55252 10.5658 4.06041
83 Al 5.77427 13.7403 1.06139
84 Ni 3.85274 10.0889 0.069878
85 Ni 3.73452 11.8773 4.98138
86 Ni 3.85863 14.6694 2.51021
87 Ni 5.75419 11.152 1.51146
88 Ni 5.70183 13.0528 3.56072
89 Al 3.76941 11.3625 7.38865
90 Al 5.73872 9.91116 8.91672
91 Al 5.61989 12.8878 6.02613
92 Ni 3.86351 9.12634 4.96121
93 Ni 3.75258 11.0474 9.82409
94 Ni 3.70765 13.9274 7.49681
95 Ni 5.76863 10.4265 6.5302
96 Ni 5.7169 12.3764 8.56592
97 Al 7.69103 1.90574 2.35877
98 Al 9.44978 0.46063 3.94045
99 Al 9.48278 3.68587 0.922596
100 Ni 7.622 -0.0130094 0.0317706
101 Ni 7.74004 1.76034 4.90719
102 Ni 7.55205 4.58028 2.48776
103 Ni 9.55915 1.08099 1.24167
104 Ni 9.46131 3.08658 3.57345
105 Al 7.48308 1.3536 7.40042
106 Al 9.44341 -0.22234 8.7493
107 Al 9.50429 3.00845 6.00302
108 Ni 7.59662 -0.905612 4.9589
109 Ni 7.39943 0.935507 9.77862
110 Ni 7.55036 4.05441 7.33334
111 Ni 9.47242 0.480979 6.40918
112 Ni 9.42889 2.20496 8.44574
113 Al 7.56434 7.05829 2.44518
114 Al 9.44064 5.5091 3.91201
115 Al 9.55137 8.55794 1.17977
116 Ni 7.54189 5.13248 -0.0460133
117 Ni 7.48982 6.77706 4.93472
118 Ni 7.56478 9.54001 2.52748
119 Ni 9.46981 6.13012 1.42318
120 Ni 9.44321 7.89216 3.5832
121 Al 7.57445 6.48013 7.3785
122 Al 9.36026 4.66042 8.75178
123 Al 9.46587 7.9791 6.02046
124 Ni 7.59581 4.24996 4.83994
125 Ni 7.59306 6.0328 9.82639
126 Ni 7.75156 9.03578 7.67296
127 Ni 9.41132 5.44908 6.36972
128 Ni 9.43295 7.26563 8.61034
129 Al 7.71977 11.9581 2.63825
130 Al 9.5427 10.4353 3.81145
131 Al 9.52516 13.7432 1.25547
132 Ni 7.71435 9.93574 0.165257
133 Ni 7.56808 11.6827 5.05427
134 Ni 7.66536 14.5424 2.54832
135 Ni 9.50454 11.1055 1.34947
136 Ni 9.57342 12.9355 3.63633
137 Al 7.73874 11.4302 7.61325
138 Al 9.57319 9.79721 8.87149
139 Al 9.51447 13.0327 6.07286
140 Ni 7.61039 9.29583 4.97836
141 Ni 7.62124 10.8944 10.0827
142 Ni 7.68921 13.8911 7.38305
143 Ni 9.59844 10.5585 6.38615
144 Ni 9.72355 12.4366 8.74288
ITEM: TIMESTEP
7700
ITEM: NUMBER OF ATOMS
144
ITEM: BOX BOUNDS xy xz yz pp pp pp
-4.7430991010123158e-02 1.1624258235798916e+01 1.1224369636474364e-01
-1.5667144943398028e+00 1.5057432138345298e+01 6.9523550076620033e-02
-2.5686090228505876e-02 9.9284042709685281e+00 -1.5197807792119142e+00
ITEM: ATOMS id element xu yu zu
1 Al -0.0318119 2.02341 2.50509
2 Al 1.78725 0.418691 3.91226
3 Al 1.79873 3.80292 1.16803
4 Ni -0.0931571 -0.0955841 -0.0355645
5 Ni -0.0593629 1.66309 5.01037
6 Ni 0.00746371 4.64381 2.4728
7 Ni 1.87911 1.14462 1.37323
8 Ni 1.8261 3.03924 3.5154
9 Al 0.00566909 1.51697 7.47319
10 Al 1.9008 -0.286124 8.77589
11 Al 1.88527 3.00332 5.94119
12 Ni -0.121273 -0.869691 4.94043
13 Ni 0.0259623 0.898265 9.90173
14 Ni 0.0867277 4.0744 7.42917
15 Ni 1.82174 0.362945 6.33566
16 Ni 1.99211 2.25536 8.59691
17 Al 0.0292147 7.12845 2.39718
18 Al 1.92169 5.53248 3.89692
19 Al 2.00168 8.63359 1.04011
20 Ni 0.0147835 4.9427 -0.0635645
21 Ni 0.139001 6.83878 4.82306
22 Ni 0.0621265 9.61718 2.37573
23 Ni 1.90508 6.26392 1.33434
24 Ni 1.9299 8.08995 3.49475
25 Al 0.13233 6.48137 7.28029
26 Al 2.0884 4.79645 8.76918
27 Al 1.96604 8.12272 6.08775
28 Ni -0.0393105 4.20847 4.95474
29 Ni 0.108848 5.98862 9.89612
30 Ni 0.0261656 8.95093 7.50158
31 Ni 1.95653 5.43918 6.26136
32 Ni 1.89935 7.27971 8.45109
33 Al 0.0536779 12.1759 2.59528
34 Al 1.8589 10.5069 3.90657
35 Al 1.97804 13.7286 1.19265
36 Ni 0.025418 10.0502 0.0138177
37 Ni 0.137166 11.7264 5.08913
38 Ni 0.0598889 14.5581 2.50074
39 Ni 1.93972 11.2075 1.4592
40 Ni 1.94388 13.1387 3.59921
41 Al 0.10185 11.5076 7.67528
42 Al 2.08856 9.64009 8.85221
43 Al 1.96487 13.0235 6.13824
44 Ni 0.0931557 9.30544 4.98949
45 Ni 0.180994 10.9331 10.0564
46 Ni 0.071332 14.0572 7.51569
47 Ni 1.92746 10.4345 6.52842
48 Ni 2.07741 12.4067 8.68299
49 Al 3.75703 2.10138 2.37938
50 Al 5.59171 0.407434 3.82326
51 Al 5.7319 3.59682 0.965017
52 Ni 3.83482 -0.00677811 0.0136944
53 Ni 3.69079 1.6958 4.80637
54 Ni 3.77441 4.71821 2.45155
55 Ni 5.78285 1.05806 1.34483
56 Ni 5.6833 3.12114 3.53238
57 Al 3.83035 1.31058 7.34264
58 Al 5.66225 -0.160194 8.80389
59 Al 5.70261 2.93974 6.03872
60 Ni 3.68746 -0.868219 4.97555
61 Ni 3.74534 0.939163 9.84877
62 Ni 3.81504 3.87155 7.42724
63 Ni 5.66972 0.421303 6.3235
64 Ni 5.72162 2.23515 8.53142
65 Al 3.89937 7.09345 2.48289
66 Al 5.7695 5.57315 3.7974
67 Al 5.85844 8.64937 0.970039
68 Ni 3.75884 5.06653 -0.0258558
69 Ni 3.89416 6.81065 4.93708
70 Ni 3.99628 9.53226 2.40131
71 Ni 5.858 6.04877 1.34152
72 Ni 5.82493 8.18947 3.50397
73 Al 3.89341 6.2978 7.39851
74 Al 5.7258 4.63479 8.84685
75 Al 5.7243 7.93128 6.00487
76 Ni 3.90593 4.1782 4.95216
77 Ni 4.02582 5.98119 9.9039
78 Ni 3.90901 8.92839 7.49304
79 Ni 5.79454 5.35444 6.24687
80 Ni 5.73451 7.31216 8.37896
81 Al 3.87316 12.0803 2.64341
82 Al 5.80746 10.6512 4.04371
83 Al 5.81029 13.6839 1.07704
84 Ni 3.79188 9.98476 -0.00758369
85 Ni 3.90353 11.7319 5.08818
86 Ni 3.85643 14.6249 2.52559
87 Ni 5.73628 11.2071 1.4352
88 Ni 5.74557 13.0887 3.62919
89 Al 3.90736 11.3517 7.55876
90 Al 5.86145 9.8482 8.90749
91 Al 5.84706 13.0252 6.00566
92 Ni 3.76333 9.41279 5.05242
93 Ni 3.93448 10.9934 10.1288
94 Ni 3.97756 13.9106 7.38105
95 Ni 5.77242 10.538 6.4118
96 Ni 5.78549 12.307 8.66619
97 Al 7.59394 2.11081 2.44045
98 Al 9.4089 0.537663 3.78779
99 Al 9.70701 3.67408 1.14185
100 Ni 7.52873 -0.116366 -0.0846382
101 Ni 7.54623 1.73433 4.92984
102 Ni 7.67304 4.6385 2.40387
103 Ni 9.48684 1.11513 1.47013
104 Ni 9.54399 2.99961 3.59651
105 Al 7.70184 1.26058 7.40569
106 Al 9.58346 -0.315265 8.89096
107 Al 9.5274 2.9957 6.00013
108 Ni 7.63203 -0.634982 4.96181
109 Ni 7.74245 0.867066 9.90966
110 Ni 7.64502 3.77758 7.42632
111 Ni 9.55933 0.370283 6.31063
112 Ni 9.54698 2.42189 8.61271
113 Al 7.70446 7.12774 2.53847
114 Al 9.55172 5.55287 3.83039
115 Al 9.41809 8.69885 1.03183
116 Ni 7.56858 4.84442 -0.1369
117 Ni 7.8071 6.81629 4.93273
118 Ni 7.80056 9.68907 2.5905
119 Ni 9.64178 6.15052 1.25264
120 Ni 9.68671 8.2132 3.6167
121 Al 7.68189 6.21367 7.43327
122 Al 9.59579 4.70255 8.80011
123 Al 9.59276 8.05771 6.00522
124 Ni 7.67164 4.28645 4.98569
125 Ni 7.7641 5.86131 9.92858
126 Ni 7.63011 8.76847 7.51806
127 Ni 9.73389 5.53537 6.23019
128 Ni 9.69869 7.37247 8.48972
129 Al 7.71788 12.064 2.50678
130 Al 9.7416 10.6357 3.99231
131 Al 9.68592 13.7645 1.08435
132 Ni 7.65745 10.0467 -0.0066572
133 Ni 7.82484 11.8378 5.07152
134 Ni 7.67134 14.6166 2.32601
135 Ni 9.69379 11.1863 1.57175
136 Ni 9.62343 13.1402 3.65907
137 Al 7.7306 11.315 7.5257
138 Al 9.56966 9.74655 9.01615
139 Al 9.59082 13.0056 6.20292
140 Ni 7.73968 9.25639 5.00533
141 Ni 7.84641 11.0656 10.0289
142 Ni 7.70903 14.0616 7.50917
143 Ni 9.62836 10.4905 6.46616
144 Ni 9.53626 12.3479 8.54273
ITEM: TIMESTEP
7800
ITEM: NUMBER OF ATOMS
144
ITEM: BOX BOUNDS xy xz yz pp pp pp
-1.0309101363718653e-01 1.1408204617862156e+01 -8.0743993763278177e-02
-1.5089479527778860e+00 1.5016874635343427e+01 -9.2024003591910080e-03
1.5108321752379972e-02 9.8876098589876342e+00 -1.5025717406518684e+00
ITEM: ATOMS id element xu yu zu
1 Al -0.0121205 2.27041 2.44303
2 Al 1.82969 0.499976 3.85266
3 Al 1.88207 3.67543 1.04881
4 Ni -0.0681928 -0.0591381 -0.032883
5 Ni 0.0242851 1.79296 4.8757
6 Ni -0.0328515 4.66243 2.34735
7 Ni 1.76836 1.09978 1.34673
8 Ni 1.86383 3.10025 3.56857
9 Al -0.0450326 1.27774 7.3788
10 Al 1.74258 -0.207422 8.70106
11 Al 1.85528 2.98635 6.00683
12 Ni 0.0382429 -0.644841 4.91702
13 Ni -0.0675104 0.989274 9.86693
14 Ni -0.0839854 3.74241 7.31332
15 Ni 1.84176 0.459715 6.2506
16 Ni 1.79717 2.34624 8.42464
17 Al -0.00206697 7.15736 2.45153
18 Al 1.83915 5.58349 3.89726
19 Al 1.8017 8.656 1.09399
20 Ni -0.116499 5.03819 0.0892602
21 Ni -0.139299 6.70362 4.8979
22 Ni -0.0488238 9.70844 2.61356
23 Ni 1.92541 6.08417 1.36112
24 Ni 1.87798 8.07413 3.59454
25 Al -0.104927 6.43097 7.4199
26 Al 1.88532 4.77673 8.73512
27 Al 1.83059 8.09562 6.08204
28 Ni -0.00426428 4.33182 4.92715
29 Ni -0.0786472 6.03452 9.82013
30 Ni 0.0174829 8.89778 7.4321
31 Ni 1.77873 5.44467 6.34221
32 Ni 1.98756 7.42408 8.57543
33 Al -0.163782 12.1253 2.61644
34 Al 1.80715 10.4904 3.97014
35 Al 1.75416 13.5986 1.24965
36 Ni -0.0348823 10.0785 0.0014321
37 Ni -0.193388 11.8588 5.04295
38 Ni -0.203359 14.631 2.40414
39 Ni 1.85971 11.2035 1.5066
40 Ni 1.7834 13.0136 3.72383
41 Al -0.122591 11.2809 7.54302
42 Al 1.93893 9.7503 8.8697
43 Al 1.81353 12.9829 6.16175
44 Ni -0.0986106 9.28731 4.99467
45 Ni -0.240267 10.9957 10.0466
46 Ni -0.156818 13.7544 7.35307
47 Ni 1.863 10.4765 6.37496
48 Ni 1.74605 12.2552 8.5927
49 Al 3.69447 2.05428 2.43774
50 Al 5.66569 0.68372 3.83896
51 Al 5.69071 3.83309 1.1173
52 Ni 3.7008 -0.0692624 0.104205
53 Ni 3.74955 1.86532 4.99581
54 Ni 3.77752 4.50181 2.526
55 Ni 5.63036 1.2681 1.39902
56 Ni 5.56253 3.08209 3.64822
57 Al 3.78009 1.25308 7.43802
58 Al 5.71568 -0.225595 8.83101
59 Al 5.5991 3.05977 6.03634
60 Ni 3.84067 -0.595185 5.05827
61 Ni 3.79039 0.918074 9.88423
62 Ni 3.72531 3.81566 7.47143
63 Ni 5.70571 0.44367 6.41144
64 Ni 5.64286 2.29621 8.50787
65 Al 3.71303 7.0818 2.5206
66 Al 5.67969 5.51117 3.91794
67 Al 5.56234 8.73754 1.1827
68 Ni 3.79605 4.93103 0.00823864
69 Ni 3.74999 6.78721 4.93187
70 Ni 3.66622 9.6762 2.56194
71 Ni 5.59832 6.32261 1.41322
72 Ni 5.65203 7.93808 3.60681
73 Al 3.86346 6.32833 7.42432
74 Al 5.62773 4.67714 8.8369
75 Al 5.62918 7.9437 6.11997
76 Ni 3.66483 4.3229 4.98603
77 Ni 3.67769 5.99411 9.8495
78 Ni 3.6875 8.79352 7.36308
79 Ni 5.66768 5.44234 6.40475
80 Ni 5.7069 7.21223 8.66927
81 Al 3.75254 12.2337 2.56551
82 Al 5.64826 10.5485 3.8504
83 Al 5.70082 13.8242 1.14477
84 Ni 3.79339 10.0002 0.03085
85 Ni 3.74234 11.8407 5.06151
86 Ni 3.67665 14.6705 2.51996
87 Ni 5.66738 11.2067 1.41615
88 Ni 5.587 13.156 3.75811
89 Al 3.74846 11.2714 7.50983
90 Al 5.64464 9.6665 8.71135
91 Al 5.50856 13.0094 6.13573
92 Ni 3.88067 9.18004 4.88667
93 Ni 3.74283 10.9908 9.92533
94 Ni 3.62822 13.8489 7.55144
95 Ni 5.56205 10.3809 6.24034
96 Ni 5.61522 12.2926 8.59
97 Al 7.57039 2.15385 2.43606
98 Al 9.51544 0.609058 3.85493
99 Al 9.50769 3.71783 1.1216
100 Ni 7.61758 -0.00849886 0.188996
101 Ni 7.64095 1.79425 5.04976
102 Ni 7.5275 4.62521 2.49114
103 Ni 9.48127 1.19841 1.28909
104 Ni 9.50343 3.11144 3.5509
105 Al 7.59679 1.31287 7.43048
106 Al 9.43041 -0.266488 8.74736
107 Al 9.50507 3.00092 5.90212
108 Ni 7.55204 -0.79798 5.02589
109 Ni 7.50792 1.10789 10.0029
110 Ni 7.59446 3.9153 7.40543
111 Ni 9.43068 0.480722 6.3688
112 Ni 9.52001 2.23285 8.47924
113 Al 7.46247 7.1513 2.40454
114 Al 9.40161 5.59904 3.79427
115 Al 9.40538 8.81954 1.10215
116 Ni 7.64661 5.06523 0.0575207
117 Ni 7.56121 6.79728 4.87605
118 Ni 7.51722 9.64753 2.42891
119 Ni 9.48017 6.26331 1.34754
120 Ni 9.41807 8.04427 3.49589
121 Al 7.52085 6.3895 7.34596
122 Al 9.40554 4.5886 8.8611
123 Al 9.41844 7.99381 5.97956
124 Ni 7.58152 4.26157 4.96573
125 Ni 7.57614 6.08092 9.79683
126 Ni 7.61888 8.96597 7.34859
127 Ni 9.40618 5.37156 6.27544
128 Ni 9.39275 7.37615 8.53393
129 Al 7.3967 12.1739 2.53455
130 Al 9.37108 10.6177 3.93804
131 Al 9.3434 13.757 1.11611
132 Ni 7.54499 9.97211 -0.0527064
133 Ni 7.34307 11.7718 4.97867
134 Ni 7.56987 14.8051 2.6944
135 Ni 9.37855 11.2326 1.27575
136 Ni 9.42414 13.1332 3.56595
137 Al 7.46027 11.3432 7.36479
138 Al 9.3032 9.74201 8.8186
139 Al 9.30467 12.9727 6.06142
140 Ni 7.56703 9.31294 4.97633
141 Ni 7.32283 10.919 9.89335
142 Ni 7.51002 13.72 7.4097
143 Ni 9.39639 10.4008 6.34937
144 Ni 9.33045 12.2756 8.55867
ITEM: TIMESTEP
7900
ITEM: NUMBER OF ATOMS
144
ITEM: BOX BOUNDS xy xz yz pp pp pp
-2.0170544157011222e-01 1.1451166660815808e+01 -8.8806163073379782e-02
-1.5675418981623177e+00 1.5049810376793488e+01 -5.6792616028354719e-02
-2.3686303452069346e-02 9.9264044841920693e+00 -1.5282299445862342e+00
ITEM: ATOMS id element xu yu zu
1 Al -0.0862254 2.20671 2.44807
2 Al 1.8026 0.592501 4.04724
3 Al 1.79199 3.79163 1.13434
4 Ni -0.0968379 0.0411102 0.0772692
5 Ni -0.141217 1.71137 5.05877
6 Ni -0.106204 4.58984 2.52531
7 Ni 1.91298 1.22938 1.47576
8 Ni 1.81871 3.04324 3.58156
9 Al -0.139004 1.29841 7.47705
10 Al 1.82942 -0.2963 8.80264
11 Al 1.8625 2.88006 6.10452
12 Ni -0.121452 -0.885164 5.01652
13 Ni -0.191496 0.98072 9.92709
14 Ni -0.138877 3.81478 7.41631
15 Ni 1.9147 0.373545 6.45017
16 Ni 1.72746 2.15518 8.5846
17 Al -0.214321 7.07331 2.55884
18 Al 1.87837 5.51283 3.91903
19 Al 1.74854 8.80221 1.01444
20 Ni -0.070999 4.9548 -0.0970593
21 Ni -0.14094 6.80254 5.05399
22 Ni -0.155763 9.60457 2.44645
23 Ni 1.69001 6.25864 1.4194
24 Ni 1.71192 8.19824 3.57327
25 Al -0.285465 6.19461 7.38357
26 Al 1.89724 4.65973 8.80386
27 Al 1.77707 7.95539 6.23255
28 Ni -0.182991 4.2006 5.06367
29 Ni -0.127724 5.93904 10.0931
30 Ni -0.221931 8.76014 7.39431
31 Ni 1.82928 5.32321 6.27442
32 Ni 1.54119 7.18138 8.58629
33 Al -0.1855 12.2385 2.4218
34 Al 1.74811 10.5762 3.70242
35 Al 1.80088 13.8364 1.06429
36 Ni -0.166717 9.98586 0.0324388
37 Ni -0.102019 11.7452 4.82315
38 Ni -0.0818328 14.7388 2.5498
39 Ni 1.71794 11.2938 1.25342
40 Ni 1.73727 13.2411 3.46462
41 Al -0.183824 11.3648 7.34997
42 Al 1.69228 9.73553 8.74272
43 Al 1.70852 12.9866 6.0248
44 Ni -0.182891 9.31834 4.90088
45 Ni -0.0824247 11.1824 9.79917
46 Ni -0.149957 13.9214 7.4871
47 Ni 1.69208 10.3193 6.32962
48 Ni 1.74771 12.3304 8.43702
49 Al 3.8278 2.15054 2.52015
50 Al 5.61792 0.445298 3.86178
51 Al 5.71166 3.63962 1.11655
52 Ni 3.85913 -0.00749491 0.0376408
53 Ni 3.79716 1.59333 5.02936
54 Ni 3.61345 4.73256 2.37136
55 Ni 5.71894 1.13329 1.49544
56 Ni 5.69602 3.07536 3.57574
57 Al 3.72723 1.35324 7.55723
58 Al 5.59211 -0.231712 8.94112
59 Al 5.6838 2.91858 5.99574
60 Ni 3.65739 -0.970606 4.98848
61 Ni 3.6921 1.01906 9.94914
62 Ni 3.76723 3.91219 7.38536
63 Ni 5.63395 0.321989 6.42845
64 Ni 5.66548 2.37841 8.59635
65 Al 3.64239 7.26606 2.48643
66 Al 5.60027 5.5739 3.8083
67 Al 5.5998 8.7184 0.902134
68 Ni 3.68502 4.95792 -0.11501
69 Ni 3.6661 6.70509 5.05948
70 Ni 3.6673 9.66684 2.45179
71 Ni 5.59868 6.04235 1.37428
72 Ni 5.54284 8.19247 3.54828
73 Al 3.66606 6.41521 7.53263
74 Al 5.54485 4.84279 8.76361
75 Al 5.48157 8.05358 5.97259
76 Ni 3.81143 4.20678 4.9187
77 Ni 3.63048 5.94925 10.0353
78 Ni 3.65605 8.91853 7.46785
79 Ni 5.60622 5.41142 6.29211
80 Ni 5.5107 7.39271 8.43066
81 Al 3.60942 12.2393 2.39053
82 Al 5.58682 10.6205 3.88914
83 Al 5.62532 13.7501 1.03809
84 Ni 3.60347 9.97676 -0.113537
85 Ni 3.64705 11.7925 4.86829
86 Ni 3.68192 14.7184 2.55728
87 Ni 5.58967 11.2399 1.33221
88 Ni 5.60004 13.0021 3.49265
89 Al 3.67925 11.3581 7.35094
90 Al 5.64032 9.83547 8.88342
91 Al 5.64301 12.9409 5.97419
92 Ni 3.48996 9.22358 5.01434
93 Ni 3.55793 11.0227 9.89581
94 Ni 3.70888 13.9914 7.44622
95 Ni 5.61281 10.4774 6.40646
96 Ni 5.58336 12.3048 8.63196
97 Al 7.53487 2.17934 2.42609
98 Al 9.47027 0.417746 3.82531
99 Al 9.49977 3.73279 1.11764
100 Ni 7.52199 0.00819094 0.00193992
101 Ni 7.5401 1.68344 4.87563
102 Ni 7.5425 4.70312 2.47192
103 Ni 9.45893 1.23898 1.45022
104 Ni 9.55974 3.0733 3.63757
105 Al 7.60786 1.26566 7.33968
106 Al 9.48387 -0.220261 8.87924
107 Al 9.41248 2.93432 6.01313
108 Ni 7.55237 -0.910497 4.99246
109 Ni 7.5846 0.863117 9.88677
110 Ni 7.56396 3.86464 7.49617
111 Ni 9.55065 0.233474 6.38193
112 Ni 9.46653 2.34139 8.57263
113 Al 7.45723 7.21581 2.5936
114 Al 9.45816 5.63058 3.9171
115 Al 9.34344 8.75404 1.12128
116 Ni 7.49414 5.01366 -0.0077761
117 Ni 7.47268 6.59938 5.01494
118 Ni 7.4641 9.67304 2.39349
119 Ni 9.46765 6.12669 1.40909
120 Ni 9.45235 8.08169 3.67999
121 Al 7.48912 6.31623 7.46628
122 Al 9.35891 4.66672 9.0263
123 Al 9.35085 8.07469 6.09362
124 Ni 7.54887 4.14109 4.87148
125 Ni 7.50716 5.98028 10.0762
126 Ni 7.43464 8.78983 7.5033
127 Ni 9.41893 5.40788 6.33492
128 Ni 9.53004 7.25131 8.56325
129 Al 7.42717 12.1251 2.39569
130 Al 9.43299 10.583 3.86694
131 Al 9.49716 13.8978 1.08535
132 Ni 7.55806 10.0713 0.0339679
133 Ni 7.60803 11.7157 4.88636
134 Ni 7.40056 14.6353 2.43386
135 Ni 9.39139 11.1933 1.43414
136 Ni 9.38188 13.0804 3.60981
137 Al 7.51208 11.3901 7.47891
138 Al 9.42763 9.69575 8.90674
139 Al 9.37093 12.9088 6.12543
140 Ni 7.44867 9.2109 4.88856
141 Ni 7.67395 11.0936 9.97184
142 Ni 7.4555 14.0308 7.52597
143 Ni 9.39334 10.4649 6.23233
144 Ni 9.51526 12.3831 8.54834
ITEM: TIMESTEP
8000
ITEM: NUMBER OF ATOMS
144
ITEM: BOX BOUNDS xy xz yz pp pp pp
-4.3808321094884306e-02 1.1576248800770317e+01 1.1333382735506915e-01
-1.5609174071281380e+00 1.5021715298428441e+01 2.4046653972941760e-02
8.1069843932626284e-03 9.8946111963467445e+00 -1.5497005319171062e+00
ITEM: ATOMS id element xu yu zu
1 Al -0.0929517 2.19531 2.51486
2 Al 1.85046 0.501072 3.86424
3 Al 1.93539 3.73627 1.28387
4 Ni 0.0353232 -0.065227 0.0565213
5 Ni 0.00513992 1.73175 4.96513
6 Ni -0.0962825 4.65754 2.58864
7 Ni 1.86187 1.24943 1.51903
8 Ni 1.77834 3.0636 3.63248
9 Al -0.0544454 1.30855 7.62574
10 Al 1.9562 -0.157451 8.76933
11 Al 1.8385 2.89801 6.1942
12 Ni -0.0203929 -0.760777 5.02249
13 Ni 0.0794598 0.968413 10.0443
14 Ni -0.00735945 3.85839 7.54722
15 Ni 1.86344 0.322876 6.40232
16 Ni 2.01138 2.38597 8.5912
17 Al -0.0921274 7.18476 2.45017
18 Al 2.03298 5.47759 3.89222
19 Al 1.85403 8.76039 1.01732
20 Ni -0.14462 5.09029 0.141735
21 Ni -0.0877717 6.61885 4.93666
22 Ni 0.00124559 9.74949 2.40666
23 Ni 1.94875 6.19853 1.39247
24 Ni 1.98301 7.95203 3.60093
25 Al -0.0494417 6.42505 7.40609
26 Al 1.91677 4.82174 8.95044
27 Al 2.05658 8.01408 6.17848
28 Ni 0.0045669 4.11202 4.94675
29 Ni -0.0896824 6.10861 9.86669
30 Ni -0.0150895 8.82223 7.4139
31 Ni 1.90009 5.4064 6.44196
32 Ni 2.03569 7.34922 8.56939
33 Al 0.0892794 12.1042 2.4332
34 Al 1.86959 10.3135 3.74461
35 Al 2.00157 13.7217 1.07306
36 Ni 0.0197908 10.0064 -0.0595614
37 Ni -0.0509855 11.6681 4.89568
38 Ni 0.0256791 14.5506 2.54746
39 Ni 2.00759 11.1916 1.28432
40 Ni 1.9962 12.9862 3.60342
41 Al 0.0602189 11.4228 7.28384
42 Al 2.02288 9.79721 8.64268
43 Al 2.01455 13.0376 5.95585
44 Ni -0.0531994 9.12939 4.99133
45 Ni 0.0194633 10.9256 9.8357
46 Ni 0.0713738 13.8414 7.51488
47 Ni 2.01583 10.4924 6.19488
48 Ni 1.92622 12.3449 8.55794
49 Al 3.85262 2.12778 2.61306
50 Al 5.71409 0.556445 3.69301
51 Al 5.76034 3.87481 1.09879
52 Ni 3.82054 -0.0535035 -0.0684721
53 Ni 3.75923 1.73337 4.98367
54 Ni 3.9191 4.57785 2.53842
55 Ni 5.69269 1.17635 1.31934
56 Ni 5.84093 3.08547 3.58359
57 Al 3.76885 1.23841 7.42739
58 Al 5.75529 -0.304082 8.80083
59 Al 5.66971 2.88502 5.93273
60 Ni 3.88198 -0.780611 4.90705
61 Ni 3.79973 0.929236 10.0344
62 Ni 3.73852 3.81972 7.45402
63 Ni 5.73118 0.432001 6.28279
64 Ni 5.71556 2.22665 8.51278
65 Al 3.80729 7.1931 2.39837
66 Al 5.82849 5.49057 3.99795
67 Al 5.79342 8.69507 1.14135
68 Ni 3.83879 5.12595 0.111719
69 Ni 3.8131 6.65952 4.92591
70 Ni 3.81011 9.69329 2.46368
71 Ni 5.73039 6.32858 1.49195
72 Ni 5.75492 7.90651 3.65818
73 Al 3.83605 6.43244 7.44732
74 Al 5.69623 4.72012 8.76653
75 Al 5.71899 8.0296 6.08069
76 Ni 3.68476 4.16581 4.95865
77 Ni 3.79282 6.01666 9.84766
78 Ni 3.88985 8.91563 7.33371
79 Ni 5.66632 5.33459 6.4025
80 Ni 5.67555 7.3658 8.70633
81 Al 3.86217 12.1955 2.43398
82 Al 5.84861 10.5394 3.79232
83 Al 5.77162 13.7664 1.03452
84 Ni 3.89658 10.0683 0.0575029
85 Ni 3.88205 11.6638 4.84124
86 Ni 3.903 14.6709 2.40273
87 Ni 5.77465 11.1561 1.4005
88 Ni 5.7907 13.0543 3.56071
89 Al 3.85491 11.3464 7.3099
90 Al 5.78174 9.80945 8.78513
91 Al 5.83944 12.9956 5.91443
92 Ni 3.97773 9.23753 4.92461
93 Ni 3.85209 10.9513 9.705
94 Ni 3.82008 13.8483 7.37376
95 Ni 5.80296 10.4078 6.29617
96 Ni 5.77246 12.4113 8.3449
97 Al 7.5693 1.96434 2.40363
98 Al 9.57791 0.408618 3.90654
99 Al 9.54708 3.74813 1.22078
100 Ni 7.69276 -0.032888 -0.0463567
101 Ni 7.60879 1.67213 5.07111
102 Ni 7.63997 4.50734 2.53643
103 Ni 9.60917 1.11276 1.40035
104 Ni 9.45218 2.93573 3.59897
105 Al 7.61511 1.2011 7.50767
106 Al 9.56506 -0.211418 8.87912
107 Al 9.59546 2.93557 6.0759
108 Ni 7.6941 -0.822856 4.92447
109 Ni 7.65584 0.97482 9.99874
110 Ni 7.52889 3.82127 7.47767
111 Ni 9.48929 0.517655 6.37634
112 Ni 9.56828 2.26014 8.61403
113 Al 7.68622 7.07322 2.56227
114 Al 9.46691 5.4724 4.00207
115 Al 9.38754 8.87479 1.13844
116 Ni 7.77504 5.08291 0.0258246
117 Ni 7.63021 6.79667 5.01146
118 Ni 7.69449 9.55517 2.6446
119 Ni 9.50208 6.25801 1.45282
120 Ni 9.50145 8.03995 3.5935
121 Al 7.63929 6.36669 7.36695
122 Al 9.52557 4.70185 8.87484
123 Al 9.57504 7.89765 6.09833
124 Ni 7.57011 4.27467 5.10113
125 Ni 7.64037 5.98289 9.94618
126 Ni 7.67686 8.99217 7.42167
127 Ni 9.56145 5.35128 6.47128
128 Ni 9.46315 7.35201 8.60544
129 Al 7.75303 12.0328 2.38852
130 Al 9.55358 10.5544 3.98098
131 Al 9.66014 13.7114 0.987758
132 Ni 7.60813 10.0424 -0.0228357
133 Ni 7.66826 11.7569 5.00615
134 Ni 7.8775 14.5724 2.42302
135 Ni 9.68338 11.1806 1.20878
136 Ni 9.77122 13.0449 3.51259
137 Al 7.67355 11.4319 7.39597
138 Al 9.59724 9.81362 8.76927
139 Al 9.68077 13.0064 6.05548
140 Ni 7.72101 9.20546 5.01776
141 Ni 7.56228 10.933 9.83837
142 Ni 7.78515 13.8342 7.3237
143 Ni 9.58315 10.3109 6.29917
144 Ni 9.6804 12.2771 8.52447
ITEM: TIMESTEP
8100
ITEM: NUMBER OF ATOMS
144
ITEM: BOX BOUNDS xy xz yz pp pp pp
-4.9923930579470976e-02 1.1529715540230177e+01 7.0521582815662467e-02
-1.5983167563123928e+00 1.5026100713659329e+01 1.4210028487620437e-02
-2.2015972743760770e-03 9.9049197780143956e+00 -1.5827144658704828e+00
ITEM: ATOMS id element xu yu zu
1 Al -0.0478756 2.0694 2.55903
2 Al 1.94329 0.496557 3.70849
3 Al 1.85124 3.53163 1.19135
4 Ni -0.196355 0.0462961 -0.102626
5 Ni -0.104935 1.60755 5.02486
6 Ni -0.0134051 4.47411 2.48345
7 Ni 1.80777 1.0862 1.29195
8 Ni 2.03122 2.93227 3.63653
9 Al -0.0864351 1.32705 7.53515
10 Al 1.83331 -0.264515 8.61284
11 Al 1.86503 3.02556 6.10254
12 Ni -0.0801018 -0.913203 4.74821
13 Ni -0.163574 0.888467 9.88425
14 Ni 0.00148954 3.93409 7.50099
15 Ni 1.81817 0.430418 6.18812
16 Ni 1.74773 2.23797 8.60375
17 Al -0.0586261 6.98181 2.52798
18 Al 1.95806 5.35537 3.90661
19 Al 1.92915 8.80265 1.01477
20 Ni 0.0382117 4.96106 0.0607675
21 Ni -0.0917349 6.73522 4.99758
22 Ni 0.0365146 9.40886 2.44482
23 Ni 1.91078 6.17049 1.47095
24 Ni 1.85357 8.1068 3.47443
25 Al -0.0141385 6.43234 7.42335
26 Al 1.99295 4.66549 8.98659
27 Al 1.95785 7.88646 6.04547
28 Ni -0.0942231 4.25945 5.08664
29 Ni 0.0918034 5.78514 9.96544
30 Ni 0.00730305 9.0209 7.39659
31 Ni 1.80716 5.47388 6.29196
32 Ni 1.88646 7.34687 8.47615
33 Al -0.0342561 12.1294 2.51656
34 Al 2.0315 10.5452 3.88025
35 Al 1.9253 13.7213 0.95294
36 Ni -0.00180677 10.0743 0.0634553
37 Ni 0.134254 11.7335 4.90063
38 Ni -0.022667 14.6643 2.3689
39 Ni 1.89267 11.1457 1.50399
40 Ni 1.90873 13.0308 3.52353
41 Al 0.0147269 11.567 7.42185
42 Al 2.02344 9.80017 8.86383
43 Al 1.96599 13.0847 5.97782
44 Ni 0.028421 9.2717 4.85144
45 Ni 0.0208867 10.9962 9.96171
46 Ni 0.0336741 13.939 7.30867
47 Ni 1.9222 10.2851 6.4355
48 Ni 1.97316 12.256 8.44216
49 Al 3.7482 1.9251 2.40384
50 Al 5.6619 0.502293 3.93034
51 Al 5.61474 3.58766 1.32684
52 Ni 3.69721 0.129781 0.0278273
53 Ni 3.84387 1.69338 4.9458
54 Ni 3.65488 4.48178 2.63272
55 Ni 5.7159 1.17178 1.43272
56 Ni 5.5033 2.95051 3.73338
57 Al 3.70411 1.33805 7.40677
58 Al 5.64124 -0.398868 8.8183
59 Al 5.74563 2.91128 6.11514
60 Ni 3.70508 -0.755824 4.93498
61 Ni 3.73413 0.920167 9.7799
62 Ni 3.78997 3.84182 7.66474
63 Ni 5.67121 0.420536 6.44884
64 Ni 5.64472 2.29568 8.63256
65 Al 3.79967 6.95097 2.63194
66 Al 5.82726 5.42039 4.00336
67 Al 5.70184 8.69591 1.03287
68 Ni 3.70992 4.94215 0.118623
69 Ni 3.80911 6.75326 5.02635
70 Ni 3.83762 9.52609 2.52749
71 Ni 5.65075 6.01031 1.49201
72 Ni 5.79224 8.09438 3.59976
73 Al 3.73366 6.31914 7.54439
74 Al 5.73402 4.72225 8.80404
75 Al 5.71397 8.04231 6.0419
76 Ni 3.87439 4.27182 5.12534
77 Ni 3.87369 5.90765 10.1153
78 Ni 3.73881 8.76736 7.41935
79 Ni 5.81771 5.42594 6.39406
80 Ni 5.80359 7.1739 8.49408
81 Al 3.86995 12.0899 2.52872
82 Al 5.72391 10.4992 3.77128
83 Al 5.71951 13.8214 1.09875
84 Ni 3.79189 10.0294 0.0434007
85 Ni 3.86715 11.8473 4.96798
86 Ni 3.87226 14.5625 2.46434
87 Ni 5.77531 11.2886 1.2691
88 Ni 5.75401 13.0804 3.53282
89 Al 3.8561 11.2817 7.39529
90 Al 5.77587 9.6532 8.81856
91 Al 5.80217 12.9922 5.95919
92 Ni 3.73483 9.16805 4.99245
93 Ni 3.89544 11.0292 10.0294
94 Ni 3.80211 13.9287 7.42942
95 Ni 5.65841 10.4188 6.28367
96 Ni 5.82452 12.1771 8.59739
97 Al 7.65461 2.10133 2.5559
98 Al 9.52787 0.427559 3.85678
99 Al 9.48391 3.63987 1.19387
100 Ni 7.50846 0.0681897 0.0105175
101 Ni 7.65659 1.74645 5.03579
102 Ni 7.62699 4.59404 2.5711
103 Ni 9.51233 1.19429 1.36756
104 Ni 9.6509 3.09065 3.73081
105 Al 7.56404 1.17525 7.45165
106 Al 9.44662 -0.209665 8.76926
107 Al 9.63839 2.92165 6.18627
108 Ni 7.56803 -0.72561 4.96026
109 Ni 7.63137 0.948121 9.86113
110 Ni 7.70579 3.8899 7.56542
111 Ni 9.60205 0.297888 6.36491
112 Ni 9.54418 2.2828 8.58659
113 Al 7.72977 7.09761 2.43262
114 Al 9.54564 5.49875 3.8199
115 Al 9.62669 8.75276 0.982619
116 Ni 7.487 4.91292 0.155047
117 Ni 7.67518 6.66077 4.97598
118 Ni 7.62156 9.6305 2.37145
119 Ni 9.59469 6.01581 1.33989
120 Ni 9.53738 7.95873 3.56458
121 Al 7.80809 6.26091 7.37933
122 Al 9.547 4.70456 8.88558
123 Al 9.63169 8.06159 6.05045
124 Ni 7.68049 4.17279 5.00022
125 Ni 7.62668 5.9764 9.93367
126 Ni 7.66673 8.6568 7.45168
127 Ni 9.53729 5.54223 6.25984
128 Ni 9.59703 7.32019 8.5091
129 Al 7.7186 12.1091 2.36831
130 Al 9.56795 10.4455 3.92033
131 Al 9.50561 13.7543 1.02921
132 Ni 7.69522 10.0064 0.00480843
133 Ni 7.68173 11.7305 4.78619
134 Ni 7.56063 14.7126 2.45176
135 Ni 9.50832 11.1326 1.40608
136 Ni 9.46792 13.085 3.50267
137 Al 7.6056 11.2938 7.25319
138 Al 9.64875 9.77048 8.80359
139 Al 9.60469 12.937 5.92617
140 Ni 7.61461 9.2739 4.9668
141 Ni 7.80964 11.0085 9.82554
142 Ni 7.60089 13.8684 7.40602
143 Ni 9.68527 10.5326 6.25236
144 Ni 9.45943 12.3136 8.4354
ITEM: TIMESTEP
8200
ITEM: NUMBER OF ATOMS
144
ITEM: BOX BOUNDS xy xz yz pp pp pp
-2.4108433490163331e-01 1.1459531277363855e+01 -1.2254603921885680e-01
-1.6368732077781505e+00 1.5043015079866937e+01 -5.4067016666355688e-02
-8.8859826871372505e-03 9.9116041634271639e+00 -1.6043565511286439e+00
ITEM: ATOMS id element xu yu zu
1 Al -0.19065 2.03039 2.42799
2 Al 1.89465 0.481931 3.79262
3 Al 1.81524 3.61833 1.06467
4 Ni -0.0554138 -0.121541 -0.120993
5 Ni -0.159485 1.80454 4.89539
6 Ni -0.0668346 4.62077 2.51808
7 Ni 1.8287 1.09454 1.3562
8 Ni 1.69026 3.06915 3.52051
9 Al -0.196622 1.29276 7.41337
10 Al 1.78914 -0.294733 8.73302
11 Al 1.76578 2.98027 6.07341
12 Ni -0.206251 -0.722114 4.99567
13 Ni -0.128596 0.884073 9.87008
14 Ni -0.200645 3.7179 7.41489
15 Ni 1.78662 0.347612 6.43665
16 Ni 1.82287 2.23469 8.51256
17 Al -0.098491 7.12149 2.4556
18 Al 1.92649 5.40408 3.91226
19 Al 1.70644 8.68588 1.21017
20 Ni -0.18738 5.05731 0.00189034
21 Ni -0.10762 6.75226 4.9423
22 Ni -0.216269 9.73313 2.49537
23 Ni 1.736 6.07735 1.42106
24 Ni 1.73872 8.00869 3.77161
25 Al -0.0281104 6.33976 7.36311
26 Al 1.72393 4.56803 8.99553
27 Al 1.88148 8.02467 6.19236
28 Ni -0.0952512 4.25527 5.02665
29 Ni -0.296965 5.99505 9.9743
30 Ni -0.188535 8.71065 7.5053
31 Ni 1.87425 5.32048 6.54291
32 Ni 1.75566 7.13431 8.6622
33 Al -0.166033 12.1965 2.54032
34 Al 1.73403 10.5332 3.8672
35 Al 1.74946 13.6911 1.02387
36 Ni -0.182615 9.96076 -0.0206703
37 Ni -0.37399 11.7904 5.08892
38 Ni -0.2461 14.5674 2.33232
39 Ni 1.67478 11.0963 1.24062
40 Ni 1.79713 13.1012 3.65975
41 Al -0.247731 11.3432 7.55666
42 Al 1.74225 9.67047 8.77177
43 Al 1.64195 13.0905 6.10928
44 Ni -0.263156 9.26175 5.04026
45 Ni -0.25206 10.8711 9.93009
46 Ni -0.382001 13.8643 7.33715
47 Ni 1.67146 10.5823 6.38281
48 Ni 1.66555 12.3371 8.64723
49 Al 3.6756 2.13465 2.57461
50 Al 5.54951 0.438942 3.8634
51 Al 5.66525 3.69649 1.09831
52 Ni 3.8866 -0.223207 -0.0724691
53 Ni 3.59373 1.74166 4.9853
54 Ni 3.73795 4.62319 2.48302
55 Ni 5.63505 1.07362 1.41157
56 Ni 5.64462 3.16879 3.51048
57 Al 3.76706 1.14545 7.4343
58 Al 5.60734 -0.361545 8.75896
59 Al 5.58203 2.82433 5.94414
60 Ni 3.74368 -0.863486 4.94419
61 Ni 3.71209 0.797186 10.0134
62 Ni 3.7784 3.78817 7.44042
63 Ni 5.6981 0.340043 6.26142
64 Ni 5.64611 2.1837 8.47582
65 Al 3.65079 6.98428 2.50361
66 Al 5.61444 5.50591 4.00611
67 Al 5.62768 8.57117 1.05125
68 Ni 3.78755 4.9607 -0.0682865
69 Ni 3.63822 6.80912 5.10295
70 Ni 3.67416 9.67731 2.39451
71 Ni 5.62324 6.21436 1.39639
72 Ni 5.52701 8.02744 3.57588
73 Al 3.66821 6.44057 7.56203
74 Al 5.56296 4.69211 8.85485
75 Al 5.65403 7.96565 6.0978
76 Ni 3.59732 4.23319 4.94975
77 Ni 3.61162 5.87294 9.85726
78 Ni 3.72593 8.88191 7.43389
79 Ni 5.5993 5.34436 6.41007
80 Ni 5.57804 7.3581 8.54398
81 Al 3.68948 12.0855 2.51684
82 Al 5.57904 10.4885 3.85889
83 Al 5.51107 13.6965 1.13695
84 Ni 3.68286 9.94016 -0.08888
85 Ni 3.58343 11.7706 5.0378
86 Ni 3.60579 14.5842 2.42513
87 Ni 5.54603 11.0315 1.40027
88 Ni 5.52534 13.0396 3.56807
89 Al 3.58626 11.3246 7.45871
90 Al 5.47559 9.7854 8.90588
91 Al 5.58005 12.8934 6.00358
92 Ni 3.66678 9.20821 4.90076
93 Ni 3.53911 10.7745 9.89624
94 Ni 3.61866 13.839 7.43737
95 Ni 5.58218 10.3865 6.35473
96 Ni 5.57519 12.3811 8.51251
97 Al 7.58432 2.01416 2.541
98 Al 9.56998 0.453611 3.81089
99 Al 9.45769 3.73516 1.1885
100 Ni 7.58616 -0.137463 -0.00184326
101 Ni 7.45951 1.62175 4.94879
102 Ni 7.46924 4.62492 2.49925
103 Ni 9.39315 1.18224 1.39585
104 Ni 9.38966 2.99452 3.47851
105 Al 7.52225 1.1879 7.50559
106 Al 9.49173 -0.243588 8.78546
107 Al 9.46176 2.90079 5.97194
108 Ni 7.5087 -0.922002 4.94158
109 Ni 7.54889 0.810448 10.0753
110 Ni 7.50871 3.88243 7.46041
111 Ni 9.36669 0.42221 6.25308
112 Ni 9.48654 2.23312 8.63529
113 Al 7.58678 7.12735 2.61116
114 Al 9.55456 5.37757 3.94396
115 Al 9.40965 8.80337 1.06365
116 Ni 7.66618 5.01821 0.0134725
117 Ni 7.53882 6.71645 4.97848
118 Ni 7.53759 9.62601 2.46734
119 Ni 9.45597 6.21947 1.49145
120 Ni 9.50533 8.14506 3.5676
121 Al 7.56266 6.28556 7.44529
122 Al 9.46281 4.66043 8.78901
123 Al 9.45195 7.80722 6.12525
124 Ni 7.46027 4.27543 4.95965
125 Ni 7.56759 5.87387 9.91472
126 Ni 7.52128 8.96437 7.32953
127 Ni 9.52995 5.33709 6.43828
128 Ni 9.48061 7.26016 8.60079
129 Al 7.53939 12.0364 2.49059
130 Al 9.40749 10.6103 3.89231
131 Al 9.27533 13.6471 1.03192
132 Ni 7.52605 9.92776 -0.017919
133 Ni 7.46814 11.7393 4.98278
134 Ni 7.50123 14.6612 2.52575
135 Ni 9.40655 11.1991 1.29418
136 Ni 9.39457 13.0978 3.57634
137 Al 7.47934 11.4638 7.40966
138 Al 9.33112 9.6977 8.7822
139 Al 9.32384 12.9856 6.03379
140 Ni 7.56324 9.33947 4.84972
141 Ni 7.32505 10.8362 9.87027
142 Ni 7.43439 13.9172 7.49894
143 Ni 9.39591 10.39 6.30978
144 Ni 9.38078 12.2504 8.50158
ITEM: TIMESTEP
8300
ITEM: NUMBER OF ATOMS
144
ITEM: BOX BOUNDS xy xz yz pp pp pp
-1.0563512546734261e-01 1.1426976774978804e+01 -7.2433430546559624e-02
-1.6144329309773029e+00 1.5017439342801804e+01 -1.2849182894150381e-03
9.1059171917882153e-03 9.8936122635482313e+00 -1.6074920113929536e+00
ITEM: ATOMS id element xu yu zu
1 Al -0.0299225 2.19974 2.50365
2 Al 2.04335 0.632027 3.80382
3 Al 1.78541 3.82583 1.12572
4 Ni 0.0369771 0.0384303 0.262921
5 Ni -0.131024 1.79585 4.98903
6 Ni -0.172805 4.64302 2.49354
7 Ni 1.868 1.20663 1.47814
8 Ni 1.92875 3.09464 3.59176
9 Al 0.0441752 1.13 7.35305
10 Al 1.8384 -0.415027 8.84958
11 Al 1.83777 2.98626 5.8991
12 Ni -0.0309039 -0.826777 5.12864
13 Ni -0.035912 0.861431 9.86974
14 Ni -0.0570276 3.66349 7.49428
15 Ni 1.92089 0.357283 6.24179
16 Ni 1.77566 2.13156 8.51204
17 Al -0.0239112 7.1275 2.52729
18 Al 1.85904 5.48344 3.74785
19 Al 1.82831 8.7735 1.10908
20 Ni -0.00310489 4.91371 -0.00540579
21 Ni -0.248008 6.79891 5.15895
22 Ni -0.059573 9.55984 2.53507
23 Ni 1.86724 6.27254 1.38333
24 Ni 1.87489 8.14221 3.52887
25 Al -0.121616 6.18487 7.39507
26 Al 1.84804 4.57163 8.78747
27 Al 1.93581 7.79291 5.97126
28 Ni -0.178844 4.22349 4.88592
29 Ni -0.00118758 5.82914 9.90886
30 Ni -0.207774 8.78823 7.4268
31 Ni 1.75921 5.38799 6.17746
32 Ni 1.71647 7.26118 8.42705
33 Al -0.0440203 12.1069 2.43703
34 Al 1.8635 10.6339 3.81522
35 Al 1.76798 13.7877 1.11127
36 Ni -0.135949 9.97818 0.0498848
37 Ni -0.0158018 11.7593 4.79395
38 Ni -0.118153 14.6566 2.73982
39 Ni 1.87667 11.2126 1.43436
40 Ni 1.72323 13.148 3.61979
41 Al -0.117071 11.1417 7.36669
42 Al 1.76196 9.63452 8.88792
43 Al 1.78987 12.9257 6.10747
44 Ni -0.0336678 9.26766 4.97943
45 Ni -0.075354 10.9907 9.8846
46 Ni -0.0170109 13.6922 7.66886
47 Ni 1.87752 10.2469 6.25204
48 Ni 1.72975 12.0763 8.49339
49 Al 3.80133 2.18512 2.43642
50 Al 5.78881 0.470165 3.92308
51 Al 5.67305 3.5932 1.14271
52 Ni 3.61196 -0.0185849 0.0715192
53 Ni 3.92653 1.69893 4.89975
54 Ni 3.742 4.634 2.38704
55 Ni 5.63989 1.09273 1.31022
56 Ni 5.70073 2.98604 3.55792
57 Al 3.78287 1.26953 7.46309
58 Al 5.64707 -0.412686 8.65215
59 Al 5.61733 2.91424 6.03543
60 Ni 3.85421 -0.741841 4.95626
61 Ni 3.73133 0.92279 9.77975
62 Ni 3.63492 3.85786 7.29879
63 Ni 5.62174 0.428383 6.39179
64 Ni 5.63097 2.2958 8.52436
65 Al 3.84483 7.00655 2.57372
66 Al 5.76697 5.37438 3.79315
67 Al 5.6221 8.77799 1.19613
68 Ni 3.70542 4.99175 -0.0359417
69 Ni 3.71453 6.60715 4.86971
70 Ni 3.67577 9.65265 2.57185
71 Ni 5.65063 6.17088 1.43078
72 Ni 5.6861 8.03544 3.60153
73 Al 3.68192 6.38002 7.52006
74 Al 5.55028 4.66511 8.77673
75 Al 5.54239 7.86617 6.21066
76 Ni 3.84095 4.16239 4.83368
77 Ni 3.75136 5.77557 10.0115
78 Ni 3.70606 8.79999 7.46356
79 Ni 5.65439 5.42737 6.2066
80 Ni 5.57441 7.13063 8.607
81 Al 3.73094 12.1967 2.50753
82 Al 5.64161 10.4911 3.8617
83 Al 5.48577 13.7879 1.12568
84 Ni 3.7291 10.0078 0.0463996
85 Ni 3.74334 11.7383 4.87234
86 Ni 3.66798 14.6772 2.58376
87 Ni 5.56967 11.3341 1.4148
88 Ni 5.53052 13.1002 3.59342
89 Al 3.71182 11.2285 7.3372
90 Al 5.55374 9.70821 8.87164
91 Al 5.62234 12.9486 6.10661
92 Ni 3.74181 9.27313 5.02484
93 Ni 3.69039 10.9026 9.83142
94 Ni 3.68153 13.8602 7.46522
95 Ni 5.65439 10.5025 6.31693
96 Ni 5.56157 12.1755 8.53181
97 Al 7.71649 2.14614 2.32056
98 Al 9.57044 0.559173 3.87483
99 Al 9.45799 3.67143 0.946084
100 Ni 7.58 0.0269352 -0.00858279
101 Ni 7.6852 1.75856 4.89625
102 Ni 7.6658 4.62175 2.4521
103 Ni 9.56691 1.16127 1.47144
104 Ni 9.53248 3.10787 3.56299
105 Al 7.5761 1.27224 7.27668
106 Al 9.51909 -0.306903 8.74082
107 Al 9.5865 2.95526 6.05979
108 Ni 7.66129 -0.7441 4.9311
109 Ni 7.60517 0.930285 9.68252
110 Ni 7.55934 3.8209 7.3942
111 Ni 9.50221 0.329256 6.38203
112 Ni 9.60422 2.1415 8.4289
113 Al 7.51844 7.08257 2.48897
114 Al 9.47314 5.48425 3.8634
115 Al 9.47486 8.77264 1.07146
116 Ni 7.50348 4.99601 -0.0825694
117 Ni 7.4497 6.72647 5.00316
118 Ni 7.46124 9.60776 2.61005
119 Ni 9.41327 6.1697 1.37325
120 Ni 9.33307 8.01289 3.66302
121 Al 7.41736 6.19522 7.53634
122 Al 9.462 4.59487 8.79399
123 Al 9.41095 7.90224 6.14504
124 Ni 7.56621 4.17667 4.91195
125 Ni 7.5267 5.89364 9.97482
126 Ni 7.53623 8.74143 7.50054
127 Ni 9.25061 5.35782 6.32562
128 Ni 9.41201 7.20028 8.56289
129 Al 7.50089 12.0821 2.63622
130 Al 9.4346 10.4569 3.95461
131 Al 9.47881 13.6633 1.26093
132 Ni 7.58674 10.0967 0.0461738
133 Ni 7.51226 11.7124 5.0328
134 Ni 7.45053 14.5959 2.36033
135 Ni 9.45334 11.1987 1.48503
136 Ni 9.50472 13.0243 3.64718
137 Al 7.55606 11.4058 7.56926
138 Al 9.44947 9.61821 8.88532
139 Al 9.56682 12.835 6.0707
140 Ni 7.45064 9.1177 5.06823
141 Ni 7.68125 10.9879 10.0735
142 Ni 7.504 13.8244 7.35669
143 Ni 9.27399 10.4012 6.4389
144 Ni 9.44627 12.1731 8.67457
ITEM: TIMESTEP
8400
ITEM: NUMBER OF ATOMS
144
ITEM: BOX BOUNDS xy xz yz pp pp pp
-7.2997527042351962e-02 1.1603453915924831e+01 9.0842892294037261e-02
-1.6150622027960444e+00 1.5032383937841315e+01 4.4553498241013345e-02
-1.1068213179010300e-02 9.9137863939190289e+00 -1.5931766881721665e+00
ITEM: ATOMS id element xu yu zu
1 Al -0.0184075 2.17551 2.43222
2 Al 1.98786 0.42283 3.82975
3 Al 1.84048 3.80479 0.957263
4 Ni -0.0931181 -0.035901 -0.077046
5 Ni -0.0611081 1.59917 4.94899
6 Ni 0.0260554 4.61191 2.4344
7 Ni 1.888 1.126 1.3425
8 Ni 1.87259 3.01726 3.51257
9 Al -0.0315101 1.34198 7.45332
10 Al 1.85888 -0.309073 8.88583
11 Al 1.89857 2.87111 5.93355
12 Ni -0.0291803 -0.903299 4.9037
13 Ni -0.0579939 0.945815 9.89609
14 Ni -0.0475208 3.83944 7.29835
15 Ni 1.87603 0.259033 6.55291
16 Ni 1.86978 2.31934 8.51189
17 Al -0.0060181 7.153 2.35813
18 Al 1.97061 5.51044 3.83677
19 Al 1.8124 8.78858 1.18427
20 Ni -0.110628 5.06436 -0.116069
21 Ni -0.0332252 6.64538 4.73731
22 Ni -0.0225952 9.69117 2.50907
23 Ni 1.80647 6.13164 1.36891
24 Ni 1.78695 8.02098 3.56175
25 Al -0.0284821 6.28791 7.40317
26 Al 1.88147 4.69597 8.75393
27 Al 1.81712 7.83243 6.02849
28 Ni -0.0221241 4.1663 4.91657
29 Ni -0.141081 5.94448 9.92699
30 Ni -0.0179558 8.72167 7.45246
31 Ni 1.88408 5.30632 6.3495
32 Ni 1.88798 7.16857 8.56987
33 Al 0.0379894 12.1661 2.62059
34 Al 1.92952 10.507 3.92189
35 Al 1.93535 13.8127 1.09291
36 Ni -0.0837959 10.0485 0.028419
37 Ni -0.0396591 11.6817 5.11309
38 Ni 0.107344 14.7154 2.46047
39 Ni 1.86146 11.2401 1.38223
40 Ni 2.00633 13.0364 3.59172
41 Al 0.0452013 11.2616 7.66226
42 Al 1.95931 9.70107 8.87606
43 Al 1.8477 12.8617 6.13628
44 Ni -0.119754 9.14807 4.97097
45 Ni 0.001104 10.8398 9.95557
46 Ni 0.00161519 13.8476 7.37013
47 Ni 1.89907 10.3889 6.44196
48 Ni 1.97852 12.3794 8.61338
49 Al 3.78676 2.19057 2.46497
50 Al 5.69363 0.456432 3.85133
51 Al 5.6459 3.67807 0.967674
52 Ni 3.92717 0.0851115 0.0496728
53 Ni 3.70267 1.68375 4.85399
54 Ni 3.83225 4.60385 2.40696
55 Ni 5.75672 1.30315 1.43128
56 Ni 5.70243 3.10031 3.5261
57 Al 3.82881 1.15664 7.41048
58 Al 5.73523 -0.296935 8.65189
59 Al 5.64161 2.92083 5.92842
60 Ni 3.73562 -0.807526 4.97223
61 Ni 3.86497 0.914014 9.95274
62 Ni 3.87313 3.70444 7.472
63 Ni 5.80823 0.309705 6.21631
64 Ni 5.75941 2.16703 8.3754
65 Al 3.83313 7.12625 2.34508
66 Al 5.65598 5.53905 3.82037
67 Al 5.77583 8.82086 1.1319
68 Ni 3.77723 5.07485 -0.0618109
69 Ni 3.80704 6.79259 4.97361
70 Ni 3.88204 9.72108 2.53725
71 Ni 5.69136 6.21596 1.26484
72 Ni 5.69895 8.0847 3.59432
73 Al 3.82843 6.38677 7.3793
74 Al 5.78919 4.72595 8.84102
75 Al 5.77077 7.8241 6.11362
76 Ni 3.73058 4.23798 5.00517
77 Ni 3.8043 6.05934 9.74552
78 Ni 3.80643 8.76474 7.47468
79 Ni 5.73785 5.35636 6.40086
80 Ni 5.71219 7.28784 8.48588
81 Al 3.89862 12.1564 2.56484
82 Al 5.84174 10.5507 3.97889
83 Al 5.78897 13.8866 1.18634
84 Ni 3.78269 10.1274 0.0879189
85 Ni 3.86313 11.6167 5.06736
86 Ni 3.93414 14.7194 2.47643
87 Ni 5.89983 11.1786 1.46963
88 Ni 5.93476 13.073 3.6003
89 Al 3.88485 11.242 7.575
90 Al 5.64414 9.76679 8.97425
91 Al 5.81215 12.852 6.22502
92 Ni 3.77982 9.18659 4.9856
93 Ni 3.90583 10.9486 10.0293
94 Ni 3.87527 13.7998 7.43798
95 Ni 5.73403 10.3036 6.52846
96 Ni 5.78675 12.3248 8.63171
97 Al 7.65038 2.12699 2.41163
98 Al 9.7225 0.547086 3.83147
99 Al 9.56722 3.72494 1.04554
100 Ni 7.64564 -0.040928 0.064635
101 Ni 7.57079 1.64433 4.98651
102 Ni 7.54174 4.54571 2.40461
103 Ni 9.56102 1.20663 1.32303
104 Ni 9.5078 3.03746 3.63146
105 Al 7.73163 1.18919 7.38768
106 Al 9.5812 -0.284769 8.75236
107 Al 9.65213 2.96256 5.95664
108 Ni 7.56083 -0.826696 5.00079
109 Ni 7.69392 0.925765 9.99531
110 Ni 7.69701 3.74292 7.37377
111 Ni 9.54739 0.295984 6.33582
112 Ni 9.50849 2.25255 8.56235
113 Al 7.598 7.05758 2.45767
114 Al 9.597 5.38496 3.72533
115 Al 9.58888 8.70564 1.05881
116 Ni 7.67794 4.97985 -0.0528196
117 Ni 7.6568 6.7524 4.95722
118 Ni 7.73065 9.62776 2.53396
119 Ni 9.5949 6.15162 1.32271
120 Ni 9.60823 8.07343 3.59934
121 Al 7.60415 6.27188 7.36789
122 Al 9.52089 4.68579 8.74209
123 Al 9.6394 7.8993 6.05203
124 Ni 7.66851 4.25563 4.90054
125 Ni 7.63539 5.92263 9.88287
126 Ni 7.6352 8.83908 7.6176
127 Ni 9.63034 5.38372 6.31983
128 Ni 9.57326 7.28712 8.61285
129 Al 7.71876 12.1264 2.55082
130 Al 9.64365 10.5838 3.85065
131 Al 9.64416 13.6594 1.07175
132 Ni 7.61075 9.99603 0.122443
133 Ni 7.75279 11.7452 5.07035
134 Ni 7.8424 14.6279 2.54808
135 Ni 9.62701 11.2106 1.39714
136 Ni 9.6705 13.1077 3.69881
137 Al 7.76779 11.3238 7.53273
138 Al 9.57956 9.62843 8.90521
139 Al 9.63887 12.8651 6.06243
140 Ni 7.6907 9.28814 4.97636
141 Ni 7.65815 10.9162 9.95524
142 Ni 7.72317 13.8145 7.56071
143 Ni 9.71239 10.3222 6.43126
144 Ni 9.70552 12.2162 8.52823
ITEM: TIMESTEP
8500
ITEM: NUMBER OF ATOMS
144
ITEM: BOX BOUNDS xy xz yz pp pp pp
-4.2097542226087199e-02 1.1437509645721780e+01 9.3478682820407472e-03
-1.5666976466090570e+00 1.5022291081433174e+01 -8.9957631337780428e-03
1.2291171556952918e-03 9.9014890635843340e+00 -1.5549049883933175e+00
ITEM: ATOMS id element xu yu zu
1 Al 0.00394874 2.07973 2.49919
2 Al 1.89995 0.393597 3.65001
3 Al 1.85618 3.82836 1.09901
4 Ni -0.0290217 0.0642698 -0.095522
5 Ni -0.0674958 1.70143 4.94796
6 Ni -0.106618 4.65056 2.41287
7 Ni 1.79232 1.17971 1.33349
8 Ni 1.86457 2.93586 3.6201
9 Al -0.0222682 1.38244 7.49355
10 Al 1.88934 -0.314431 8.68982
11 Al 1.8521 2.98478 5.96904
12 Ni -0.148322 -0.797607 4.89152
13 Ni -0.0809258 0.929122 9.95825
14 Ni -0.0631166 3.87721 7.40126
15 Ni 1.80707 0.524944 6.06871
16 Ni 1.92052 2.23621 8.55112
17 Al -0.0150852 7.13438 2.42781
18 Al 1.85525 5.47784 3.8316
19 Al 1.83284 8.76639 1.13828
20 Ni -0.0238638 4.98498 0.11284
21 Ni -0.0673814 6.71098 5.08866
22 Ni -0.121345 9.62036 2.5026
23 Ni 1.91784 6.23976 1.36326
24 Ni 1.87758 8.06711 3.65921
25 Al -0.0561039 6.37572 7.42591
26 Al 1.87409 4.70536 8.69803
27 Al 1.85944 7.88939 6.08856
28 Ni -0.0550436 4.16295 4.94447
29 Ni 0.0345661 5.9952 9.82701
30 Ni -0.0163529 9.02001 7.52883
31 Ni 1.82653 5.42356 6.27317
32 Ni 1.95177 7.36005 8.46695
33 Al -0.0298312 12.0912 2.67101
34 Al 1.87656 10.486 4.00699
35 Al 1.9112 13.7736 1.20458
36 Ni 0.0203637 10.0468 0.0482998
37 Ni -0.0213218 11.7631 5.06061
38 Ni -0.124161 14.53 2.30841
39 Ni 1.90121 11.1128 1.59014
40 Ni 1.84956 13.0465 3.66967
41 Al -0.112657 11.5756 7.59303
42 Al 1.85184 9.9329 9.00769
43 Al 1.8307 12.9768 6.22427
44 Ni 0.0481717 9.16482 5.05973
45 Ni -0.0133655 11.1054 10.0894
46 Ni 0.0163924 13.9606 7.35149
47 Ni 1.93032 10.485 6.47055
48 Ni 1.86758 12.2987 8.61642
49 Al 3.76792 2.0444 2.45639
50 Al 5.6623 0.483701 4.06169
51 Al 5.64496 3.71718 1.17813
52 Ni 3.66293 -0.0405153 -0.0158786
53 Ni 3.75607 1.70123 4.98357
54 Ni 3.75613 4.6255 2.53993
55 Ni 5.67857 0.992301 1.43575
56 Ni 5.63168 3.06315 3.55898
57 Al 3.65043 1.31935 7.39613
58 Al 5.61235 -0.292196 8.79165
59 Al 5.71525 2.91759 6.05526
60 Ni 3.79397 -0.795964 4.99399
61 Ni 3.77679 1.00273 9.85329
62 Ni 3.6794 3.87958 7.33904
63 Ni 5.60691 0.296248 6.50385
64 Ni 5.61123 2.27997 8.67588
65 Al 3.77874 7.09091 2.46932
66 Al 5.58291 5.5367 3.73037
67 Al 5.78569 8.81855 1.09579
68 Ni 3.79597 4.97699 -0.00055436
69 Ni 3.7094 6.6456 4.95797
70 Ni 3.7242 9.56308 2.4645
71 Ni 5.65474 6.23768 1.437
72 Ni 5.68067 8.07696 3.52296
73 Al 3.8155 6.44502 7.45386
74 Al 5.65918 4.82129 8.87481
75 Al 5.6085 7.82761 6.01497
76 Ni 3.81643 4.14641 4.88625
77 Ni 3.77508 5.9067 10.0028
78 Ni 3.8296 8.82501 7.53625
79 Ni 5.68346 5.35709 6.23063
80 Ni 5.69872 7.23479 8.46615
81 Al 3.67435 12.0479 2.64903
82 Al 5.66362 10.5003 3.87341
83 Al 5.7533 13.6948 1.1358
84 Ni 3.82922 10.0197 -0.000987174
85 Ni 3.77189 11.7602 5.06477
86 Ni 3.75408 14.4709 2.50679
87 Ni 5.56438 11.1219 1.45599
88 Ni 5.65702 13.0491 3.64554
89 Al 3.83085 11.2923 7.52714
90 Al 5.68036 9.72801 8.84595
91 Al 5.77338 12.9623 6.22147
92 Ni 3.80284 9.21619 4.98178
93 Ni 3.80702 10.9469 10.0551
94 Ni 3.84943 13.8492 7.52512
95 Ni 5.6689 10.4622 6.25113
96 Ni 5.7638 12.2258 8.60078
97 Al 7.46292 2.22209 2.38794
98 Al 9.52645 0.532978 3.8764
99 Al 9.44776 3.76449 1.04165
100 Ni 7.57866 0.0118192 -0.00467512
101 Ni 7.62228 1.71185 4.94517
102 Ni 7.63373 4.81368 2.51558
103 Ni 9.42395 1.19861 1.45916
104 Ni 9.53792 3.01557 3.50169
105 Al 7.64757 1.18965 7.47119
106 Al 9.47079 -0.250939 8.80955
107 Al 9.5303 2.98666 5.96698
108 Ni 7.63847 -0.799493 5.01274
109 Ni 7.59091 0.974273 9.91417
110 Ni 7.54399 3.86159 7.42325
111 Ni 9.51642 0.459979 6.28022
112 Ni 9.44509 2.28991 8.57985
113 Al 7.59666 7.2421 2.36173
114 Al 9.57065 5.43839 3.72503
115 Al 9.6193 8.71831 1.00593
116 Ni 7.57954 5.11301 -0.017225
117 Ni 7.59217 6.64108 4.83707
118 Ni 7.52715 9.66976 2.52174
119 Ni 9.45548 6.31261 1.33419
120 Ni 9.49954 8.064 3.52292
121 Al 7.61756 6.34879 7.26282
122 Al 9.50378 4.72847 8.76598
123 Al 9.61794 8.0131 5.97088
124 Ni 7.55809 4.16149 4.88031
125 Ni 7.64435 5.98321 9.80589
126 Ni 7.66086 8.80606 7.28299
127 Ni 9.52721 5.31735 6.2344
128 Ni 9.54714 7.29572 8.46418
129 Al 7.45562 12.0778 2.50676
130 Al 9.53166 10.5112 3.84463
131 Al 9.37396 13.707 1.14049
132 Ni 7.65741 10.0094 -0.0298891
133 Ni 7.55353 11.7003 4.93744
134 Ni 7.42812 14.7017 2.61297
135 Ni 9.53515 11.1912 1.45598
136 Ni 9.39609 13.0261 3.59029
137 Al 7.5943 11.298 7.4322
138 Al 9.61885 9.6981 8.94364
139 Al 9.50232 12.9364 5.98381
140 Ni 7.62658 9.2177 4.93098
141 Ni 7.66191 10.9256 9.937
142 Ni 7.56447 13.8024 7.42422
143 Ni 9.5525 10.4529 6.40701
144 Ni 9.34408 12.3693 8.60457
ITEM: TIMESTEP
8600
ITEM: NUMBER OF ATOMS
144
ITEM: BOX BOUNDS xy xz yz pp pp pp
-1.9733102084019735e-01 1.1423779957380615e+01 -1.3118124601195350e-01
-1.5281007545925345e+00 1.5030724653685340e+01 -3.7429815795057060e-02
-1.7960471701263359e-02 9.9206786524413104e+00 -1.5078745241246443e+00
ITEM: ATOMS id element xu yu zu
1 Al -0.111602 1.96015 2.43433
2 Al 1.79533 0.505755 4.05736
3 Al 1.7702 3.65326 1.05275
4 Ni -0.0802494 -0.0402203 0.121548
5 Ni -0.144015 1.84955 4.90845
6 Ni -0.0685895 4.50655 2.49241
7 Ni 1.85072 1.00964 1.43106
8 Ni 1.74515 3.09395 3.55224
9 Al -0.134961 1.31579 7.36326
10 Al 1.75547 -0.297576 8.86029
11 Al 1.82029 2.94761 6.02295
12 Ni -0.0507953 -0.741619 5.02614
13 Ni -0.202312 1.10802 9.82411
14 Ni -0.0334756 3.95867 7.43931
15 Ni 1.8278 0.344177 6.55517
16 Ni 1.75486 2.35974 8.55383
17 Al -0.194961 7.06311 2.46285
18 Al 1.88318 5.60761 3.91011
19 Al 1.81255 8.67315 1.1803
20 Ni -0.08807 4.98323 -0.0908877
21 Ni -0.0480594 6.93842 4.90745
22 Ni 0.0261723 9.56352 2.49404
23 Ni 1.78806 6.00514 1.42809
24 Ni 1.84402 8.0215 3.52478
25 Al -0.140708 6.36776 7.3566
26 Al 1.77587 4.83833 8.8122
27 Al 1.7191 7.97498 6.00212
28 Ni -0.163896 4.32047 5.02837
29 Ni -0.218096 6.06466 10.0096
30 Ni -0.213327 8.72696 7.3573
31 Ni 1.85884 5.53308 6.33994
32 Ni 1.7002 7.23632 8.62143
33 Al -0.18384 12.1034 2.529
34 Al 1.79175 10.5051 3.82258
35 Al 1.7405 13.7625 1.12908
36 Ni -0.278034 9.96331 0.0308018
37 Ni -0.169981 11.852 4.99187
38 Ni -0.11037 14.7072 2.61512
39 Ni 1.75933 11.2109 1.27465
40 Ni 1.73129 13.0815 3.54992
41 Al -0.194689 11.4683 7.40254
42 Al 1.68587 9.85762 8.75622
43 Al 1.62739 12.9613 6.14636
44 Ni -0.173294 9.40389 4.92152
45 Ni -0.318389 10.965 9.93343
46 Ni -0.287325 13.8594 7.56327
47 Ni 1.71646 10.489 6.29945
48 Ni 1.72413 12.3852 8.56875
49 Al 3.67696 2.09867 2.55975
50 Al 5.72667 0.437363 3.82263
51 Al 5.62857 3.6617 0.962422
52 Ni 3.82099 -0.115637 0.0350757
53 Ni 3.66512 1.72303 4.96782
54 Ni 3.8092 4.49883 2.34975
55 Ni 5.65672 1.30929 1.37981
56 Ni 5.60528 2.95769 3.67178
57 Al 3.60956 1.3574 7.51765
58 Al 5.53023 -0.224557 8.73517
59 Al 5.67757 3.07965 6.03996
60 Ni 3.72087 -0.717301 4.94567
61 Ni 3.64235 0.930365 9.9344
62 Ni 3.72726 3.78755 7.53347
63 Ni 5.63989 0.532177 6.24709
64 Ni 5.63747 2.32038 8.44431
65 Al 3.7281 6.94579 2.33265
66 Al 5.56578 5.40174 3.78915
67 Al 5.6603 8.77056 1.14723
68 Ni 3.69055 4.9636 -0.000534026
69 Ni 3.81843 6.76555 4.93393
70 Ni 3.71361 9.57111 2.49816
71 Ni 5.64315 6.06156 1.25486
72 Ni 5.68449 8.0186 3.55421
73 Al 3.68524 6.61205 7.49144
74 Al 5.64554 4.77968 8.876
75 Al 5.55681 7.90775 6.04024
76 Ni 3.66545 4.28118 5.03339
77 Ni 3.73021 5.94398 9.86142
78 Ni 3.72825 8.96799 7.38592
79 Ni 5.598 5.47321 6.38468
80 Ni 5.58625 7.33592 8.57707
81 Al 3.6252 12.1253 2.40753
82 Al 5.61435 10.5416 3.87084
83 Al 5.56465 13.8059 1.1181
84 Ni 3.6763 9.98159 -0.0190096
85 Ni 3.60326 11.7333 4.95312
86 Ni 3.57523 14.7331 2.5687
87 Ni 5.63659 11.2325 1.2569
88 Ni 5.49036 13.0942 3.53549
89 Al 3.62747 11.4096 7.3714
90 Al 5.46479 9.82822 8.81849
91 Al 5.49794 13.1995 6.20007
92 Ni 3.7048 9.28487 4.93288
93 Ni 3.58633 11.0077 9.8392
94 Ni 3.55207 13.9839 7.46503
95 Ni 5.60812 10.3984 6.44439
96 Ni 5.55188 12.4062 8.4818
97 Al 7.55298 2.10379 2.42954
98 Al 9.41078 0.400132 4.06873
99 Al 9.4758 3.68488 1.03731
100 Ni 7.54446 0.0138302 0.0837786
101 Ni 7.53043 1.72126 4.98485
102 Ni 7.51799 4.42884 2.4921
103 Ni 9.44922 1.20373 1.22568
104 Ni 9.48915 3.15607 3.73228
105 Al 7.61978 1.33231 7.48506
106 Al 9.36835 -0.233481 8.84684
107 Al 9.51962 3.10287 6.0908
108 Ni 7.47265 -0.82045 5.002
109 Ni 7.51342 0.971308 9.8878
110 Ni 7.60013 3.95322 7.48421
111 Ni 9.38932 0.39128 6.39867
112 Ni 9.54893 2.36324 8.47733
113 Al 7.55957 6.97978 2.37977
114 Al 9.36447 5.54968 3.83472
115 Al 9.5119 8.66714 1.14244
116 Ni 7.58185 4.93808 -0.0240336
117 Ni 7.50104 6.81624 4.97986
118 Ni 7.53944 9.55883 2.40217
119 Ni 9.53434 6.05267 1.37501
120 Ni 9.4009 8.11652 3.59458
121 Al 7.55878 6.42274 7.43759
122 Al 9.41552 4.82517 8.86648
123 Al 9.38887 8.04151 6.02658
124 Ni 7.60231 4.23354 5.11066
125 Ni 7.49274 5.93595 9.96753
126 Ni 7.4724 8.92022 7.57926
127 Ni 9.43384 5.55463 6.46161
128 Ni 9.40639 7.34941 8.53256
129 Al 7.4722 12.1219 2.5367
130 Al 9.34797 10.5466 3.7238
131 Al 9.38826 13.7378 1.06118
132 Ni 7.44814 10.0589 0.00909961
133 Ni 7.48822 11.7721 4.96517
134 Ni 7.50594 14.5561 2.38457
135 Ni 9.31907 11.2516 1.35207
136 Ni 9.40854 13.0913 3.65628
137 Al 7.43959 11.5588 7.41619
138 Al 9.38629 9.84237 8.829
139 Al 9.34175 13.0171 6.02475
140 Ni 7.45338 9.23848 4.97248
141 Ni 7.38388 11.143 9.88002
142 Ni 7.39324 14.0533 7.52484
143 Ni 9.3453 10.4408 6.36424
144 Ni 9.42365 12.334 8.55738
ITEM: TIMESTEP
8700
ITEM: NUMBER OF ATOMS
144
ITEM: BOX BOUNDS xy xz yz pp pp pp
-6.0811648277079675e-02 1.1489945906224518e+01 -2.0310593647353253e-02
-1.5209624168098301e+00 1.5061193907322323e+01 5.4384853247375124e-02
-1.5125286471633359e-02 9.9178434672116875e+00 -1.4702669327049520e+00
ITEM: ATOMS id element xu yu zu
1 Al -0.0707564 2.09072 2.58064
2 Al 1.84908 0.510416 3.91118
3 Al 1.90301 3.78966 1.12144
4 Ni 0.0207289 -0.150699 0.000349546
5 Ni 0.0199961 1.76549 5.08921
6 Ni -0.0763542 4.75571 2.53554
7 Ni 1.84221 1.24141 1.50067
8 Ni 1.9558 3.00253 3.64286
9 Al -0.150344 1.27956 7.54698
10 Al 1.95696 -0.249254 8.70086
11 Al 1.90679 2.92937 6.12019
12 Ni -0.0585528 -0.744946 5.07965
13 Ni 0.0111956 0.893356 10.0078
14 Ni -0.140045 3.75371 7.5196
15 Ni 1.975 0.463225 6.31788
16 Ni 1.86182 2.25994 8.56499
17 Al -0.128062 7.189 2.50104
18 Al 1.8587 5.64266 3.91411
19 Al 1.82925 8.70829 1.14727
20 Ni -0.0987162 4.89452 0.0729327
21 Ni -0.0588983 6.71342 5.10206
22 Ni -0.233042 9.62029 2.35392
23 Ni 1.92844 6.28401 1.43548
24 Ni 1.85336 8.17084 3.64098
25 Al -0.0542242 6.36786 7.46054
26 Al 1.85463 4.76901 8.80976
27 Al 1.73996 7.95485 6.04973
28 Ni 0.0656949 4.21819 4.94361
29 Ni 0.0317259 5.97919 9.97982
30 Ni -0.0245346 8.95932 7.40513
31 Ni 1.80044 5.43946 6.37385
32 Ni 1.97007 7.35383 8.42026
33 Al -0.0592937 12.1272 2.37506
34 Al 1.79172 10.4953 3.69553
35 Al 1.89689 13.9245 1.0344
36 Ni 0.0465567 10.0458 -0.126338
37 Ni -0.039525 11.8136 4.80934
38 Ni -0.010645 14.5471 2.51129
39 Ni 1.82687 11.087 1.26524
40 Ni 1.82399 13.161 3.50071
41 Al -0.0776435 11.562 7.24132
42 Al 1.94673 9.97141 8.75235
43 Al 1.8173 12.9875 5.98986
44 Ni -0.0303941 9.17289 4.90669
45 Ni 0.0020382 11.026 9.75347
46 Ni 0.107721 13.9163 7.49336
47 Ni 1.8511 10.5388 6.19735
48 Ni 1.81464 12.3926 8.42418
49 Al 3.7737 2.09856 2.55108
50 Al 5.5791 0.448203 3.94542
51 Al 5.68269 3.68947 1.17037
52 Ni 3.66878 0.0726336 0.0565618
53 Ni 3.84796 1.80437 5.00176
54 Ni 3.71386 4.71125 2.54223
55 Ni 5.65197 0.988386 1.41186
56 Ni 5.75557 3.14316 3.50274
57 Al 3.85874 1.37372 7.54452
58 Al 5.75339 -0.205037 8.81611
59 Al 5.76397 3.06692 6.00206
60 Ni 3.85154 -0.725822 5.00953
61 Ni 3.92376 1.00394 10.0054
62 Ni 3.77839 4.05771 7.38271
63 Ni 5.77454 0.356916 6.37664
64 Ni 5.67222 2.36467 8.69479
65 Al 3.72737 7.07255 2.54591
66 Al 5.58367 5.59405 3.88136
67 Al 5.71578 8.66984 1.12055
68 Ni 3.81711 4.98315 0.0176416
69 Ni 3.73786 6.81569 5.04907
70 Ni 3.81432 9.69707 2.35723
71 Ni 5.69795 6.15566 1.46604
72 Ni 5.61671 8.1404 3.72402
73 Al 3.75486 6.52713 7.44036
74 Al 5.70489 4.80817 9.00992
75 Al 5.60519 8.09226 6.06476
76 Ni 3.82727 4.28853 4.91881
77 Ni 3.74881 6.0681 9.95556
78 Ni 3.80028 8.97225 7.44319
79 Ni 5.72531 5.57362 6.35447
80 Ni 5.61159 7.51834 8.54605
81 Al 3.74344 12.2116 2.3882
82 Al 5.65177 10.5715 3.82241
83 Al 5.81967 13.5604 1.03876
84 Ni 3.80605 10.0524 -0.0350961
85 Ni 3.80391 11.7801 4.77714
86 Ni 3.85274 14.5391 2.42095
87 Ni 5.69398 11.0855 1.4417
88 Ni 5.79338 13.141 3.48469
89 Al 3.71639 11.4934 7.32382
90 Al 5.64858 9.88588 8.86662
91 Al 5.74366 13.2468 6.04381
92 Ni 3.78604 9.33147 4.96546
93 Ni 3.76951 11.0774 9.86409
94 Ni 3.8138 13.9671 7.43041
95 Ni 5.57728 10.6577 6.24608
96 Ni 5.57276 12.483 8.61734
97 Al 7.54057 2.00575 2.40525
98 Al 9.57432 0.429964 3.99898
99 Al 9.52675 3.67693 1.17106
100 Ni 7.62047 -0.197575 -0.0440413
101 Ni 7.59609 1.77014 4.96313
102 Ni 7.66168 4.64203 2.44838
103 Ni 9.59353 1.02335 1.46985
104 Ni 9.45403 3.00864 3.46648
105 Al 7.54647 1.33238 7.53159
106 Al 9.48591 -0.280223 8.86576
107 Al 9.57536 3.09215 5.91308
108 Ni 7.73617 -0.675194 4.91651
109 Ni 7.72199 0.97391 9.99949
110 Ni 7.55392 3.96986 7.37722
111 Ni 9.51578 0.51751 6.29139
112 Ni 9.45403 2.28044 8.69008
113 Al 7.5653 7.18596 2.58967
114 Al 9.42854 5.52735 3.85651
115 Al 9.54521 8.62111 1.14111
116 Ni 7.5848 4.99586 0.0791731
117 Ni 7.59334 6.86291 5.04997
118 Ni 7.53545 9.66085 2.55146
119 Ni 9.46324 6.22827 1.43766
120 Ni 9.57303 8.02241 3.62701
121 Al 7.663 6.42919 7.52215
122 Al 9.5078 4.76599 8.90611
123 Al 9.52115 8.03638 6.15584
124 Ni 7.56313 4.27427 4.85746
125 Ni 7.58535 6.00082 9.94798
126 Ni 7.5273 9.04267 7.44283
127 Ni 9.49602 5.39623 6.38486
128 Ni 9.54341 7.28699 8.64759
129 Al 7.76127 12.1136 2.51132
130 Al 9.48747 10.5155 3.80816
131 Al 9.51301 13.7279 1.0302
132 Ni 7.55678 9.93979 -0.00741829
133 Ni 7.62756 11.8986 4.94362
134 Ni 7.55651 14.6945 2.50372
135 Ni 9.52474 11.0804 1.31308
136 Ni 9.56866 13.1128 3.56628
137 Al 7.53234 11.5522 7.52406
138 Al 9.57325 9.84928 8.75918
139 Al 9.51552 13.1251 6.1293
140 Ni 7.65618 9.3007 4.89506
141 Ni 7.66746 10.9171 10.0472
142 Ni 7.55471 13.9831 7.30626
143 Ni 9.48713 10.5464 6.32627
144 Ni 9.59584 12.3769 8.56172
ITEM: TIMESTEP
8800
ITEM: NUMBER OF ATOMS
144
ITEM: BOX BOUNDS xy xz yz pp pp pp
-2.8413248362607391e-02 1.1561551494353957e+01 7.2534565223129358e-02
-1.4695792124968208e+00 1.5003153749077683e+01 6.5543682420805285e-02
-3.8533417789343716e-03 9.9065715225189876e+00 -1.4769238866365770e+00
ITEM: ATOMS id element xu yu zu
1 Al -0.0935117 2.18743 2.50785
2 Al 1.81167 0.551886 3.84713
3 Al 1.96048 3.71964 1.23003
4 Ni -0.0611366 0.0721788 -0.108466
5 Ni 0.0355204 1.62454 5.02536
6 Ni -0.0741771 4.56484 2.49578
7 Ni 1.94757 1.08632 1.37925
8 Ni 1.99437 3.04608 3.67486
9 Al 0.0803564 1.50897 7.51424
10 Al 1.89016 -0.182834 8.66842
11 Al 1.91632 3.00269 6.06461
12 Ni 0.0438095 -0.739201 4.69767
13 Ni -0.0212404 1.06805 9.9751
14 Ni 0.0969497 3.98911 7.4101
15 Ni 1.91847 0.475145 6.32096
16 Ni 2.05379 2.37443 8.71341
17 Al -0.082565 7.16907 2.53426
18 Al 1.86179 5.53368 3.8779
19 Al 1.89649 8.76284 1.18592
20 Ni -0.0216612 5.08764 0.041494
21 Ni 0.0202531 6.77468 4.97345
22 Ni 0.159531 9.67307 2.56671
23 Ni 1.81676 6.16714 1.39227
24 Ni 1.87876 7.99005 3.65684
25 Al 0.0470155 6.48093 7.36086
26 Al 1.88333 4.87518 8.90734
27 Al 1.86835 7.96804 6.04953
28 Ni -0.0897775 4.1949 5.04773
29 Ni -0.0118866 5.95392 9.98444
30 Ni 0.057952 8.92603 7.45751
31 Ni 1.90966 5.51815 6.36958
32 Ni 1.88974 7.31558 8.64283
33 Al 0.022619 12.1972 2.53781
34 Al 1.8757 10.4758 3.91282
35 Al 1.93069 13.7963 1.05865
36 Ni -0.128365 9.97952 0.102849
37 Ni 0.0655635 11.8105 4.95943
38 Ni -0.0114202 14.8197 2.31648
39 Ni 1.95529 11.3233 1.36632
40 Ni 1.98521 12.9806 3.50095
41 Al 0.141166 11.5376 7.53478
42 Al 1.96907 9.79985 8.82623
43 Al 1.858 12.9976 6.0877
44 Ni -0.00386306 9.33075 5.05822
45 Ni 0.0503481 11.0033 9.94504
46 Ni 0.0617466 14.029 7.28114
47 Ni 2.00265 10.4707 6.38927
48 Ni 2.0706 12.4251 8.54757
49 Al 3.81853 2.14321 2.43975
50 Al 5.67489 0.506433 3.88987
51 Al 5.69423 3.7978 1.1164
52 Ni 3.85359 -0.0211711 -0.0979259
53 Ni 3.80569 1.735 4.97262
54 Ni 3.92119 4.59192 2.59093
55 Ni 5.80539 1.25667 1.3346
56 Ni 5.62248 3.09624 3.75913
57 Al 3.85883 1.32958 7.51582
58 Al 5.71103 -0.217365 8.73383
59 Al 5.77453 2.96141 6.11324
60 Ni 3.8468 -0.74549 4.86379
61 Ni 3.80552 1.10883 9.89437
62 Ni 3.87183 3.74457 7.57401
63 Ni 5.67444 0.46524 6.35188
64 Ni 5.76908 2.35404 8.51676
65 Al 3.73564 6.9588 2.48208
66 Al 5.62304 5.56367 3.88943
67 Al 5.67826 8.81379 1.11982
68 Ni 3.72135 5.08288 0.0822176
69 Ni 3.84107 6.76329 4.91308
70 Ni 3.76938 9.68646 2.56095
71 Ni 5.67356 6.29126 1.34891
72 Ni 5.81142 8.16211 3.48913
73 Al 3.78639 6.38771 7.52091
74 Al 5.81696 4.70378 8.9105
75 Al 5.64669 7.88672 5.94017
76 Ni 3.84301 4.27001 5.09872
77 Ni 3.86062 6.02385 9.97168
78 Ni 3.87822 8.82089 7.44197
79 Ni 5.76215 5.36286 6.34686
80 Ni 5.74001 7.21925 8.5772
81 Al 3.92223 12.1894 2.44904
82 Al 5.66566 10.5732 3.79939
83 Al 5.8537 13.7236 0.95493
84 Ni 3.74299 10.1027 -0.0426357
85 Ni 3.79087 11.859 5.03542
86 Ni 3.86439 14.6847 2.47098
87 Ni 5.747 11.2902 1.24873
88 Ni 5.62257 13.088 3.61407
89 Al 3.94022 11.2961 7.4312
90 Al 5.82078 9.61594 8.75746
91 Al 5.8262 13.0795 6.13237
92 Ni 3.80682 9.30944 4.94945
93 Ni 3.91471 11.0189 9.89123
94 Ni 3.94621 13.9887 7.39506
95 Ni 5.93681 10.3282 6.40805
96 Ni 5.91393 12.2609 8.3536
97 Al 7.6777 2.27067 2.59956
98 Al 9.42971 0.488115 3.97993
99 Al 9.40906 3.77496 1.15946
100 Ni 7.62228 0.00903804 -0.0420327
101 Ni 7.69138 1.78837 5.03168
102 Ni 7.55032 4.69757 2.5701
103 Ni 9.46154 1.30857 1.36626
104 Ni 9.5821 3.13631 3.74223
105 Al 7.60949 1.24191 7.4695
106 Al 9.53549 -0.126378 8.85368
107 Al 9.60895 2.95359 6.17981
108 Ni 7.55259 -0.815251 4.99629
109 Ni 7.6149 0.978725 9.91974
110 Ni 7.70205 3.87342 7.54746
111 Ni 9.64799 0.390076 6.41748
112 Ni 9.67228 2.29831 8.51052
113 Al 7.62356 7.08492 2.46947
114 Al 9.46705 5.53886 3.90483
115 Al 9.66938 8.72966 1.17071
116 Ni 7.56696 4.92091 -0.0474157
117 Ni 7.66045 6.71832 4.97245
118 Ni 7.66875 9.64587 2.41844
119 Ni 9.53905 6.13394 1.37938
120 Ni 9.41723 8.17281 3.60287
121 Al 7.6156 6.30302 7.48895
122 Al 9.65362 4.80323 8.87507
123 Al 9.57093 7.96298 6.04736
124 Ni 7.67348 4.25395 5.11593
125 Ni 7.69793 5.99329 9.99126
126 Ni 7.75953 8.86155 7.39144
127 Ni 9.5337 5.45157 6.40401
128 Ni 9.57305 7.31216 8.42573
129 Al 7.65648 12.1994 2.39416
130 Al 9.5261 10.5842 3.77538
131 Al 9.58491 13.87 0.890256
132 Ni 7.62505 9.92227 -0.133913
133 Ni 7.71956 11.7017 4.95419
134 Ni 7.7901 14.5921 2.45604
135 Ni 9.552 11.2453 1.35768
136 Ni 9.51295 13.1271 3.45661
137 Al 7.78536 11.4114 7.33904
138 Al 9.68318 9.87502 8.74916
139 Al 9.6421 13.0149 6.02253
140 Ni 7.65433 9.31467 4.96313
141 Ni 7.74701 11.0481 9.70016
142 Ni 7.77434 13.9 7.53165
143 Ni 9.65794 10.5085 6.30632
144 Ni 9.62171 12.3324 8.43807
ITEM: TIMESTEP
8900
ITEM: NUMBER OF ATOMS
144
ITEM: BOX BOUNDS xy xz yz pp pp pp
-1.3499145896545500e-01 1.1444932734409239e+01 -3.9924432336648170e-02
-1.5936709806276772e+00 1.5064231751503804e+01 -4.5194290566985873e-02
-1.8215506783495705e-02 9.9209336875235579e+00 -1.5399376523413313e+00
ITEM: ATOMS id element xu yu zu
1 Al -0.227354 2.0732 2.38795
2 Al 1.65196 0.550957 3.78902
3 Al 1.90525 3.77236 1.02857
4 Ni -0.034572 -0.0286497 0.00493272
5 Ni -0.0698881 1.80708 4.95674
6 Ni -0.0358112 4.65155 2.54246
7 Ni 1.76449 1.31413 1.34703
8 Ni 1.72113 2.98862 3.55406
9 Al -0.170817 1.24625 7.40823
10 Al 1.78998 -0.303642 8.7287
11 Al 1.72003 2.96319 6.03892
12 Ni -0.145998 -0.847804 5.00403
13 Ni -0.0803492 0.920423 9.87637
14 Ni -0.18463 3.80559 7.5398
15 Ni 1.70834 0.271805 6.26292
16 Ni 1.71422 2.26696 8.45937
17 Al 0.03477 7.18625 2.40325
18 Al 1.86954 5.64922 3.83159
19 Al 1.7745 8.71091 1.06812
20 Ni -0.0995379 5.08679 0.016637
21 Ni -0.0174846 6.75761 4.96508
22 Ni -0.246715 9.72355 2.4582
23 Ni 1.86309 6.18318 1.44802
24 Ni 1.86055 8.19801 3.52266
25 Al -0.0813864 6.37258 7.44981
26 Al 1.72366 4.7061 9.01989
27 Al 1.74799 7.92856 6.02747
28 Ni 0.0231058 4.27122 4.91937
29 Ni -0.158828 6.10539 9.92522
30 Ni -0.131032 8.85385 7.47639
31 Ni 1.72033 5.36033 6.33492
32 Ni 1.86014 7.34358 8.53891
33 Al -0.0742439 12.1248 2.64361
34 Al 1.80683 10.5441 3.87905
35 Al 1.86918 13.7826 1.06465
36 Ni -0.038136 10.1547 -0.0080642
37 Ni -0.0591809 11.641 5.00374
38 Ni -0.0668218 14.5537 2.43059
39 Ni 1.72914 11.0778 1.52511
40 Ni 1.83892 13.1772 3.59786
41 Al -0.174438 11.2947 7.6075
42 Al 1.90396 9.67896 8.97275
43 Al 1.71874 12.8838 6.04773
44 Ni 0.0128883 9.23589 4.8553
45 Ni -0.247497 11.1665 9.97894
46 Ni -0.109689 13.7501 7.39917
47 Ni 1.71402 10.3828 6.40925
48 Ni 1.76274 12.3108 8.49434
49 Al 3.66642 2.15977 2.48855
50 Al 5.46398 0.483205 3.89067
51 Al 5.69635 3.71373 1.19971
52 Ni 3.70936 -0.0778796 0.0245591
53 Ni 3.71364 1.72329 4.93788
54 Ni 3.65506 4.59865 2.52759
55 Ni 5.59079 1.23156 1.38367
56 Ni 5.67246 3.00819 3.59099
57 Al 3.74379 1.16697 7.45701
58 Al 5.65649 -0.317778 8.72365
59 Al 5.56184 2.90663 6.06541
60 Ni 3.77591 -0.807574 4.91046
61 Ni 3.77055 0.895503 9.95171
62 Ni 3.68301 3.85728 7.53075
63 Ni 5.74396 0.337412 6.31824
64 Ni 5.60757 2.13191 8.62831
65 Al 3.76326 7.03282 2.36278
66 Al 5.52262 5.40226 3.97863
67 Al 5.6938 8.61002 1.09806
68 Ni 3.82593 4.94301 0.0975333
69 Ni 3.69761 6.71081 4.98877
70 Ni 3.782 9.6242 2.51349
71 Ni 5.72313 6.09872 1.46973
72 Ni 5.48784 7.95983 3.73513
73 Al 3.72123 6.40418 7.48028
74 Al 5.65643 4.58744 8.91506
75 Al 5.58616 7.93062 6.1076
76 Ni 3.69524 4.17743 4.97774
77 Ni 3.71628 5.93662 9.87651
78 Ni 3.74489 8.84957 7.54099
79 Ni 5.67159 5.36011 6.43422
80 Ni 5.69863 7.33528 8.49759
81 Al 3.77529 12.1385 2.5523
82 Al 5.58814 10.3442 3.77606
83 Al 5.65994 13.7787 1.05123
84 Ni 3.79737 9.9711 0.0271928
85 Ni 3.83688 11.6751 4.83243
86 Ni 3.74309 14.622 2.4812
87 Ni 5.60864 11.1655 1.38231
88 Ni 5.72688 13.213 3.4747
89 Al 3.69016 11.2459 7.468
90 Al 5.63434 9.76353 8.81485
91 Al 5.61986 13.0111 6.02609
92 Ni 3.7428 9.11751 4.96613
93 Ni 3.76448 11.0486 9.91309
94 Ni 3.65878 13.7673 7.45889
95 Ni 5.51715 10.4206 6.30724
96 Ni 5.58586 12.4029 8.6279
97 Al 7.66075 2.14559 2.34798
98 Al 9.48749 0.45732 3.75249
99 Al 9.49261 3.76086 1.19865
100 Ni 7.6091 0.0216923 -0.0178613
101 Ni 7.56134 1.69087 4.9908
102 Ni 7.65543 4.58839 2.55522
103 Ni 9.54191 1.09892 1.2782
104 Ni 9.41015 3.05346 3.53959
105 Al 7.53702 1.2407 7.47318
106 Al 9.42242 -0.261138 8.75029
107 Al 9.45589 2.96938 6.04953
108 Ni 7.64057 -0.750978 4.81323
109 Ni 7.61714 1.00468 9.91555
110 Ni 7.49491 3.8216 7.48622
111 Ni 9.44707 0.402302 6.23199
112 Ni 9.4527 2.34961 8.66314
113 Al 7.52763 7.2291 2.59875
114 Al 9.46659 5.482 3.90812
115 Al 9.50851 8.89291 1.1868
116 Ni 7.59689 5.1285 0.141172
117 Ni 7.61077 6.70961 4.92816
118 Ni 7.53227 9.77769 2.50989
119 Ni 9.51555 6.25014 1.40305
120 Ni 9.58582 8.06897 3.55427
121 Al 7.56433 6.28308 7.37981
122 Al 9.51546 4.83888 8.91864
123 Al 9.56739 7.90489 6.03666
124 Ni 7.53889 4.16195 4.99815
125 Ni 7.46047 5.99575 9.78864
126 Ni 7.5324 8.82631 7.50536
127 Ni 9.58686 5.43745 6.30015
128 Ni 9.4493 7.37689 8.68452
129 Al 7.53486 12.2431 2.33649
130 Al 9.39512 10.5226 3.94144
131 Al 9.40346 13.8895 1.03051
132 Ni 7.49841 10.211 0.106874
133 Ni 7.51652 11.7645 4.78232
134 Ni 7.40113 14.8373 2.43101
135 Ni 9.51634 11.3162 1.38372
136 Ni 9.41351 13.1473 3.57006
137 Al 7.50979 11.344 7.41028
138 Al 9.45475 9.91453 8.86615
139 Al 9.48385 12.9523 6.16536
140 Ni 7.56934 9.18768 4.90207
141 Ni 7.44224 11.0749 10.0131
142 Ni 7.52449 13.8381 7.30374
143 Ni 9.46422 10.2597 6.33672
144 Ni 9.34427 12.3772 8.53303
ITEM: TIMESTEP
9000
ITEM: NUMBER OF ATOMS
144
ITEM: BOX BOUNDS xy xz yz pp pp pp
-9.6928598436414756e-02 1.1424176536384028e+01 -2.4758528780862224e-02
-1.5884224383893037e+00 1.5009792521539252e+01 -4.3053531618949564e-02
1.0159055980540899e-04 9.9026165901802461e+00 -1.5891283400675140e+00
ITEM: ATOMS id element xu yu zu
1 Al -0.00229959 2.09341 2.43436
2 Al 1.76983 0.48382 3.91
3 Al 1.89212 3.72978 1.18178
4 Ni -0.123436 -0.0209415 0.0197525
5 Ni -0.162798 1.6038 4.88233
6 Ni -0.0807978 4.68204 2.48394
7 Ni 1.83882 1.06333 1.4065
8 Ni 1.93707 3.09589 3.58084
9 Al -0.0414894 1.21941 7.33403
10 Al 1.73535 -0.317417 8.8417
11 Al 1.68248 2.95901 5.93592
12 Ni -0.0224984 -0.833531 4.98676
13 Ni -0.180437 0.956407 9.84927
14 Ni -0.0610908 3.71609 7.40978
15 Ni 1.9103 0.399519 6.3961
16 Ni 1.74304 2.19004 8.55607
17 Al -0.0516436 7.07076 2.52098
18 Al 1.84828 5.51781 3.8357
19 Al 1.87763 8.73492 1.0791
20 Ni -0.0104066 5.02893 -0.0861451
21 Ni -0.118204 6.65746 5.06708
22 Ni 0.173067 9.54906 2.40705
23 Ni 1.88832 6.2497 1.28732
24 Ni 1.85847 7.94699 3.73364
25 Al -0.0936682 6.18689 7.38379
26 Al 1.814 4.65012 8.87987
27 Al 1.82629 7.90669 6.04908
28 Ni -0.15941 4.14122 4.93112
29 Ni -0.00844227 5.89382 9.9866
30 Ni -0.0995875 8.77396 7.38953
31 Ni 1.87336 5.34295 6.38338
32 Ni 1.83747 7.26103 8.51405
33 Al -0.0640167 11.9912 2.45688
34 Al 1.72402 10.4448 3.89763
35 Al 1.84264 13.6849 1.1674
36 Ni -0.0471268 9.9192 -0.0273427
37 Ni -0.112442 11.8149 5.01091
38 Ni -0.13113 14.7538 2.56451
39 Ni 1.8717 11.2242 1.25162
40 Ni 1.79735 12.9829 3.64583
41 Al -0.0561628 11.3436 7.48138
42 Al 1.80839 9.53708 8.6679
43 Al 1.69601 13.0007 6.18417
44 Ni -0.165083 9.15008 4.99897
45 Ni -0.0390017 10.8977 9.93996
46 Ni -0.164047 13.8604 7.40746
47 Ni 1.82817 10.4061 6.34716
48 Ni 1.75576 12.2239 8.60427
49 Al 3.81007 2.14016 2.43396
50 Al 5.58131 0.367159 3.85188
51 Al 5.61975 3.79595 1.05321
52 Ni 3.75706 0.0527824 -0.0182411
53 Ni 3.80462 1.62968 4.91616
54 Ni 3.81081 4.62594 2.44932
55 Ni 5.70708 1.10697 1.41945
56 Ni 5.65507 3.08052 3.53932
57 Al 3.76026 1.41528 7.48877
58 Al 5.60164 -0.190552 8.73969
59 Al 5.66231 2.94774 5.91944
60 Ni 3.72119 -0.786084 5.07493
61 Ni 3.60683 0.941164 9.87169
62 Ni 3.81216 3.81168 7.26039
63 Ni 5.56688 0.380534 6.32511
64 Ni 5.64028 2.44314 8.43016
65 Al 3.86602 7.07498 2.54233
66 Al 5.62779 5.5258 3.81668
67 Al 5.68096 8.7637 1.15083
68 Ni 3.65781 5.00817 -0.0462976
69 Ni 3.815 6.68726 5.01783
70 Ni 3.77346 9.69946 2.52955
71 Ni 5.64698 6.28575 1.28864
72 Ni 5.86215 8.18259 3.56637
73 Al 3.79985 6.41669 7.50945
74 Al 5.70409 4.75676 8.77443
75 Al 5.62294 7.94472 6.08191
76 Ni 3.83103 4.15182 4.95615
77 Ni 3.7615 5.96256 9.9953
78 Ni 3.70936 8.85251 7.44624
79 Ni 5.65668 5.38737 6.262
80 Ni 5.55469 7.29225 8.6767
81 Al 3.66637 12.0626 2.61262
82 Al 5.58628 10.4317 3.88597
83 Al 5.64 13.6489 1.04106
84 Ni 3.72864 10.0178 -0.0111739
85 Ni 3.61624 11.7425 5.03895
86 Ni 3.7135 14.7127 2.49518
87 Ni 5.7371 11.2877 1.49607
88 Ni 5.51975 12.9831 3.64455
89 Al 3.68811 11.3099 7.50183
90 Al 5.59633 9.75219 8.88398
91 Al 5.6168 12.8555 6.11171
92 Ni 3.80927 9.29824 5.00889
93 Ni 3.61177 10.9384 9.87135
94 Ni 3.70548 13.9668 7.4835
95 Ni 5.63267 10.3925 6.40006
96 Ni 5.56385 12.2877 8.47508
97 Al 7.55351 2.27961 2.3867
98 Al 9.3688 0.465419 3.74016
99 Al 9.49705 3.7475 1.09411
100 Ni 7.5203 -0.00523603 -0.0283124
101 Ni 7.58592 1.68439 4.83558
102 Ni 7.55916 4.65723 2.38682
103 Ni 9.45273 1.29744 1.40737
104 Ni 9.53583 3.06257 3.5088
105 Al 7.48583 1.2932 7.36225
106 Al 9.3468 -0.319618 8.83007
107 Al 9.39781 2.81171 6.02416
108 Ni 7.49999 -0.827503 4.98522
109 Ni 7.4932 0.934431 9.90684
110 Ni 7.57965 3.87444 7.37004
111 Ni 9.34939 0.285221 6.31104
112 Ni 9.43855 2.19156 8.37331
113 Al 7.60968 7.09514 2.54956
114 Al 9.39896 5.46868 3.88887
115 Al 9.6784 8.79351 1.13655
116 Ni 7.58505 4.99383 -0.0521135
117 Ni 7.53891 6.71174 5.04163
118 Ni 7.63738 9.51373 2.5745
119 Ni 9.48737 6.19531 1.34031
120 Ni 9.39006 8.0697 3.66217
121 Al 7.42656 6.37264 7.54957
122 Al 9.55615 4.63907 8.87008
123 Al 9.45978 7.97138 6.08951
124 Ni 7.59505 4.2323 4.90038
125 Ni 7.61015 5.91641 10.0788
126 Ni 7.49554 8.90778 7.48341
127 Ni 9.31338 5.30031 6.38328
128 Ni 9.48713 7.20437 8.41608
129 Al 7.54243 12.0756 2.60362
130 Al 9.52606 10.4423 3.94572
131 Al 9.51346 13.7254 1.10826
132 Ni 7.65226 9.98333 -0.0250452
133 Ni 7.56937 11.6497 5.18052
134 Ni 7.64493 14.4516 2.41693
135 Ni 9.40981 11.1015 1.45082
136 Ni 9.55303 12.9714 3.57845
137 Al 7.56496 11.3984 7.64168
138 Al 9.56332 9.73483 8.84981
139 Al 9.40817 12.9985 6.23876
140 Ni 7.56968 9.21874 5.00782
141 Ni 7.57217 10.8934 9.95585
142 Ni 7.41774 13.9349 7.42966
143 Ni 9.42446 10.5211 6.39264
144 Ni 9.54392 12.1911 8.64841
ITEM: TIMESTEP
9100
ITEM: NUMBER OF ATOMS
144
ITEM: BOX BOUNDS xy xz yz pp pp pp
-6.5675601918938398e-02 1.1598169629676866e+01 7.4971276443872414e-02
-1.6481821543388477e+00 1.5030482556816104e+01 6.2462752966645538e-02
1.0018162834372291e-02 9.8927000179056890e+00 -1.6281980207402080e+00
ITEM: ATOMS id element xu yu zu
1 Al -0.0881403 1.91519 2.45489
2 Al 1.84452 0.500973 3.82377
3 Al 1.90938 3.67593 1.02798
4 Ni -0.00927376 -0.0261779 0.12442
5 Ni 0.0494186 1.81058 4.93507
6 Ni -0.0968227 4.48779 2.40973
7 Ni 1.86658 1.28482 1.40677
8 Ni 1.79266 2.9789 3.47857
9 Al 0.0524595 1.33239 7.43685
10 Al 2.01461 -0.237516 8.87489
11 Al 1.86366 3.02461 5.9606
12 Ni -0.0803099 -0.768834 5.05835
13 Ni 0.030403 0.79485 9.87105
14 Ni -0.0239429 3.8735 7.33721
15 Ni 1.83117 0.390981 6.26464
16 Ni 2.00152 2.23656 8.40203
17 Al -0.0303671 7.03296 2.46228
18 Al 1.90432 5.43041 3.75717
19 Al 1.71067 8.67882 1.10428
20 Ni -0.147267 4.99095 0.0512792
21 Ni 0.0584984 6.82226 4.93115
22 Ni -0.262046 9.56727 2.53889
23 Ni 1.86174 6.07433 1.46058
24 Ni 1.85746 8.098 3.54448
25 Al 0.0275143 6.34644 7.39118
26 Al 1.81697 4.58008 9.00466
27 Al 1.96606 7.91125 6.07386
28 Ni 0.0535717 4.22681 4.9271
29 Ni -0.0420897 5.74334 9.89838
30 Ni 0.0330049 8.80224 7.49311
31 Ni 1.87213 5.39604 6.20711
32 Ni 1.91382 7.17693 8.66953
33 Al -0.0580796 12.1684 2.56366
34 Al 1.89602 10.5743 3.77575
35 Al 1.88024 13.7185 1.10437
36 Ni -0.0612723 9.97609 0.13294
37 Ni 0.0748243 11.6807 4.96777
38 Ni 0.0455042 14.5677 2.5748
39 Ni 1.86545 11.1424 1.54202
40 Ni 1.93001 13.1275 3.57921
41 Al 0.0684955 11.3852 7.44551
42 Al 1.98758 9.65446 8.81607
43 Al 1.85071 13.0421 6.01518
44 Ni 0.0876178 9.22008 4.99626
45 Ni -0.0584715 10.8332 9.92123
46 Ni 0.0789346 13.7976 7.54798
47 Ni 1.98895 10.3308 6.35652
48 Ni 1.97079 12.3775 8.57628
49 Al 3.80702 2.11005 2.45647
50 Al 5.60249 0.502095 3.89273
51 Al 5.75122 3.64686 1.09459
52 Ni 3.69329 -0.0108262 0.187612
53 Ni 3.82852 1.77136 4.93879
54 Ni 3.80798 4.58871 2.31977
55 Ni 5.66214 1.17283 1.33013
56 Ni 5.70499 2.9884 3.45513
57 Al 3.79877 1.19353 7.364
58 Al 5.76355 -0.382323 8.67635
59 Al 5.59688 3.07054 5.93062
60 Ni 3.79762 -0.830582 4.8936
61 Ni 3.89782 0.910913 9.90265
62 Ni 3.82239 3.78496 7.43507
63 Ni 5.72532 0.431235 6.30048
64 Ni 5.73273 2.11367 8.49807
65 Al 3.78722 6.97103 2.4025
66 Al 5.73681 5.4596 3.85013
67 Al 5.6179 8.59079 1.06823
68 Ni 3.86949 5.04262 -0.0721396
69 Ni 3.76627 6.72346 4.93353
70 Ni 3.863 9.61165 2.53721
71 Ni 5.71527 6.0883 1.43739
72 Ni 5.65865 7.95526 3.60958
73 Al 3.84093 6.38438 7.39333
74 Al 5.81248 4.63989 8.78021
75 Al 5.77145 8.01575 6.06473
76 Ni 3.79595 4.30915 4.87405
77 Ni 3.81178 5.89556 9.83642
78 Ni 3.90751 8.79973 7.46822
79 Ni 5.81204 5.41279 6.30108
80 Ni 5.82183 7.19654 8.45141
81 Al 3.78667 12.0343 2.58876
82 Al 5.72353 10.301 3.9484
83 Al 5.8128 13.7434 1.21207
84 Ni 3.8281 10.0789 0.0698106
85 Ni 3.9431 11.703 4.9215
86 Ni 3.83689 14.5294 2.50573
87 Ni 5.71896 11.1085 1.4491
88 Ni 5.77312 13.1216 3.65895
89 Al 3.85017 11.378 7.53522
90 Al 5.8315 9.74012 8.86099
91 Al 5.81071 12.9656 6.14928
92 Ni 3.78741 9.20123 4.98617
93 Ni 3.96961 10.9281 10.0336
94 Ni 3.83364 13.8779 7.46027
95 Ni 5.80471 10.4321 6.47694
96 Ni 5.81932 12.2827 8.6835
97 Al 7.53178 2.04295 2.39404
98 Al 9.5616 0.540162 3.86047
99 Al 9.48576 3.49706 1.14063
100 Ni 7.73097 -0.0775511 0.0603035
101 Ni 7.6358 1.70048 5.01822
102 Ni 7.63484 4.45863 2.38685
103 Ni 9.57918 0.949312 1.35168
104 Ni 9.47988 2.96161 3.54734
105 Al 7.68528 1.24438 7.38847
106 Al 9.59883 -0.381666 8.7275
107 Al 9.51901 2.99014 6.04341
108 Ni 7.64134 -0.867242 5.02729
109 Ni 7.69626 0.761788 9.7916
110 Ni 7.62162 3.78305 7.34367
111 Ni 9.60302 0.442023 6.41646
112 Ni 9.60291 2.24275 8.5074
113 Al 7.68003 7.18629 2.48289
114 Al 9.58268 5.37373 3.79432
115 Al 9.61057 8.67205 1.179
116 Ni 7.56142 4.95024 -0.133458
117 Ni 7.71002 6.69048 4.92991
118 Ni 7.64174 9.66955 2.50127
119 Ni 9.53041 6.03939 1.41634
120 Ni 9.59203 7.95288 3.6043
121 Al 7.78583 6.31078 7.352
122 Al 9.63616 4.63868 8.77594
123 Al 9.69926 7.93578 6.02693
124 Ni 7.60989 4.18794 4.88933
125 Ni 7.59124 5.84952 9.76345
126 Ni 7.73804 8.82147 7.46505
127 Ni 9.70177 5.50824 6.2438
128 Ni 9.66334 7.19964 8.69855
129 Al 7.68375 12.1046 2.50157
130 Al 9.6054 10.4686 3.97124
131 Al 9.61968 13.6597 1.14674
132 Ni 7.60445 9.91053 0.0546595
133 Ni 7.68695 11.8052 5.0501
134 Ni 7.65278 14.6562 2.58073
135 Ni 9.6901 11.1665 1.42205
136 Ni 9.62887 13.0972 3.68551
137 Al 7.70853 11.3566 7.51329
138 Al 9.6112 9.70618 8.89272
139 Al 9.68124 13.0381 6.1577
140 Ni 7.70708 9.27013 4.95305
141 Ni 7.73575 10.9254 10.0517
142 Ni 7.78128 13.7999 7.50046
143 Ni 9.55995 10.2495 6.38078
144 Ni 9.5884 12.2378 8.49944
ITEM: TIMESTEP
9200
ITEM: NUMBER OF ATOMS
144
ITEM: BOX BOUNDS xy xz yz pp pp pp
-6.0458057189046066e-02 1.1492837144724410e+01 4.5181285968787562e-03
-1.6554718163627791e+00 1.5038124621725208e+01 3.2800960591080126e-02
-7.4447472916423507e-03 9.9101629280317063e+00 -1.6278456178550340e+00
ITEM: ATOMS id element xu yu zu
1 Al 0.0628909 2.03174 2.51951
2 Al 1.85137 0.373107 3.84337
3 Al 1.87946 3.6425 1.19118
4 Ni -0.0930857 -0.016152 -0.0662835
5 Ni -0.110074 1.67224 4.96849
6 Ni -0.0647992 4.64332 2.36071
7 Ni 1.78368 0.969383 1.3013
8 Ni 1.88161 3.03797 3.63071
9 Al -0.118283 1.31152 7.5144
10 Al 1.91914 -0.416527 8.79508
11 Al 1.74029 2.93239 6.05155
12 Ni 0.0440114 -0.863138 4.91133
13 Ni -0.0267748 0.793327 9.94434
14 Ni -0.0372864 3.87181 7.42416
15 Ni 1.86703 0.328542 6.41058
16 Ni 1.83632 2.22389 8.59198
17 Al -0.139341 7.19517 2.38071
18 Al 1.86566 5.44775 3.85827
19 Al 1.75533 8.70658 0.907188
20 Ni -0.0323679 5.059 -0.150956
21 Ni -0.16101 6.71231 4.90663
22 Ni 0.13001 9.58053 2.57616
23 Ni 1.75298 6.24032 1.14617
24 Ni 1.85722 7.91935 3.63226
25 Al -0.0724309 6.40878 7.3621
26 Al 1.85655 4.77441 8.80389
27 Al 1.83027 8.08127 6.04638
28 Ni -0.0803345 4.19315 4.91863
29 Ni -0.0909679 5.98606 9.91054
30 Ni -0.0165642 8.90531 7.57571
31 Ni 1.78884 5.44995 6.2997
32 Ni 1.90717 7.35315 8.38683
33 Al -0.127596 12.0897 2.51377
34 Al 1.99554 10.5302 3.94675
35 Al 1.8983 13.6841 1.14167
36 Ni -0.085451 10.0603 0.0601302
37 Ni -0.0699204 11.7662 5.05433
38 Ni -0.141533 14.5513 2.40096
39 Ni 1.9376 11.1127 1.48053
40 Ni 1.89191 12.9583 3.71069
41 Al -0.0311996 11.5379 7.54204
42 Al 1.9386 9.69042 8.84869
43 Al 1.8159 13.0667 6.08037
44 Ni -0.182467 9.29332 5.08172
45 Ni 0.0255242 10.9073 10.0463
46 Ni -0.0288407 13.899 7.32253
47 Ni 1.85634 10.4712 6.57751
48 Ni 1.93153 12.1385 8.60071
49 Al 3.74941 2.04575 2.40109
50 Al 5.71996 0.499386 3.91175
51 Al 5.63208 3.6229 1.19982
52 Ni 3.81644 -0.122385 -0.150033
53 Ni 3.74207 1.68324 4.86143
54 Ni 3.68889 4.49914 2.56868
55 Ni 5.77618 1.09308 1.46197
56 Ni 5.70032 2.98884 3.64501
57 Al 3.73754 1.18434 7.41699
58 Al 5.78227 -0.334522 8.79854
59 Al 5.68926 2.92058 6.09771
60 Ni 3.80899 -0.739938 4.99329
61 Ni 3.71706 0.78246 9.84897
62 Ni 3.82745 3.79086 7.33303
63 Ni 5.78952 0.284495 6.37193
64 Ni 5.73903 2.26 8.49817
65 Al 3.74202 6.88717 2.32464
66 Al 5.70555 5.47501 3.83133
67 Al 5.69056 8.68228 1.09018
68 Ni 3.66021 4.94 0.0487686
69 Ni 3.73992 6.7369 4.87295
70 Ni 3.74834 9.4898 2.51066
71 Ni 5.63654 6.14357 1.20509
72 Ni 5.65141 8.03296 3.5083
73 Al 3.73948 6.47735 7.32608
74 Al 5.69867 4.69809 8.76534
75 Al 5.6969 7.94921 6.07359
76 Ni 3.74744 4.13556 4.94933
77 Ni 3.79496 5.8293 9.88121
78 Ni 3.7348 8.8059 7.49609
79 Ni 5.6135 5.34533 6.25496
80 Ni 5.63921 7.15739 8.53885
81 Al 3.75053 12.1311 2.56443
82 Al 5.67434 10.4952 3.84316
83 Al 5.65706 13.7126 1.07058
84 Ni 3.81084 9.90406 0.0714875
85 Ni 3.81923 11.7994 5.14107
86 Ni 3.8159 14.6345 2.52013
87 Ni 5.71714 11.1791 1.4354
88 Ni 5.70738 13.0727 3.6589
89 Al 3.86464 11.3319 7.48575
90 Al 5.66561 9.68232 8.83471
91 Al 5.84053 12.944 6.07934
92 Ni 3.88867 9.20167 4.96551
93 Ni 3.83903 10.8429 9.91714
94 Ni 3.8969 13.6891 7.42425
95 Ni 5.66694 10.336 6.30335
96 Ni 5.75897 12.1909 8.56167
97 Al 7.57765 2.13406 2.51894
98 Al 9.67459 0.471204 3.82241
99 Al 9.50787 3.70355 1.17304
100 Ni 7.49151 -0.100727 0.0458824
101 Ni 7.66606 1.82663 4.89253
102 Ni 7.59652 4.6025 2.59575
103 Ni 9.56556 1.20285 1.46537
104 Ni 9.58366 3.06808 3.62436
105 Al 7.68274 1.19321 7.34566
106 Al 9.53223 -0.454709 8.81822
107 Al 9.5052 2.98497 6.0715
108 Ni 7.67156 -0.717126 5.00685
109 Ni 7.61113 0.864442 9.98336
110 Ni 7.63927 3.7534 7.55089
111 Ni 9.61267 0.29306 6.36735
112 Ni 9.50623 2.23454 8.52125
113 Al 7.63323 7.1062 2.48762
114 Al 9.58416 5.55235 3.74257
115 Al 9.52403 8.74009 0.985181
116 Ni 7.61771 4.98264 0.0592565
117 Ni 7.56592 6.73489 4.90147
118 Ni 7.59271 9.50497 2.55474
119 Ni 9.53881 6.23491 1.19608
120 Ni 9.53287 8.13711 3.52456
121 Al 7.58367 6.22737 7.31703
122 Al 9.61642 4.65358 8.71891
123 Al 9.54946 7.99432 6.02563
124 Ni 7.69289 4.2831 5.03645
125 Ni 7.61352 5.79759 9.85594
126 Ni 7.50959 8.7849 7.44249
127 Ni 9.54683 5.37516 6.38724
128 Ni 9.38629 7.23655 8.42942
129 Al 7.54199 12.1254 2.49408
130 Al 9.60484 10.4702 3.85866
131 Al 9.46396 13.6917 1.15677
132 Ni 7.61767 9.98374 0.0107134
133 Ni 7.62254 11.7067 4.99546
134 Ni 7.64051 14.5914 2.49896
135 Ni 9.31218 11.1366 1.45041
136 Ni 9.4827 13.0157 3.59739
137 Al 7.71636 11.3266 7.43613
138 Al 9.57173 9.70069 8.94344
139 Al 9.44734 13.0518 6.13018
140 Ni 7.59743 9.14132 5.0317
141 Ni 7.59646 10.7757 9.87352
142 Ni 7.64991 13.8713 7.5316
143 Ni 9.67771 10.5217 6.36068
144 Ni 9.61704 12.2348 8.69116
ITEM: TIMESTEP
9300
ITEM: NUMBER OF ATOMS
144
ITEM: BOX BOUNDS xy xz yz pp pp pp
-2.1637740991741300e-01 1.1417122816829085e+01 -1.3201288135984920e-01
-1.5647150623341854e+00 1.5001990975712538e+01 -6.2301710075894669e-02
-3.1438741917764190e-03 9.9058620549318519e+00 -1.5732225098391108e+00
ITEM: ATOMS id element xu yu zu
1 Al -0.0181859 2.11833 2.50264
2 Al 1.89436 0.46951 3.84245
3 Al 1.89878 3.72522 1.15585
4 Ni -0.11442 0.00261859 -0.0870701
5 Ni -0.0693712 1.72187 5.02495
6 Ni -0.126522 4.58883 2.61579
7 Ni 1.89781 1.24269 1.39264
8 Ni 1.86877 3.01329 3.6059
9 Al -0.214605 1.34573 7.40428
10 Al 1.79237 -0.170027 8.89249
11 Al 1.75668 2.94114 6.01854
12 Ni -0.189166 -0.773024 4.8996
13 Ni -0.145924 1.02691 9.98288
14 Ni -0.171298 3.75747 7.43703
15 Ni 1.82081 0.42553 6.24126
16 Ni 1.82761 2.21173 8.55221
17 Al -0.135741 7.19302 2.46435
18 Al 1.99154 5.43279 3.82205
19 Al 1.7252 8.69861 1.06401
20 Ni -0.105583 4.99275 -0.0226749
21 Ni -0.0837234 6.68276 4.94871
22 Ni -0.206739 9.66246 2.40726
23 Ni 1.89775 6.11969 1.46811
24 Ni 1.8685 8.11233 3.47885
25 Al -0.167582 6.19282 7.27805
26 Al 1.67457 4.62588 8.88465
27 Al 1.80157 7.81635 6.18152
28 Ni -0.166133 4.24143 4.9204
29 Ni -0.0768126 5.87964 9.78508
30 Ni -0.225513 8.78703 7.29944
31 Ni 1.76377 5.33956 6.22798
32 Ni 1.68975 7.11652 8.58841
33 Al -0.126628 12.2212 2.57341
34 Al 1.77977 10.583 3.702
35 Al 1.68561 13.8222 1.10869
36 Ni -0.11933 9.94521 -0.0716589
37 Ni -0.124364 11.717 5.00535
38 Ni -0.0801604 14.6805 2.4234
39 Ni 1.7453 11.1663 1.419
40 Ni 1.8006 13.098 3.60614
41 Al -0.245486 11.3992 7.55047
42 Al 1.65541 9.77962 8.70024
43 Al 1.58597 13.0508 6.09476
44 Ni -0.0966373 9.11015 4.82957
45 Ni -0.229673 10.9858 9.99751
46 Ni -0.34182 13.8499 7.41081
47 Ni 1.68102 10.3089 6.30023
48 Ni 1.70327 12.364 8.65665
49 Al 3.72989 2.1552 2.60418
50 Al 5.65409 0.503607 3.90336
51 Al 5.65637 3.65932 1.20933
52 Ni 3.79797 0.0654889 0.148061
53 Ni 3.77145 1.63919 5.10725
54 Ni 3.76942 4.63799 2.40477
55 Ni 5.60925 1.2143 1.42271
56 Ni 5.62188 3.10718 3.53838
57 Al 3.70292 1.26329 7.57464
58 Al 5.70881 -0.368009 8.88505
59 Al 5.58733 2.91905 6.15119
60 Ni 3.68929 -0.870556 4.98648
61 Ni 3.69805 0.935298 10.0574
62 Ni 3.69054 3.7706 7.53254
63 Ni 5.55493 0.388348 6.35184
64 Ni 5.5653 2.18112 8.65277
65 Al 3.73191 7.11491 2.41436
66 Al 5.67992 5.47999 3.90437
67 Al 5.55962 8.77573 1.05443
68 Ni 3.74854 5.00424 0.0192859
69 Ni 3.66677 6.68238 4.97038
70 Ni 3.72084 9.70916 2.4962
71 Ni 5.61707 6.21364 1.48015
72 Ni 5.72973 8.08503 3.59482
73 Al 3.66283 6.36053 7.43441
74 Al 5.65288 4.71681 8.94913
75 Al 5.56345 8.02329 6.01785
76 Ni 3.71701 4.20618 5.03436
77 Ni 3.56024 5.87857 9.83372
78 Ni 3.68866 8.73864 7.4421
79 Ni 5.65766 5.31621 6.32219
80 Ni 5.51284 7.27614 8.49803
81 Al 3.68222 12.1724 2.4872
82 Al 5.55153 10.5484 3.99177
83 Al 5.5521 13.7409 1.10127
84 Ni 3.6107 9.97854 -0.103431
85 Ni 3.57487 11.597 4.98554
86 Ni 3.65978 14.5558 2.58693
87 Ni 5.5831 11.1536 1.38949
88 Ni 5.57819 13.0203 3.57607
89 Al 3.58138 11.3658 7.48649
90 Al 5.58126 9.73865 8.84022
91 Al 5.43658 12.9762 6.06066
92 Ni 3.57058 9.25779 5.01068
93 Ni 3.62782 10.9285 9.94777
94 Ni 3.51781 14.0081 7.55498
95 Ni 5.4785 10.3551 6.39846
96 Ni 5.4552 12.2935 8.57347
97 Al 7.51558 2.12618 2.58508
98 Al 9.58025 0.568605 3.78851
99 Al 9.36456 3.8143 1.20738
100 Ni 7.65333 0.168437 0.0389076
101 Ni 7.50326 1.55209 5.09835
102 Ni 7.50107 4.65665 2.46422
103 Ni 9.43977 1.18192 1.37412
104 Ni 9.41634 3.03933 3.62797
105 Al 7.48203 1.26557 7.53813
106 Al 9.47172 -0.324557 8.67584
107 Al 9.36896 2.99606 5.99006
108 Ni 7.51427 -0.86946 5.00972
109 Ni 7.46779 0.971231 9.9632
110 Ni 7.46651 3.8875 7.37445
111 Ni 9.34965 0.409525 6.33997
112 Ni 9.42327 2.28376 8.6055
113 Al 7.5242 7.18238 2.47745
114 Al 9.41888 5.51 3.84373
115 Al 9.39934 8.67636 1.03149
116 Ni 7.55012 5.0667 0.0296447
117 Ni 7.47644 6.76096 4.87411
118 Ni 7.51303 9.69014 2.41476
119 Ni 9.47701 6.24049 1.50834
120 Ni 9.34093 7.97937 3.58497
121 Al 7.54128 6.37004 7.42123
122 Al 9.36602 4.68516 8.83419
123 Al 9.37949 7.90234 5.97448
124 Ni 7.4182 4.07146 4.90996
125 Ni 7.48203 5.97189 9.896
126 Ni 7.52029 8.77075 7.37682
127 Ni 9.2502 5.39033 6.24519
128 Ni 9.47152 7.29356 8.5712
129 Al 7.55689 12.0997 2.43558
130 Al 9.5258 10.415 3.83472
131 Al 9.36315 13.7799 1.10348
132 Ni 7.51476 10.048 0.0140156
133 Ni 7.44608 11.7538 4.98324
134 Ni 7.44304 14.6586 2.47832
135 Ni 9.57931 11.261 1.36142
136 Ni 9.40679 13.0916 3.48459
137 Al 7.33865 11.351 7.37245
138 Al 9.29215 9.73488 8.9031
139 Al 9.33924 12.9046 5.98778
140 Ni 7.45834 9.26526 4.92826
141 Ni 7.44354 10.9832 9.99113
142 Ni 7.3508 13.8559 7.36792
143 Ni 9.29575 10.3383 6.36754
144 Ni 9.18363 12.3575 8.3814
ITEM: TIMESTEP
9400
ITEM: NUMBER OF ATOMS
144
ITEM: BOX BOUNDS xy xz yz pp pp pp
-5.8518132454943306e-02 1.1466027856983770e+01 5.0440122699401133e-03
-1.5669823031516905e+00 1.5073322438312712e+01 7.4057139114707691e-03
-2.7423963188555334e-02 9.9301421439286379e+00 -1.5041582880564499e+00
ITEM: ATOMS id element xu yu zu
1 Al -0.112179 2.15083 2.53135
2 Al 1.88579 0.443912 3.96883
3 Al 1.89824 3.74009 1.11567
4 Ni -0.061323 -0.0290591 0.133077
5 Ni -0.155365 1.63948 4.95474
6 Ni -0.0342653 4.67813 2.53921
7 Ni 1.76719 1.19284 1.46188
8 Ni 1.80867 3.10993 3.66006
9 Al -0.172142 1.26637 7.45607
10 Al 1.97827 -0.290303 8.90752
11 Al 1.85128 2.84226 6.12398
12 Ni 0.0356976 -0.816958 5.04357
13 Ni -0.0849924 0.929969 9.91431
14 Ni -0.0540157 3.79026 7.56781
15 Ni 1.84726 0.306223 6.57342
16 Ni 1.75099 2.30859 8.60271
17 Al -0.156986 7.06584 2.42253
18 Al 1.91623 5.52002 3.9767
19 Al 1.81579 8.7835 0.962802
20 Ni -0.0663063 5.05817 0.0773511
21 Ni -0.160835 6.72919 4.93767
22 Ni -0.0177038 9.72992 2.41433
23 Ni 1.83719 6.27743 1.3664
24 Ni 1.69369 8.05922 3.52976
25 Al -0.0326485 6.28122 7.56759
26 Al 1.83727 4.82088 8.96063
27 Al 1.93604 7.81276 6.07079
28 Ni 0.0245164 4.14175 5.09149
29 Ni -0.129735 6.12475 10.1072
30 Ni 0.0922301 8.78826 7.36307
31 Ni 1.88789 5.3676 6.4642
32 Ni 1.92226 7.3307 8.45805
33 Al -0.154646 12.1766 2.38349
34 Al 1.88781 10.5447 3.78203
35 Al 1.69198 13.8795 1.2038
36 Ni -0.0400328 10.0889 -0.0449465
37 Ni -0.147073 11.8336 4.7934
38 Ni -0.210716 14.7405 2.63404
39 Ni 1.79177 11.3381 1.30347
40 Ni 1.79031 13.1922 3.54347
41 Al -0.130317 11.1825 7.33678
42 Al 1.94123 9.81514 8.74122
43 Al 1.82779 12.9018 5.93676
44 Ni -0.164927 9.35618 4.94221
45 Ni -0.0084639 11.1103 9.74306
46 Ni -0.0150477 13.8339 7.52807
47 Ni 1.86822 10.3708 6.24131
48 Ni 1.72148 12.2525 8.45491
49 Al 3.68968 2.19299 2.48371
50 Al 5.69095 0.506356 3.85441
51 Al 5.61791 3.7004 1.14704
52 Ni 3.70285 0.0109503 0.0964434
53 Ni 3.69111 1.73549 4.93954
54 Ni 3.71656 4.6417 2.57337
55 Ni 5.72358 1.15022 1.39191
56 Ni 5.67213 2.96392 3.66892
57 Al 3.84929 1.28597 7.5188
58 Al 5.64585 -0.28426 8.99754
59 Al 5.68593 3.02058 6.12468
60 Ni 3.80264 -0.742132 5.02499
61 Ni 3.73124 1.05183 9.94794
62 Ni 3.79123 3.84826 7.46123
63 Ni 5.66838 0.310191 6.45152
64 Ni 5.72508 2.41826 8.48676
65 Al 3.64979 7.03272 2.45283
66 Al 5.83417 5.41 3.85225
67 Al 5.7966 8.92329 1.1912
68 Ni 3.77799 5.03303 -0.00204859
69 Ni 3.84067 6.64215 5.02839
70 Ni 3.69046 9.62372 2.4193
71 Ni 5.67989 6.24485 1.30994
72 Ni 5.60983 8.04177 3.5892
73 Al 3.87658 6.50466 7.58382
74 Al 5.77667 4.82101 8.89863
75 Al 5.76143 8.09286 6.04283
76 Ni 3.77081 4.2747 4.96162
77 Ni 3.87467 6.11639 10.081
78 Ni 3.74638 8.88425 7.30593
79 Ni 5.73194 5.42359 6.38997
80 Ni 5.77381 7.38174 8.60512
81 Al 3.75096 12.1315 2.36329
82 Al 5.69063 10.5456 3.77158
83 Al 5.53356 13.7732 1.10256
84 Ni 3.8911 10.1844 0.0759871
85 Ni 3.82005 11.8074 4.75621
86 Ni 3.68652 14.7736 2.46983
87 Ni 5.68567 11.3275 1.29976
88 Ni 5.61485 13.1093 3.55734
89 Al 3.81564 11.3445 7.41065
90 Al 5.61764 9.83519 8.83385
91 Al 5.77018 13.0278 6.02035
92 Ni 3.83873 9.26798 4.82331
93 Ni 3.67837 11.1917 9.78757
94 Ni 3.78217 13.7285 7.33938
95 Ni 5.66123 10.441 6.18563
96 Ni 5.65015 12.3845 8.50699
97 Al 7.65716 2.1199 2.49455
98 Al 9.51208 0.524575 3.94265
99 Al 9.44852 3.74304 1.06904
100 Ni 7.49011 -0.103662 -0.0684505
101 Ni 7.55258 1.82905 4.89929
102 Ni 7.62496 4.54797 2.43248
103 Ni 9.49036 1.12287 1.45752
104 Ni 9.48213 3.0622 3.6517
105 Al 7.59611 1.1499 7.46553
106 Al 9.52864 -0.458837 8.79125
107 Al 9.51828 2.95488 6.04101
108 Ni 7.5341 -0.879899 4.91924
109 Ni 7.58143 1.02741 10.0192
110 Ni 7.63093 3.82361 7.46131
111 Ni 9.51436 0.277925 6.43149
112 Ni 9.53203 2.31692 8.57662
113 Al 7.58342 7.13485 2.71693
114 Al 9.60104 5.44222 3.89526
115 Al 9.467 8.76607 1.05233
116 Ni 7.59087 5.042 -0.0222078
117 Ni 7.70641 6.61939 5.07858
118 Ni 7.62799 9.617 2.45525
119 Ni 9.48693 6.14155 1.24955
120 Ni 9.67613 8.20001 3.52572
121 Al 7.6482 6.32206 7.42849
122 Al 9.50646 4.736 8.80081
123 Al 9.52473 7.94829 6.07365
124 Ni 7.6894 4.31841 5.04472
125 Ni 7.61097 6.12618 9.97195
126 Ni 7.60377 8.94318 7.47191
127 Ni 9.67421 5.32121 6.4653
128 Ni 9.51916 7.33311 8.52901
129 Al 7.62015 12.2563 2.42284
130 Al 9.57755 10.5482 3.66362
131 Al 9.52192 13.8304 1.15416
132 Ni 7.61593 10.0985 -0.0943193
133 Ni 7.5149 11.7521 4.9362
134 Ni 7.61922 14.6939 2.3728
135 Ni 9.41935 11.2829 1.2472
136 Ni 9.50944 13.1694 3.68154
137 Al 7.6085 11.3787 7.37635
138 Al 9.52213 9.71743 8.8417
139 Al 9.58366 12.9512 6.18681
140 Ni 7.69892 9.17111 4.97363
141 Ni 7.59 11.0619 9.83978
142 Ni 7.60177 13.8507 7.49472
143 Ni 9.52184 10.4335 6.2271
144 Ni 9.72289 12.3214 8.57697
ITEM: TIMESTEP
9500
ITEM: NUMBER OF ATOMS
144
ITEM: BOX BOUNDS xy xz yz pp pp pp
-1.8241352042267067e-02 1.1602841419107220e+01 1.1388987608962478e-01
-1.4119546712975510e+00 1.4989137875342035e+01 7.5650192627903290e-02
-2.9202844206688283e-03 9.9056384651607523e+00 -1.4333152191729819e+00
ITEM: ATOMS id element xu yu zu
1 Al -0.0298624 2.12853 2.60229
2 Al 1.94911 0.486942 3.83526
3 Al 1.96124 3.70979 1.16277
4 Ni -0.0967375 -0.0206095 0.037107
5 Ni 0.0428061 1.81963 5.07457
6 Ni -0.0779802 4.6203 2.46892
7 Ni 1.9026 1.17867 1.39177
8 Ni 1.9493 3.07813 3.57601
9 Al 0.148139 1.41397 7.55388
10 Al 1.95944 -0.0769858 8.81708
11 Al 1.95865 3.01699 6.04829
12 Ni -0.100706 -0.743361 4.98634
13 Ni 0.0772848 1.1124 10.0326
14 Ni 0.109701 4.0158 7.42542
15 Ni 1.94496 0.510586 6.22509
16 Ni 2.04379 2.39489 8.66022
17 Al 0.11691 7.09834 2.68472
18 Al 2.0088 5.44823 3.87738
19 Al 1.79341 8.65179 1.17128
20 Ni 0.0231513 5.03011 0.0540372
21 Ni 0.11914 6.82604 5.05411
22 Ni 0.0190317 9.69038 2.55715
23 Ni 1.91456 6.20342 1.48391
24 Ni 2.03396 8.16129 3.63537
25 Al 0.0234542 6.41378 7.4489
26 Al 1.9542 4.80901 8.82481
27 Al 1.99181 8.05366 6.28861
28 Ni -0.107461 4.37627 4.99929
29 Ni 0.200669 6.01708 9.81776
30 Ni 0.0408598 9.0116 7.46884
31 Ni 1.96458 5.52138 6.26908
32 Ni 2.02615 7.44765 8.56663
33 Al 0.122173 12.1228 2.45155
34 Al 2.06596 10.5 3.7577
35 Al 1.96117 13.7291 1.10005
36 Ni -0.0119172 9.97762 -0.00664248
37 Ni 0.118563 11.7208 4.94032
38 Ni 0.140148 14.6505 2.45492
39 Ni 1.93848 11.157 1.27322
40 Ni 2.02844 13.0573 3.50848
41 Al 0.0831329 11.4334 7.51207
42 Al 1.99657 9.99068 8.74578
43 Al 2.04153 12.9595 5.96399
44 Ni 0.131961 9.27206 4.93913
45 Ni 0.0737 11.0346 9.87294
46 Ni 0.0592449 13.9089 7.46053
47 Ni 2.04956 10.5389 6.27823
48 Ni 2.22439 12.3934 8.39347
49 Al 3.80093 2.21969 2.51282
50 Al 5.68557 0.679602 3.8571
51 Al 5.70478 3.76894 1.14026
52 Ni 3.84889 0.0479262 -0.135134
53 Ni 3.86137 1.71341 5.00011
54 Ni 3.82929 4.62824 2.54435
55 Ni 5.62793 1.25801 1.33549
56 Ni 5.66654 3.24497 3.52679
57 Al 3.94197 1.41714 7.39939
58 Al 5.7746 -0.155224 8.90162
59 Al 5.85334 3.05647 6.038
60 Ni 3.74195 -0.778973 4.98572
61 Ni 3.84738 1.08869 9.97154
62 Ni 3.89362 3.85022 7.46632
63 Ni 5.79291 0.485457 6.2924
64 Ni 5.65578 2.27419 8.6281
65 Al 3.8796 7.12639 2.41836
66 Al 5.72403 5.61078 3.94245
67 Al 5.79622 8.80185 1.09334
68 Ni 3.79342 5.08337 0.131692
69 Ni 3.77762 6.88659 4.98951
70 Ni 3.91919 9.70282 2.36228
71 Ni 5.70249 6.174 1.53354
72 Ni 5.87473 8.14961 3.59117
73 Al 3.95192 6.49245 7.45748
74 Al 5.77796 4.75667 8.9537
75 Al 5.7435 7.97541 6.06671
76 Ni 3.81866 4.21953 4.97728
77 Ni 3.77161 6.09406 9.91485
78 Ni 4.02049 8.85821 7.40878
79 Ni 5.83047 5.35119 6.37289
80 Ni 5.78418 7.38866 8.52789
81 Al 3.94608 12.0071 2.42792
82 Al 5.72132 10.6765 3.85255
83 Al 5.7697 13.745 1.09902
84 Ni 3.73143 9.96927 -0.134772
85 Ni 3.85547 11.7822 4.89847
86 Ni 3.89977 14.6357 2.36577
87 Ni 5.77298 11.1499 1.29175
88 Ni 5.7955 13.1103 3.44677
89 Al 4.08447 11.2876 7.45483
90 Al 5.90757 9.72534 8.84932
91 Al 5.88826 13.0213 5.94697
92 Ni 3.92716 9.25929 4.92965
93 Ni 4.06346 11.0906 9.80448
94 Ni 3.92588 14.0807 7.48621
95 Ni 5.92723 10.4549 6.22066
96 Ni 5.82768 12.383 8.44995
97 Al 7.663 2.25105 2.53109
98 Al 9.64705 0.568559 3.88592
99 Al 9.40515 3.9116 1.15332
100 Ni 7.65868 0.0545483 0.00795799
101 Ni 7.76185 1.73914 5.08923
102 Ni 7.62537 4.76177 2.64267
103 Ni 9.5003 1.2587 1.47022
104 Ni 9.54828 3.10595 3.634
105 Al 7.65369 1.42215 7.50035
106 Al 9.58731 -0.124334 8.76202
107 Al 9.63125 3.05483 6.10619
108 Ni 7.65193 -0.642516 5.00797
109 Ni 7.62757 1.0453 9.91147
110 Ni 7.69522 3.94739 7.55845
111 Ni 9.63585 0.526459 6.41221
112 Ni 9.63261 2.34422 8.63771
113 Al 7.65498 7.25274 2.51875
114 Al 9.54742 5.57234 3.97826
115 Al 9.59217 8.73292 1.12485
116 Ni 7.65815 4.91694 0.0387855
117 Ni 7.62493 6.86974 4.96949
118 Ni 7.6705 9.74959 2.44123
119 Ni 9.62461 6.22626 1.54294
120 Ni 9.45266 8.09091 3.69398
121 Al 7.60751 6.36192 7.53513
122 Al 9.60611 4.76555 8.85677
123 Al 9.57651 8.00471 6.06971
124 Ni 7.628 4.21582 4.93657
125 Ni 7.72618 5.93897 9.9495
126 Ni 7.68332 8.8193 7.30188
127 Ni 9.47768 5.52601 6.33827
128 Ni 9.61585 7.34459 8.59453
129 Al 7.67822 12.1565 2.39203
130 Al 9.70252 10.4833 3.82034
131 Al 9.57962 13.7873 1.13763
132 Ni 7.65418 9.96313 -0.0116455
133 Ni 7.72125 11.7948 4.86326
134 Ni 7.67009 14.6702 2.62785
135 Ni 9.54072 11.1827 1.38581
136 Ni 9.58273 13.1148 3.43103
137 Al 7.66519 11.387 7.37312
138 Al 9.47762 9.78587 8.8004
139 Al 9.61786 12.9315 6.03899
140 Ni 7.55957 9.40693 4.85873
141 Ni 7.7666 11.0371 9.90362
142 Ni 7.79731 14.0242 7.43965
143 Ni 9.66078 10.5062 6.32094
144 Ni 9.59245 12.391 8.49788
ITEM: TIMESTEP
9600
ITEM: NUMBER OF ATOMS
144
ITEM: BOX BOUNDS xy xz yz pp pp pp
-1.7460339381380835e-01 1.1422206079927996e+01 -1.0240633145801527e-01
-1.5143341897228577e+00 1.5077545081203034e+01 -4.5050980775224007e-02
-2.3819721200802668e-02 9.9265379019408879e+00 -1.4472875317372891e+00
ITEM: ATOMS id element xu yu zu
1 Al -0.079038 1.97291 2.57457
2 Al 1.94358 0.522317 3.84871
3 Al 1.8603 3.58944 1.09624
4 Ni -0.00616572 -0.0891867 -0.164305
5 Ni -0.0969922 1.76601 4.96489
6 Ni -0.018356 4.62852 2.5572
7 Ni 1.88561 1.09216 1.32172
8 Ni 1.8724 3.03951 3.67973
9 Al -0.135984 1.38883 7.50831
10 Al 1.89317 -0.144926 8.75199
11 Al 1.8413 2.95998 6.17131
12 Ni 0.0245093 -0.663308 4.76933
13 Ni -0.0371179 0.958125 9.89853
14 Ni -0.205914 3.91795 7.45896
15 Ni 1.76757 0.520523 6.34684
16 Ni 1.77081 2.29199 8.56086
17 Al -0.0436071 7.11855 2.4214
18 Al 1.82043 5.5426 3.88835
19 Al 1.87402 8.75786 1.08081
20 Ni -0.107256 4.8697 -0.0398469
21 Ni -0.194185 6.80024 4.93402
22 Ni -0.0773647 9.65743 2.45664
23 Ni 1.79918 6.11273 1.30177
24 Ni 1.68375 8.12948 3.5513
25 Al -0.189435 6.44449 7.48762
26 Al 1.61517 4.78263 8.87227
27 Al 1.75331 8.05976 6.06224
28 Ni -0.00879525 4.25695 4.95717
29 Ni -0.23414 6.01903 9.98634
30 Ni -0.0625239 8.92305 7.47705
31 Ni 1.64616 5.43458 6.42636
32 Ni 1.72736 7.27017 8.59999
33 Al -0.0607341 12.1935 2.54144
34 Al 1.71332 10.6264 3.97243
35 Al 1.80489 13.8201 1.13923
36 Ni -0.109146 9.95721 0.0178178
37 Ni -0.189872 11.9029 4.99884
38 Ni -0.1276 14.6757 2.26071
39 Ni 1.77906 11.2326 1.52064
40 Ni 1.80586 13.2042 3.54855
41 Al -0.241392 11.6347 7.43454
42 Al 1.63368 9.79482 8.96316
43 Al 1.88793 13.1312 5.92477
44 Ni -0.185059 9.38873 4.95116
45 Ni -0.121292 11.0718 10.0269
46 Ni -0.145428 14.178 7.33043
47 Ni 1.61963 10.5404 6.35519
48 Ni 1.62441 12.4899 8.57344
49 Al 3.83316 2.11792 2.46597
50 Al 5.68144 0.55328 3.93062
51 Al 5.61566 3.63032 1.11159
52 Ni 3.7594 -0.119203 -0.00445116
53 Ni 3.67215 1.84237 4.95909
54 Ni 3.72971 4.65493 2.49733
55 Ni 5.77126 1.07467 1.3992
56 Ni 5.62977 2.96322 3.7237
57 Al 3.77645 1.36923 7.48362
58 Al 5.62302 -0.206586 8.91851
59 Al 5.6147 3.03374 6.12681
60 Ni 3.82525 -0.664866 4.85249
61 Ni 3.74804 0.881346 9.93466
62 Ni 3.62592 3.91798 7.56594
63 Ni 5.63142 0.480455 6.41556
64 Ni 5.69468 2.40013 8.55226
65 Al 3.71411 7.0206 2.3889
66 Al 5.66144 5.46185 3.82778
67 Al 5.60349 8.74295 1.11465
68 Ni 3.75531 4.82265 -0.039267
69 Ni 3.67822 6.75272 4.96326
70 Ni 3.62465 9.7025 2.59851
71 Ni 5.63904 6.14716 1.3417
72 Ni 5.529 8.09447 3.56185
73 Al 3.60442 6.61374 7.46796
74 Al 5.55487 4.83203 8.78414
75 Al 5.50391 8.0506 6.03423
76 Ni 3.73431 4.31779 5.09316
77 Ni 3.66895 5.92786 9.93491
78 Ni 3.51555 9.04131 7.4817
79 Ni 5.48764 5.52882 6.39609
80 Ni 5.46613 7.37052 8.50001
81 Al 3.78403 12.0657 2.48784
82 Al 5.67029 10.5983 3.92352
83 Al 5.58193 13.7794 1.12222
84 Ni 3.85931 9.9806 -0.0102999
85 Ni 3.70303 11.9172 4.87453
86 Ni 3.73473 14.6893 2.51648
87 Ni 5.68864 11.1801 1.30133
88 Ni 5.58664 13.1809 3.62643
89 Al 3.52712 11.4972 7.59498
90 Al 5.44681 9.8029 8.80683
91 Al 5.60515 13.0992 6.03801
92 Ni 3.56784 9.36707 5.00835
93 Ni 3.61896 10.9939 9.88553
94 Ni 3.673 13.9764 7.39609
95 Ni 5.44329 10.5643 6.39362
96 Ni 5.60204 12.3892 8.51093
97 Al 7.66796 2.15563 2.50045
98 Al 9.50816 0.450177 3.87929
99 Al 9.48995 3.77649 1.1233
100 Ni 7.59587 0.00979721 -0.0748182
101 Ni 7.4473 1.71376 4.96466
102 Ni 7.54149 4.5368 2.45004
103 Ni 9.53482 1.00196 1.36269
104 Ni 9.5065 3.08219 3.62353
105 Al 7.50332 1.34377 7.43832
106 Al 9.37509 -0.155508 8.77013
107 Al 9.48478 3.02333 6.02634
108 Ni 7.5777 -0.7509 4.90657
109 Ni 7.57466 1.02027 10.073
110 Ni 7.4032 3.949 7.47488
111 Ni 9.34108 0.529778 6.31879
112 Ni 9.32705 2.41991 8.60952
113 Al 7.54753 7.22132 2.54032
114 Al 9.41651 5.54317 3.91634
115 Al 9.38145 8.81955 1.08679
116 Ni 7.54331 5.03412 0.0517941
117 Ni 7.57934 6.78036 4.95941
118 Ni 7.53881 9.59505 2.45588
119 Ni 9.33908 6.08766 1.34201
120 Ni 9.51995 8.16993 3.4982
121 Al 7.43073 6.44856 7.44633
122 Al 9.30517 4.84433 8.79895
123 Al 9.40294 7.95855 6.06709
124 Ni 7.44744 4.33152 5.08002
125 Ni 7.4762 6.06216 9.92305
126 Ni 7.52653 9.04723 7.55326
127 Ni 9.55565 5.48844 6.36043
128 Ni 9.42147 7.42486 8.52066
129 Al 7.53797 12.1979 2.42433
130 Al 9.47139 10.5898 3.85654
131 Al 9.43192 13.7541 0.960649
132 Ni 7.47283 9.99857 -0.0401517
133 Ni 7.45951 11.887 4.99552
134 Ni 7.61803 14.7243 2.35895
135 Ni 9.50484 11.1862 1.39374
136 Ni 9.42043 13.1671 3.62824
137 Al 7.45052 11.4277 7.35079
138 Al 9.4075 9.87068 8.82319
139 Al 9.43664 13.2286 6.09388
140 Ni 7.62065 9.20474 5.02161
141 Ni 7.49298 11.0256 9.80838
142 Ni 7.51201 13.9408 7.40619
143 Ni 9.41129 10.4643 6.39779
144 Ni 9.31864 12.4878 8.47489
ITEM: TIMESTEP
9700
ITEM: NUMBER OF ATOMS
144
ITEM: BOX BOUNDS xy xz yz pp pp pp
-2.2719717579121768e-01 1.1420889410832483e+01 -1.3979737934309278e-01
-1.4837318601768914e+00 1.5026377871948640e+01 -6.1570383963062018e-02
-2.0425008337875639e-02 9.9231431890779618e+00 -1.4678524114457183e+00
ITEM: ATOMS id element xu yu zu
1 Al -0.0981315 2.01495 2.4229
2 Al 1.86497 0.518815 3.92402
3 Al 1.82661 3.69518 1.00158
4 Ni -0.04267 -0.0552885 0.0375317
5 Ni -0.110081 1.8206 4.8686
6 Ni -0.131907 4.56499 2.41562
7 Ni 1.82099 1.09791 1.32946
8 Ni 1.76871 3.10062 3.492
9 Al 0.0216853 1.2288 7.3539
10 Al 1.73403 -0.238993 8.86791
11 Al 1.82966 3.0633 5.99261
12 Ni -0.131993 -0.754427 5.0206
13 Ni -0.184097 1.04705 9.83326
14 Ni -0.116939 3.96864 7.52029
15 Ni 1.84426 0.445659 6.35815
16 Ni 1.67919 2.38365 8.56996
17 Al -0.121836 7.18232 2.42324
18 Al 1.64433 5.56318 3.81053
19 Al 1.76656 8.71601 1.0917
20 Ni -0.103979 5.05961 0.0395534
21 Ni -0.137269 6.78326 4.95673
22 Ni -0.193088 9.60996 2.53855
23 Ni 1.82399 6.19659 1.47282
24 Ni 1.76424 8.0978 3.61546
25 Al -0.221851 6.42702 7.3126
26 Al 1.72991 4.86776 8.84469
27 Al 1.78858 8.10487 6.08162
28 Ni -0.261714 4.32129 4.98625
29 Ni -0.0772328 6.07221 9.87646
30 Ni -0.246415 8.91627 7.47794
31 Ni 1.82605 5.57166 6.29089
32 Ni 1.75864 7.46348 8.4625
33 Al -0.126861 12.1425 2.47164
34 Al 1.76315 10.5341 3.88258
35 Al 1.65179 13.8053 1.1291
36 Ni -0.126787 10.0637 0.000669951
37 Ni -0.144941 11.7381 5.03526
38 Ni -0.198001 14.6644 2.60699
39 Ni 1.71441 11.1223 1.30754
40 Ni 1.74731 13.1119 3.7204
41 Al -0.108294 11.4498 7.42665
42 Al 1.70984 9.84869 8.80488
43 Al 1.73526 13.014 6.09266
44 Ni -0.142943 9.29697 4.98827
45 Ni -0.22849 11.066 9.96921
46 Ni -0.288528 13.7627 7.49316
47 Ni 1.78864 10.4381 6.45388
48 Ni 1.84589 12.2566 8.52913
49 Al 3.79424 2.08028 2.56724
50 Al 5.60189 0.441063 3.94035
51 Al 5.59741 3.69515 1.11544
52 Ni 3.82455 -0.00337782 -0.0121144
53 Ni 3.79456 1.75149 4.9761
54 Ni 3.71276 4.55629 2.45828
55 Ni 5.60514 1.13528 1.29018
56 Ni 5.69809 3.09599 3.52439
57 Al 3.63259 1.40626 7.47446
58 Al 5.56408 -0.116906 8.81453
59 Al 5.69645 3.04655 6.01044
60 Ni 3.63222 -0.799961 5.02601
61 Ni 3.6635 1.03271 9.91714
62 Ni 3.76723 3.95222 7.33461
63 Ni 5.63389 0.525963 6.32683
64 Ni 5.53023 2.34645 8.62057
65 Al 3.76355 7.03703 2.51109
66 Al 5.51956 5.48425 3.83186
67 Al 5.60024 8.73297 1.09361
68 Ni 3.7302 5.0685 0.0251184
69 Ni 3.67771 6.82948 5.03478
70 Ni 3.67588 9.58094 2.46424
71 Ni 5.45552 6.17009 1.38721
72 Ni 5.66765 8.07562 3.6444
73 Al 3.74383 6.53098 7.53702
74 Al 5.58688 4.77509 8.72729
75 Al 5.52341 7.99792 6.08304
76 Ni 3.64005 4.32754 4.88037
77 Ni 3.66264 6.09604 9.91118
78 Ni 3.72855 8.84286 7.50764
79 Ni 5.72533 5.56716 6.2496
80 Ni 5.66262 7.42767 8.64979
81 Al 3.48592 12.1593 2.51307
82 Al 5.47709 10.6328 3.8001
83 Al 5.55143 13.7623 1.08011
84 Ni 3.53285 10.008 0.168591
85 Ni 3.57306 11.7599 4.98815
86 Ni 3.59198 14.6445 2.39843
87 Ni 5.42822 11.153 1.4646
88 Ni 5.59631 13.0345 3.6029
89 Al 3.67648 11.4631 7.47758
90 Al 5.40259 9.7876 8.88508
91 Al 5.58084 13.0009 5.97452
92 Ni 3.7139 9.33302 5.02026
93 Ni 3.65436 11.067 10.0361
94 Ni 3.52897 14.005 7.5162
95 Ni 5.64155 10.537 6.31871
96 Ni 5.46145 12.3729 8.50547
97 Al 7.49862 2.07573 2.40667
98 Al 9.45642 0.464422 3.86022
99 Al 9.35021 3.79866 1.03394
100 Ni 7.6226 -0.112825 -0.0390203
101 Ni 7.54978 1.85024 4.94734
102 Ni 7.57594 4.57814 2.40357
103 Ni 9.39852 1.25898 1.30734
104 Ni 9.42889 2.97271 3.53501
105 Al 7.54695 1.41084 7.35877
106 Al 9.29086 -0.177305 8.76601
107 Al 9.54321 2.96571 6.10847
108 Ni 7.55512 -0.73777 4.9156
109 Ni 7.43573 0.939782 9.862
110 Ni 7.5399 3.9265 7.43727
111 Ni 9.51976 0.369314 6.30088
112 Ni 9.52513 2.31909 8.53971
113 Al 7.55768 7.06492 2.4305
114 Al 9.44573 5.59871 3.81561
115 Al 9.37315 8.77795 1.16269
116 Ni 7.53467 5.02301 -0.00947791
117 Ni 7.46486 6.77252 4.99527
118 Ni 7.46195 9.53628 2.57102
119 Ni 9.48966 6.12848 1.31777
120 Ni 9.30938 8.02512 3.61546
121 Al 7.47006 6.4471 7.54425
122 Al 9.31785 4.85078 8.83502
123 Al 9.26619 8.06153 6.02407
124 Ni 7.55079 4.29573 4.85206
125 Ni 7.4409 6.04985 9.94774
126 Ni 7.49941 8.93085 7.45712
127 Ni 9.24503 5.5182 6.26851
128 Ni 9.32026 7.38277 8.5701
129 Al 7.43967 12.0486 2.42839
130 Al 9.46982 10.5575 3.90519
131 Al 9.43048 13.8273 1.16738
132 Ni 7.5672 10.0224 0.114338
133 Ni 7.38025 11.83 4.8976
134 Ni 7.36024 14.5655 2.43556
135 Ni 9.36341 11.13 1.39504
136 Ni 9.33202 13.1408 3.5633
137 Al 7.47598 11.4657 7.50424
138 Al 9.24461 9.84194 8.80709
139 Al 9.29358 13.0383 6.10021
140 Ni 7.38535 9.3707 5.01451
141 Ni 7.41995 11.0889 10.0389
142 Ni 7.33451 13.9876 7.38933
143 Ni 9.38311 10.5791 6.37072
144 Ni 9.44516 12.2761 8.62535
ITEM: TIMESTEP
9800
ITEM: NUMBER OF ATOMS
144
ITEM: BOX BOUNDS xy xz yz pp pp pp
-4.3012975961235433e-02 1.1601664945758806e+01 9.1835531058681405e-02
-1.5091290851118739e+00 1.5014542818343234e+01 7.1756440391460105e-02
1.5632085742610435e-02 9.8870860949974748e+00 -1.5050846899861041e+00
ITEM: ATOMS id element xu yu zu
1 Al -0.0389475 2.13322 2.50228
2 Al 1.80998 0.423873 3.86243
3 Al 1.88981 3.84826 1.00581
4 Ni -0.03669 0.0434756 0.190051
5 Ni -0.0534334 1.65831 4.94862
6 Ni -0.058998 4.66961 2.48324
7 Ni 1.86233 1.26423 1.44712
8 Ni 1.86559 2.98625 3.60645
9 Al 0.0086163 1.43537 7.35401
10 Al 1.91018 -0.129862 8.84703
11 Al 2.02734 2.96903 5.9246
12 Ni -0.0360963 -0.808648 5.11286
13 Ni 0.142347 1.00625 9.91747
14 Ni 0.0745139 3.8281 7.24324
15 Ni 1.99613 0.377829 6.25672
16 Ni 1.99637 2.33693 8.39889
17 Al -0.0357614 7.12234 2.46153
18 Al 1.95052 5.52644 3.81669
19 Al 1.92646 8.86997 1.18081
20 Ni -0.010597 5.00787 -0.078211
21 Ni 0.0497302 6.68595 4.97497
22 Ni 0.0117554 9.6259 2.52876
23 Ni 1.87437 6.23034 1.2906
24 Ni 1.9093 8.01317 3.6517
25 Al 0.124487 6.39573 7.45455
26 Al 1.87746 4.75665 8.79274
27 Al 2.01834 7.94001 6.1005
28 Ni 0.118969 4.23724 4.88592
29 Ni -0.00896427 5.89014 9.97439
30 Ni 0.181761 8.83689 7.48671
31 Ni 1.93242 5.32404 6.38078
32 Ni 2.06492 7.21821 8.67878
33 Al -0.0497331 12.1236 2.49781
34 Al 1.94816 10.5553 3.94606
35 Al 1.88998 13.856 1.18223
36 Ni 0.0430443 9.95103 0.0816995
37 Ni -0.0123976 11.7211 5.004
38 Ni 0.013167 14.6018 2.50777
39 Ni 1.86533 11.2182 1.49439
40 Ni 1.95854 13.0265 3.59964
41 Al 0.107586 11.4245 7.43679
42 Al 2.03594 9.70321 8.76831
43 Al 2.00319 12.9834 6.02988
44 Ni 0.0483726 9.2555 5.00128
45 Ni 0.115636 11.0401 9.95421
46 Ni 0.174053 14.0141 7.51525
47 Ni 2.00405 10.4274 6.28463
48 Ni 1.84902 12.4495 8.66712
49 Al 3.72199 2.15237 2.51847
50 Al 5.68065 0.503902 3.8998
51 Al 5.69529 3.79773 0.957662
52 Ni 3.63424 0.0508376 0.0942612
53 Ni 3.71239 1.72511 4.91669
54 Ni 3.81382 4.7231 2.29626
55 Ni 5.61247 1.20216 1.40093
56 Ni 5.61732 3.05756 3.47578
57 Al 3.79693 1.28975 7.39203
58 Al 5.64439 -0.0595906 8.88557
59 Al 5.78657 2.79729 5.97391
60 Ni 3.84825 -0.686601 5.00329
61 Ni 3.8163 1.11592 9.8886
62 Ni 3.78416 3.81847 7.33308
63 Ni 5.7742 0.399889 6.31601
64 Ni 5.80153 2.37279 8.34744
65 Al 3.87022 7.08935 2.41336
66 Al 5.65311 5.47647 3.91369
67 Al 5.70695 8.73807 1.06452
68 Ni 3.79295 5.00012 -0.157289
69 Ni 3.92934 6.71302 4.94181
70 Ni 3.80809 9.67723 2.42623
71 Ni 5.84724 6.1881 1.40947
72 Ni 5.74179 8.03591 3.58055
73 Al 3.77777 6.39081 7.49001
74 Al 5.79489 4.76132 8.75194
75 Al 5.75436 7.87323 6.05682
76 Ni 3.89216 4.15581 4.87021
77 Ni 3.86069 6.08054 10.0221
78 Ni 3.89618 8.86296 7.35109
79 Ni 5.7073 5.30118 6.38823
80 Ni 5.7502 7.26686 8.48164
81 Al 3.78248 12.1406 2.43868
82 Al 5.77995 10.5601 3.88488
83 Al 5.80353 13.8139 1.14738
84 Ni 3.97987 10.0508 -0.116138
85 Ni 3.91285 11.7728 5.02064
86 Ni 3.78278 14.6437 2.53441
87 Ni 5.91258 11.2 1.44561
88 Ni 5.71263 13.1104 3.58547
89 Al 3.78874 11.6323 7.49799
90 Al 5.66819 9.92807 8.73851
91 Al 5.90172 12.8747 5.98741
92 Ni 3.826 9.126 4.97276
93 Ni 3.77071 11.0828 9.8908
94 Ni 3.91946 13.8803 7.40719
95 Ni 5.78969 10.4713 6.42556
96 Ni 5.81461 12.4018 8.68062
97 Al 7.56279 2.20795 2.42138
98 Al 9.59904 0.401654 3.92453
99 Al 9.53218 3.81767 1.01268
100 Ni 7.57999 0.0705738 0.117675
101 Ni 7.59789 1.6561 4.88703
102 Ni 7.5883 4.64186 2.42738
103 Ni 9.51936 1.06588 1.41504
104 Ni 9.53178 3.11767 3.47112
105 Al 7.65955 1.33896 7.40998
106 Al 9.59421 -0.079308 8.83838
107 Al 9.5941 2.95778 5.96962
108 Ni 7.56686 -0.814683 5.05192
109 Ni 7.72461 1.08549 9.8658
110 Ni 7.67231 3.95506 7.36024
111 Ni 9.47594 0.487651 6.31805
112 Ni 9.54189 2.38425 8.39669
113 Al 7.70531 7.2887 2.57043
114 Al 9.56593 5.60666 3.92587
115 Al 9.58175 8.8118 1.22568
116 Ni 7.69322 4.95032 -0.143015
117 Ni 7.75438 6.74274 4.93423
118 Ni 7.74175 9.74688 2.4161
119 Ni 9.49421 6.19315 1.43132
120 Ni 9.68598 8.08145 3.59255
121 Al 7.7304 6.39224 7.39873
122 Al 9.55145 4.78549 8.83885
123 Al 9.60604 7.91986 6.10616
124 Ni 7.60614 4.18315 4.90807
125 Ni 7.7711 5.99402 9.89314
126 Ni 7.69392 8.88361 7.50732
127 Ni 9.73966 5.42863 6.37326
128 Ni 9.63026 7.26998 8.51421
129 Al 7.64595 12.2318 2.64205
130 Al 9.67372 10.5576 3.93538
131 Al 9.60398 13.7005 1.17499
132 Ni 7.64117 9.89024 0.0544022
133 Ni 7.73038 11.7505 5.14941
134 Ni 7.69732 14.7309 2.57229
135 Ni 9.53778 11.2258 1.5103
136 Ni 9.57733 13.0226 3.71893
137 Al 7.75253 11.4882 7.44686
138 Al 9.58916 9.697 8.85108
139 Al 9.74368 13.0934 6.20037
140 Ni 7.78492 9.18829 4.98347
141 Ni 7.79094 11.0857 9.95772
142 Ni 7.86405 13.9634 7.521
143 Ni 9.54089 10.3263 6.44006
144 Ni 9.58469 12.3799 8.56089
ITEM: TIMESTEP
9900
ITEM: NUMBER OF ATOMS
144
ITEM: BOX BOUNDS xy xz yz pp pp pp
-6.4056970295401250e-02 1.1569128834659940e+01 7.3756026701763094e-02
-1.6324294192659234e+00 1.5061795214405706e+01 3.6255839315333965e-02
-2.5790497058316930e-02 9.9285086777984084e+00 -1.5811326280776878e+00
ITEM: ATOMS id element xu yu zu
1 Al 0.000187487 2.15481 2.46753
2 Al 1.91063 0.483959 3.84192
3 Al 1.93008 3.7185 0.968288
4 Ni -0.10771 -0.045456 -0.0548463
5 Ni -0.0246694 1.6665 4.92863
6 Ni 0.00215341 4.57284 2.31053
7 Ni 1.80856 1.03665 1.29722
8 Ni 1.89387 3.04054 3.48704
9 Al -0.179605 1.34434 7.49607
10 Al 1.73781 -0.369337 8.88329
11 Al 1.93194 2.99992 5.97223
12 Ni -0.0166156 -0.807281 4.91292
13 Ni -0.140985 0.821105 9.94223
14 Ni -0.101529 3.84113 7.4546
15 Ni 1.71525 0.332243 6.45386
16 Ni 1.90382 2.19369 8.68002
17 Al -0.087592 7.10665 2.50013
18 Al 1.79408 5.51793 3.76139
19 Al 1.91696 8.81232 1.04103
20 Ni -0.0616542 4.99023 -0.0707607
21 Ni -0.0279048 6.67162 4.96701
22 Ni -0.0247436 9.6496 2.50516
23 Ni 1.98527 6.15201 1.36433
24 Ni 1.89007 8.08386 3.5548
25 Al -0.0236029 6.23358 7.33617
26 Al 1.88921 4.72774 8.84192
27 Al 1.93289 8.0383 6.03163
28 Ni -0.112786 4.13424 4.86889
29 Ni 0.0638205 6.05566 9.93463
30 Ni -0.0951806 8.85107 7.50488
31 Ni 1.81512 5.37047 6.20927
32 Ni 1.80486 7.38516 8.44523
33 Al 0.0332007 12.1146 2.47868
34 Al 1.83809 10.5464 3.98597
35 Al 1.97623 13.7679 1.01255
36 Ni -0.0726666 10.1267 0.0981065
37 Ni 0.0611881 11.7441 5.00849
38 Ni 0.0531814 14.7349 2.43741
39 Ni 2.01254 11.2453 1.39091
40 Ni 1.91974 13.1087 3.63394
41 Al 0.0948747 11.425 7.60633
42 Al 1.91375 9.71904 8.86744
43 Al 1.96641 12.9825 6.22307
44 Ni 0.0127827 9.16702 5.00661
45 Ni -0.0675032 11.0279 10.0548
46 Ni -0.087244 13.7927 7.32216
47 Ni 1.81947 10.3716 6.44302
48 Ni 2.1312 12.2448 8.53293
49 Al 3.76777 2.08442 2.38846
50 Al 5.76981 0.394793 3.92311
51 Al 5.68835 3.78913 1.10769
52 Ni 3.86967 -0.0515207 0.0720927
53 Ni 3.87526 1.68452 4.84934
54 Ni 3.83097 4.58464 2.51713
55 Ni 5.88094 1.15714 1.34365
56 Ni 5.83929 3.05995 3.56224
57 Al 3.72374 1.26071 7.35419
58 Al 5.63704 -0.291444 8.85767
59 Al 5.75388 2.85302 6.04299
60 Ni 3.70193 -0.973129 4.95645
61 Ni 3.88569 0.894576 9.82349
62 Ni 3.89635 3.83286 7.42192
63 Ni 5.73783 0.332868 6.33283
64 Ni 5.71834 2.28082 8.61289
65 Al 3.75412 7.12324 2.39389
66 Al 5.59373 5.46705 3.81808
67 Al 5.72892 8.86171 0.989829
68 Ni 3.81194 5.00635 0.118236
69 Ni 3.69963 6.71644 4.96222
70 Ni 3.93084 9.62315 2.5708
71 Ni 5.69526 6.3159 1.3371
72 Ni 5.75568 8.07859 3.59446
73 Al 3.68742 6.32816 7.42009
74 Al 5.78188 4.71572 8.64768
75 Al 5.55213 7.87056 6.11147
76 Ni 3.72212 4.16493 4.9105
77 Ni 3.90142 5.9777 9.8115
78 Ni 3.73543 8.73567 7.59678
79 Ni 5.79425 5.52924 6.15625
80 Ni 5.70706 7.26147 8.55474
81 Al 3.8405 12.174 2.62089
82 Al 5.78594 10.6262 3.88244
83 Al 5.81432 13.8448 1.09217
84 Ni 3.69865 10.0346 0.0774838
85 Ni 3.76828 11.6868 4.98637
86 Ni 3.91414 14.715 2.58027
87 Ni 5.7083 11.3047 1.44155
88 Ni 5.75303 13.1024 3.86051
89 Al 3.83349 11.2566 7.43884
90 Al 5.66371 9.70363 8.78253
91 Al 5.72635 12.8 6.07655
92 Ni 3.81864 9.24603 4.971
93 Ni 4.01306 10.9767 10.0203
94 Ni 3.82568 13.879 7.54751
95 Ni 5.75958 10.3215 6.36408
96 Ni 5.73556 12.1155 8.51355
97 Al 7.65752 2.1656 2.45244
98 Al 9.61493 0.496357 3.90746
99 Al 9.49579 3.75669 1.02324
100 Ni 7.6275 -0.100673 0.0780774
101 Ni 7.5823 1.66647 4.90591
102 Ni 7.76335 4.65808 2.42777
103 Ni 9.55404 1.29233 1.36672
104 Ni 9.52115 2.98322 3.54049
105 Al 7.64355 1.13165 7.46222
106 Al 9.4067 -0.395523 8.81669
107 Al 9.5366 2.80928 6.11127
108 Ni 7.6821 -0.897274 5.05694
109 Ni 7.59927 0.924358 9.89691
110 Ni 7.56298 3.70812 7.4031
111 Ni 9.61518 0.261381 6.38435
112 Ni 9.48003 2.18594 8.57852
113 Al 7.5872 7.10246 2.51031
114 Al 9.55788 5.57026 3.80078
115 Al 9.52199 8.75316 1.20676
116 Ni 7.56117 5.094 0.0394974
117 Ni 7.65134 6.70314 4.95865
118 Ni 7.6644 9.65938 2.52907
119 Ni 9.67966 6.23355 1.24588
120 Ni 9.53105 8.0366 3.6243
121 Al 7.70391 6.34634 7.47183
122 Al 9.43444 4.70888 8.86717
123 Al 9.59343 7.93819 6.09479
124 Ni 7.69867 4.22546 4.91824
125 Ni 7.64296 6.02732 9.91963
126 Ni 7.72105 8.80814 7.32815
127 Ni 9.53448 5.33954 6.23084
128 Ni 9.58347 7.3263 8.4995
129 Al 7.69272 12.2014 2.57189
130 Al 9.6704 10.549 3.88529
131 Al 9.60993 13.8509 1.21287
132 Ni 7.72941 10.1575 -0.0249221
133 Ni 7.62654 11.6651 4.96697
134 Ni 7.70095 14.6406 2.51046
135 Ni 9.66679 11.2314 1.35835
136 Ni 9.71827 13.1539 3.60863
137 Al 7.77106 11.2785 7.39461
138 Al 9.55778 9.7524 8.83867
139 Al 9.69252 12.9222 6.08918
140 Ni 7.60931 9.07211 5.00651
141 Ni 7.62784 11.0011 10.0334
142 Ni 7.5755 13.6795 7.46528
143 Ni 9.71214 10.4185 6.38707
144 Ni 9.53106 12.2252 8.64748
ITEM: TIMESTEP
10000
ITEM: NUMBER OF ATOMS
144
ITEM: BOX BOUNDS xy xz yz pp pp pp
-1.8718089239497074e-01 1.1417003804803162e+01 -8.3186770926457682e-02
-1.5827693155354856e+00 1.5000750238867376e+01 -8.2050315012781261e-02
6.5771389687592219e-03 9.8961410417713367e+00 -1.5925174998855880e+00
ITEM: ATOMS id element xu yu zu
1 Al -0.025562 2.14595 2.47344
2 Al 1.79859 0.489584 3.8495
3 Al 1.84102 3.8839 1.00927
4 Ni 0.0704252 0.0240801 -0.0361793
5 Ni -0.129111 1.75116 5.05238
6 Ni -0.0350766 4.63873 2.59596
7 Ni 1.89601 1.26338 1.43335
8 Ni 1.8517 3.04188 3.74738
9 Al -0.164563 1.22645 7.40934
10 Al 1.79096 -0.260495 8.8421
11 Al 1.79237 3.01495 6.03344
12 Ni -0.223058 -0.786796 4.94663
13 Ni -0.0187588 1.00645 9.91937
14 Ni -0.122379 3.78644 7.37687
15 Ni 1.9388 0.401157 6.29727
16 Ni 1.72828 2.30843 8.45573
17 Al -0.147217 7.06775 2.4559
18 Al 1.79079 5.52492 3.92667
19 Al 1.77696 8.72783 1.06861
20 Ni -0.122997 4.9682 0.00607989
21 Ni -0.187649 6.75743 4.79455
22 Ni -0.0555178 9.66727 2.4507
23 Ni 1.7337 6.19227 1.32797
24 Ni 1.82205 8.04053 3.60203
25 Al -0.195666 6.38108 7.35449
26 Al 1.70643 4.71596 8.76525
27 Al 1.75912 7.93887 6.02662
28 Ni -0.0551212 4.28694 5.02038
29 Ni -0.226031 5.87869 9.74161
30 Ni -0.122642 8.88134 7.36598
31 Ni 1.74211 5.41369 6.38436
32 Ni 1.85929 7.18757 8.57326
33 Al -0.129414 12.0463 2.62643
34 Al 1.68567 10.5802 4.09043
35 Al 1.80036 13.7512 1.16688
36 Ni 0.0337145 9.99746 -0.10097
37 Ni -0.196558 11.7292 5.06758
38 Ni -0.149952 14.5307 2.5474
39 Ni 1.71569 11.1255 1.46161
40 Ni 1.88442 13.0679 3.62528
41 Al -0.118175 11.3208 7.45802
42 Al 1.88083 9.55988 8.7753
43 Al 1.76737 12.9147 6.2001
44 Ni -0.196378 9.27974 4.90275
45 Ni -0.08269 10.8611 9.96545
46 Ni -0.0539091 13.8277 7.49435
47 Ni 1.77194 10.3431 6.38356
48 Ni 1.65664 12.2302 8.61039
49 Al 3.66725 2.2546 2.61016
50 Al 5.66357 0.515521 3.84618
51 Al 5.62153 3.66416 0.991303
52 Ni 3.74891 0.014347 -0.00273063
53 Ni 3.66443 1.74417 5.06243
54 Ni 3.65724 4.66341 2.50836
55 Ni 5.5937 1.16579 1.33938
56 Ni 5.55592 3.0549 3.63585
57 Al 3.71182 1.31311 7.49993
58 Al 5.53811 -0.206431 8.77957
59 Al 5.60796 2.80401 6.11924
60 Ni 3.78425 -0.739086 4.99583
61 Ni 3.64228 0.886364 9.99924
62 Ni 3.61139 3.7506 7.4451
63 Ni 5.58398 0.36553 6.32113
64 Ni 5.54804 2.16557 8.55251
65 Al 3.57296 7.07929 2.40641
66 Al 5.52795 5.49792 3.92771
67 Al 5.54134 8.55096 1.0706
68 Ni 3.68459 4.99154 -0.0164708
69 Ni 3.76398 6.69081 4.81764
70 Ni 3.56966 9.69415 2.50373
71 Ni 5.58646 6.0341 1.41537
72 Ni 5.59529 8.03673 3.60435
73 Al 3.65231 6.39788 7.34419
74 Al 5.59676 4.6359 8.74964
75 Al 5.67253 7.87311 6.04742
76 Ni 3.72839 4.31106 5.041
77 Ni 3.51952 5.86078 9.91272
78 Ni 3.7205 8.8254 7.41223
79 Ni 5.59181 5.20545 6.50764
80 Ni 5.57573 7.17052 8.52337
81 Al 3.71441 12.0489 2.51612
82 Al 5.53055 10.5814 3.9274
83 Al 5.65385 13.7308 1.00124
84 Ni 3.76276 9.95365 0.0621487
85 Ni 3.7284 11.7593 5.02047
86 Ni 3.63699 14.617 2.5173
87 Ni 5.55681 11.0761 1.47797
88 Ni 5.61981 13.0532 3.41929
89 Al 3.7075 11.3194 7.6794
90 Al 5.45951 9.69401 8.90174
91 Al 5.59834 12.8462 5.91218
92 Ni 3.60305 9.20182 5.01998
93 Ni 3.59618 10.8629 9.93452
94 Ni 3.65308 13.7403 7.45136
95 Ni 5.51688 10.3583 6.35507
96 Ni 5.61218 12.274 8.61933
97 Al 7.57071 2.15498 2.5879
98 Al 9.54794 0.525471 3.81897
99 Al 9.47345 3.61559 1.15402
100 Ni 7.64057 0.107887 -0.036556
101 Ni 7.61123 1.76937 5.04123
102 Ni 7.40768 4.58579 2.49053
103 Ni 9.47672 1.13488 1.33383
104 Ni 9.5183 3.03778 3.64749
105 Al 7.51293 1.32018 7.48072
106 Al 9.45037 -0.271792 8.77749
107 Al 9.45013 3.00062 6.12237
108 Ni 7.44316 -0.728053 4.82522
109 Ni 7.54026 0.908208 9.99816
110 Ni 7.60949 3.8183 7.44538
111 Ni 9.4621 0.382024 6.30702
112 Ni 9.42624 2.21525 8.53632
113 Al 7.40614 7.06582 2.45488
114 Al 9.33274 5.45384 3.82586
115 Al 9.48923 8.80148 1.1224
116 Ni 7.65049 5.02335 0.0260251
117 Ni 7.53941 6.70186 4.79784
118 Ni 7.45717 9.56509 2.52252
119 Ni 9.38434 6.23521 1.35307
120 Ni 9.42477 8.10678 3.4285
121 Al 7.49415 6.1966 7.41109
122 Al 9.39383 4.61224 8.88637
123 Al 9.30206 7.96731 6.05622
124 Ni 7.44828 4.16224 4.976
125 Ni 7.47944 5.86666 9.83627
126 Ni 7.46646 8.72955 7.60274
127 Ni 9.36514 5.44674 6.28982
128 Ni 9.22694 7.24229 8.54165
129 Al 7.4573 12.0607 2.49228
130 Al 9.40076 10.5349 3.81243
131 Al 9.48174 13.7109 1.01834
132 Ni 7.50051 9.97937 0.15121
133 Ni 7.44792 11.8388 4.89665
134 Ni 7.53572 14.6695 2.39838
135 Ni 9.39897 11.1874 1.47487
136 Ni 9.26048 13.0334 3.52717
137 Al 7.45481 11.2465 7.40685
138 Al 9.43508 9.6702 8.93651
139 Al 9.48683 12.9646 6.06947
140 Ni 7.4822 9.44107 4.9529
141 Ni 7.51953 10.8904 9.89832
142 Ni 7.58672 13.8449 7.32958
143 Ni 9.38832 10.3359 6.36001
144 Ni 9.36457 12.2482 8.40637
ITEM: TIMESTEP
10100
ITEM: NUMBER OF ATOMS
144
ITEM: BOX BOUNDS xy xz yz pp pp pp
-1.3817051638362451e-01 1.1475679188173817e+01 -2.5067772864618861e-02
-1.6186610732477442e+00 1.5046422103015834e+01 -3.2483553692614152e-02
-9.3994302686013498e-03 9.9121176110086893e+00 -1.5827373934493982e+00
ITEM: ATOMS id element xu yu zu
1 Al -0.183749 2.08813 2.49622
2 Al 1.82671 0.465554 3.83067
3 Al 1.74476 3.6589 1.15268
4 Ni -0.176701 -0.114235 0.0713074
5 Ni -0.106086 1.69162 4.86071
6 Ni -0.166892 4.63708 2.51604
7 Ni 1.73538 1.08462 1.41631
8 Ni 1.7304 3.10955 3.5374
9 Al -0.0987243 1.29208 7.49682
10 Al 1.78295 -0.396236 8.7768
11 Al 1.76052 2.91866 6.10032
12 Ni 0.0154084 -0.743721 4.96466
13 Ni -0.190681 0.847793 9.90586
14 Ni -0.107466 3.85364 7.57386
15 Ni 1.76131 0.381597 6.4049
16 Ni 1.89176 2.102 8.76009
17 Al -0.133163 7.07147 2.57005
18 Al 1.75005 5.50884 3.89375
19 Al 1.86441 8.73161 0.986287
20 Ni -0.0320761 5.0513 0.0848858
21 Ni -0.0602513 6.75852 5.111
22 Ni -0.305288 9.64091 2.45964
23 Ni 1.88323 6.12027 1.44152
24 Ni 1.69724 8.06784 3.53399
25 Al -0.0805546 6.13135 7.48283
26 Al 1.93449 4.66828 8.85472
27 Al 1.7906 8.02482 6.08892
28 Ni -0.1449 4.19249 5.01274
29 Ni -0.0958968 5.84853 10.04
30 Ni -0.11266 8.75053 7.43946
31 Ni 1.85634 5.35147 6.32415
32 Ni 1.77466 7.19429 8.48394
33 Al -0.213639 12.0751 2.43878
34 Al 1.72256 10.4956 3.77659
35 Al 1.76875 13.6895 1.08269
36 Ni -0.224781 9.9356 -0.00502181
37 Ni -0.0675664 11.7497 4.87429
38 Ni -0.145559 14.7701 2.5378
39 Ni 1.82626 11.2134 1.32039
40 Ni 1.6441 13.0544 3.48042
41 Al -0.143168 11.3578 7.35454
42 Al 1.73591 9.66672 8.78682
43 Al 1.81349 12.9587 6.14653
44 Ni -0.0688884 9.29974 4.95981
45 Ni -0.219475 10.9343 9.84386
46 Ni -0.214127 13.8258 7.42962
47 Ni 1.79787 10.4082 6.20718
48 Ni 1.78594 12.2813 8.55108
49 Al 3.70262 2.13603 2.6051
50 Al 5.74336 0.462975 3.95857
51 Al 5.6611 3.64679 1.07594
52 Ni 3.80031 -0.0306023 -0.0748867
53 Ni 3.75056 1.66797 5.04385
54 Ni 3.73435 4.52959 2.49266
55 Ni 5.65607 1.09063 1.50534
56 Ni 5.70013 2.97675 3.61467
57 Al 3.78389 1.35699 7.51606
58 Al 5.64459 -0.308132 8.96004
59 Al 5.6019 3.06489 6.01474
60 Ni 3.74236 -0.715211 4.85882
61 Ni 3.69552 0.851817 9.98589
62 Ni 3.80594 3.79042 7.48623
63 Ni 5.72367 0.528691 6.44344
64 Ni 5.70772 2.2541 8.5322
65 Al 3.63247 7.05298 2.6344
66 Al 5.59407 5.52057 3.77794
67 Al 5.73777 8.71012 1.12571
68 Ni 3.76281 4.89037 0.019484
69 Ni 3.66476 6.75734 5.14293
70 Ni 3.83735 9.55817 2.29818
71 Ni 5.69395 6.22031 1.46378
72 Ni 5.73115 8.04384 3.5857
73 Al 3.7874 6.37034 7.50804
74 Al 5.69197 4.69599 8.7699
75 Al 5.58305 8.01304 6.12307
76 Ni 3.67383 4.1527 4.89853
77 Ni 3.84573 5.91102 9.99239
78 Ni 3.68131 8.84823 7.42721
79 Ni 5.64463 5.52487 6.17949
80 Ni 5.6445 7.35034 8.55727
81 Al 3.77802 12.0937 2.56265
82 Al 5.70129 10.6198 3.91489
83 Al 5.66953 13.7097 0.888168
84 Ni 3.70886 10.031 -0.145745
85 Ni 3.65482 11.7273 4.88993
86 Ni 3.68713 14.6351 2.38297
87 Ni 5.6148 11.2453 1.2771
88 Ni 5.65103 13.0825 3.62488
89 Al 3.74531 11.3046 7.56563
90 Al 5.56704 9.70645 8.81219
91 Al 5.58731 13.0281 5.87872
92 Ni 3.78859 9.27619 4.96862
93 Ni 3.63943 10.9157 9.87043
94 Ni 3.73525 14.0276 7.29615
95 Ni 5.67411 10.5409 6.3282
96 Ni 5.61412 12.3214 8.37688
97 Al 7.59156 2.0468 2.54056
98 Al 9.57243 0.483396 3.93342
99 Al 9.53676 3.53684 1.03773
100 Ni 7.61281 -0.178299 -0.0888038
101 Ni 7.50189 1.76834 4.98924
102 Ni 7.69187 4.56732 2.58315
103 Ni 9.40477 1.13399 1.43197
104 Ni 9.4178 3.07182 3.57389
105 Al 7.62904 1.4145 7.51868
106 Al 9.44766 -0.356412 8.82114
107 Al 9.46932 3.0003 6.07135
108 Ni 7.61092 -0.805761 5.00857
109 Ni 7.59857 0.777045 9.94176
110 Ni 7.47329 3.88728 7.47919
111 Ni 9.40082 0.413606 6.35217
112 Ni 9.55924 2.26228 8.62832
113 Al 7.5595 7.07802 2.55606
114 Al 9.51807 5.56726 3.97588
115 Al 9.48771 8.64793 1.02666
116 Ni 7.51485 4.88042 -0.0451762
117 Ni 7.52899 6.72402 5.02696
118 Ni 7.65542 9.64922 2.57039
119 Ni 9.49901 6.09919 1.3642
120 Ni 9.4247 8.05799 3.69018
121 Al 7.60917 6.40387 7.4893
122 Al 9.44432 4.65655 8.89857
123 Al 9.54265 8.04244 6.18038
124 Ni 7.70543 4.31577 5.00013
125 Ni 7.52843 5.84868 9.91329
126 Ni 7.5117 9.04786 7.44297
127 Ni 9.56608 5.37101 6.38795
128 Ni 9.64759 7.23643 8.4902
129 Al 7.61636 12.0954 2.46522
130 Al 9.44258 10.5032 3.87505
131 Al 9.40693 13.7614 1.17004
132 Ni 7.62898 9.97314 -0.0946243
133 Ni 7.56443 11.6473 4.94341
134 Ni 7.46403 14.5337 2.48237
135 Ni 9.63547 11.1013 1.21057
136 Ni 9.51997 13.1283 3.6119
137 Al 7.57876 11.4859 7.47524
138 Al 9.52311 9.71351 8.76495
139 Al 9.58014 13.0787 6.01113
140 Ni 7.5492 9.14045 4.98245
141 Ni 7.52701 10.868 9.80616
142 Ni 7.53807 13.9765 7.53892
143 Ni 9.47527 10.5194 6.30384
144 Ni 9.56871 12.2927 8.6026
ITEM: TIMESTEP
10200
ITEM: NUMBER OF ATOMS
144
ITEM: BOX BOUNDS xy xz yz pp pp pp
-3.5352049021019738e-02 1.1592934651942207e+01 8.7005680695626711e-02
-1.5724382235142749e+00 1.5017854365032324e+01 7.5516923878133968e-02
-1.1652162734137050e-03 9.9038833970134803e+00 -1.5650822816994483e+00
ITEM: ATOMS id element xu yu zu
1 Al -0.0230989 1.92539 2.54058
2 Al 1.80799 0.383542 3.92354
3 Al 1.87973 3.69655 1.09346
4 Ni -0.0573776 0.0151925 0.0563334
5 Ni -0.0229822 1.70109 5.02776
6 Ni 0.0642892 4.45949 2.52812
7 Ni 1.91829 1.17905 1.41805
8 Ni 1.95258 2.94546 3.61589
9 Al 0.0873505 1.20599 7.54244
10 Al 1.95103 -0.233709 8.80096
11 Al 1.90415 2.93052 6.04789
12 Ni -0.213357 -0.743788 4.99463
13 Ni 0.0246808 0.915297 9.97744
14 Ni 0.0496885 3.7652 7.42933
15 Ni 1.93531 0.410901 6.32577
16 Ni 1.8629 2.35914 8.39186
17 Al 0.145679 7.05096 2.60427
18 Al 1.98551 5.42527 3.92855
19 Al 2.00535 8.65659 1.17585
20 Ni -0.0982819 4.91944 0.0801791
21 Ni -0.0234226 6.68654 5.00392
22 Ni 0.196055 9.52756 2.51777
23 Ni 1.93525 6.19263 1.51056
24 Ni 2.04959 7.97037 3.65989
25 Al 0.00505752 6.38198 7.46687
26 Al 1.90996 4.71335 8.935
27 Al 1.96545 7.89463 6.14904
28 Ni 0.0306286 4.28653 5.04666
29 Ni 0.110404 5.99863 9.92813
30 Ni 0.0248342 8.88393 7.36955
31 Ni 1.9314 5.41861 6.46833
32 Ni 1.98268 7.37769 8.7245
33 Al 0.0755588 12.0311 2.41462
34 Al 1.88157 10.5592 3.87425
35 Al 1.91162 13.6883 1.06032
36 Ni 0.0874216 10.0523 0.0422037
37 Ni 0.0642637 11.7356 4.85933
38 Ni 0.00676187 14.4966 2.48028
39 Ni 1.91513 11.1362 1.24705
40 Ni 2.05724 13.064 3.5174
41 Al -0.0464845 11.4052 7.33627
42 Al 2.11961 9.82101 8.7004
43 Al 1.88215 12.9272 6.02099
44 Ni 0.0310974 9.1814 4.95966
45 Ni 0.135097 10.932 9.77766
46 Ni 0.163616 13.8728 7.44545
47 Ni 1.92776 10.4358 6.23156
48 Ni 1.97917 12.2895 8.36047
49 Al 3.86038 2.04524 2.51656
50 Al 5.75401 0.509101 3.79624
51 Al 5.6918 3.69908 1.18637
52 Ni 3.70199 -0.0862943 0.0511806
53 Ni 3.86841 1.77209 4.93805
54 Ni 3.89022 4.63735 2.56546
55 Ni 5.69857 1.1589 1.29417
56 Ni 5.68546 2.98698 3.61028
57 Al 3.82791 1.36908 7.46189
58 Al 5.72859 -0.36573 8.87134
59 Al 5.70682 3.01501 6.13149
60 Ni 3.79984 -0.901193 4.9966
61 Ni 3.86261 1.00195 9.90994
62 Ni 3.78913 3.92673 7.45856
63 Ni 5.62658 0.371038 6.22241
64 Ni 5.66177 2.37266 8.65606
65 Al 3.88351 7.02857 2.47658
66 Al 5.82199 5.63586 4.00645
67 Al 5.63487 8.64546 1.10604
68 Ni 3.76772 5.10781 0.0412889
69 Ni 3.95496 6.76097 4.84707
70 Ni 3.80088 9.64683 2.50412
71 Ni 5.78494 6.15222 1.37588
72 Ni 5.80345 8.04512 3.62498
73 Al 3.86178 6.40082 7.4776
74 Al 5.86251 4.78872 8.86511
75 Al 5.6909 7.9577 6.06083
76 Ni 3.94077 4.29733 5.03108
77 Ni 3.76939 6.01544 9.98889
78 Ni 3.87033 8.89551 7.38069
79 Ni 5.79967 5.40086 6.59576
80 Ni 5.6899 7.34102 8.54101
81 Al 3.85252 12.0403 2.32113
82 Al 5.85999 10.6101 3.83634
83 Al 5.82473 13.7083 1.12843
84 Ni 3.84783 10.0508 0.0760914
85 Ni 3.92003 11.7466 4.7873
86 Ni 3.86595 14.5984 2.51785
87 Ni 5.79865 11.1299 1.27326
88 Ni 5.68759 13.0231 3.53525
89 Al 3.92293 11.3627 7.31557
90 Al 5.82038 9.64556 8.79473
91 Al 5.77179 13.0552 5.95285
92 Ni 3.8349 9.23315 4.81763
93 Ni 3.95738 10.9988 9.74502
94 Ni 3.79881 13.7927 7.52392
95 Ni 5.75181 10.4371 6.15147
96 Ni 5.75029 12.2562 8.62001
97 Al 7.63941 2.12108 2.52579
98 Al 9.6112 0.454318 3.94668
99 Al 9.57973 3.58112 1.10859
100 Ni 7.5422 -0.0638939 0.0992161
101 Ni 7.70875 1.61176 5.00684
102 Ni 7.6031 4.66123 2.50993
103 Ni 9.56452 1.12112 1.39827
104 Ni 9.60475 2.94996 3.6927
105 Al 7.6048 1.3875 7.4519
106 Al 9.48741 -0.338087 8.8248
107 Al 9.4793 3.09052 6.06431
108 Ni 7.57668 -0.72931 4.97881
109 Ni 7.55929 0.965735 9.88771
110 Ni 7.78387 3.91528 7.58349
111 Ni 9.59131 0.341254 6.40636
112 Ni 9.55337 2.23882 8.57099
113 Al 7.69965 7.14046 2.55185
114 Al 9.52046 5.37922 3.89866
115 Al 9.69874 8.80804 1.144
116 Ni 7.70775 5.073 0.0270605
117 Ni 7.72754 6.78915 4.95663
118 Ni 7.59274 9.5216 2.38007
119 Ni 9.64508 6.18183 1.535
120 Ni 9.67596 8.06294 3.54981
121 Al 7.62199 6.45071 7.53328
122 Al 9.73842 4.71257 8.93977
123 Al 9.65888 7.98195 6.08867
124 Ni 7.56308 4.16498 4.94579
125 Ni 7.82639 5.9306 10.0652
126 Ni 7.73422 8.85798 7.33154
127 Ni 9.52847 5.48297 6.38803
128 Ni 9.58273 7.27348 8.68257
129 Al 7.68911 12.2241 2.47441
130 Al 9.53344 10.4804 3.72041
131 Al 9.52505 13.7181 0.964599
132 Ni 7.63054 10.0038 -0.0520276
133 Ni 7.6939 11.8389 4.86279
134 Ni 7.77865 14.7122 2.53556
135 Ni 9.52784 11.2044 1.33028
136 Ni 9.59795 13.0727 3.49648
137 Al 7.59857 11.3198 7.37021
138 Al 9.66461 9.69143 8.84466
139 Al 9.60062 12.9644 6.02674
140 Ni 7.69629 9.31307 4.87035
141 Ni 7.72593 10.9662 9.86014
142 Ni 7.72125 13.8638 7.46699
143 Ni 9.60177 10.362 6.27366
144 Ni 9.59188 12.2891 8.46527
ITEM: TIMESTEP
10300
ITEM: NUMBER OF ATOMS
144
ITEM: BOX BOUNDS xy xz yz pp pp pp
-6.8936630339883523e-02 1.1441571622534530e+01 -3.9981957364922729e-02
-1.5715044983681870e+00 1.5037748308054665e+01 1.7556951212133205e-02
-6.1402420311535977e-03 9.9088584227712246e+00 -1.5442546135310284e+00
ITEM: ATOMS id element xu yu zu
1 Al -0.0503967 2.10413 2.58044
2 Al 1.81353 0.525761 3.87674
3 Al 1.85508 3.59379 1.29638
4 Ni -0.0330331 0.000365654 -0.117565
5 Ni 0.0132536 1.65554 5.02385
6 Ni -0.0432214 4.74016 2.50511
7 Ni 1.78838 1.10373 1.40229
8 Ni 1.92055 3.11273 3.65254
9 Al 0.0149376 1.37694 7.52437
10 Al 1.88493 -0.253229 8.72337
11 Al 1.8043 2.93901 6.29241
12 Ni 0.155174 -0.880938 4.85198
13 Ni 0.00182 1.09618 9.98231
14 Ni -0.144934 3.96081 7.4879
15 Ni 1.8172 0.345613 6.4025
16 Ni 1.90222 2.22091 8.68901
17 Al -0.11783 7.22508 2.49749
18 Al 1.89129 5.54569 3.80178
19 Al 1.84784 8.75712 0.945587
20 Ni 0.004354 5.06478 -0.0495699
21 Ni -0.0265897 6.77961 4.97571
22 Ni -0.220366 9.66934 2.42301
23 Ni 1.77931 6.18631 1.33366
24 Ni 1.79561 8.06301 3.53669
25 Al -0.117294 6.4272 7.44158
26 Al 1.86401 4.73069 8.80473
27 Al 1.83773 7.9766 6.10575
28 Ni -0.0715367 4.08875 4.95164
29 Ni -0.145747 5.98906 10.0705
30 Ni -0.100197 8.89017 7.45064
31 Ni 1.77528 5.38502 6.31002
32 Ni 1.8794 7.23794 8.41052
33 Al -0.0833033 12.1448 2.46972
34 Al 1.84316 10.4808 3.82361
35 Al 1.8978 13.7848 1.12922
36 Ni -0.159492 10.0321 0.00542348
37 Ni -0.0839909 11.7485 4.98606
38 Ni 0.0193731 14.6799 2.39929
39 Ni 1.87543 11.2046 1.4593
40 Ni 1.81074 12.9722 3.5359
41 Al -0.07701 11.44 7.4527
42 Al 1.90885 9.79039 8.89813
43 Al 1.75841 12.9659 6.04647
44 Ni -0.0839971 9.26796 4.98223
45 Ni -0.117299 11.06 9.94745
46 Ni -0.151504 13.9002 7.35566
47 Ni 1.8791 10.4281 6.38672
48 Ni 1.89901 12.3901 8.63826
49 Al 3.79763 2.067 2.50775
50 Al 5.72907 0.55617 3.91543
51 Al 5.66916 3.66913 1.13346
52 Ni 3.86609 0.144103 -0.0486612
53 Ni 3.65485 1.74186 4.93685
54 Ni 3.71036 4.5991 2.5168
55 Ni 5.68897 1.2505 1.39921
56 Ni 5.64888 3.05755 3.61302
57 Al 3.77876 1.31448 7.44006
58 Al 5.83688 -0.235454 8.93565
59 Al 5.5634 2.93309 6.05659
60 Ni 3.79459 -0.791688 4.96325
61 Ni 3.80107 0.966443 9.89456
62 Ni 3.83218 3.81323 7.61066
63 Ni 5.7835 0.323012 6.37208
64 Ni 5.71892 2.22514 8.45177
65 Al 3.73255 7.0752 2.43574
66 Al 5.63481 5.56214 3.9646
67 Al 5.63392 8.83027 1.06321
68 Ni 3.82148 4.95885 0.142825
69 Ni 3.65097 6.68079 5.09293
70 Ni 3.79294 9.50342 2.4007
71 Ni 5.61071 6.13602 1.56571
72 Ni 5.57923 7.98294 3.56419
73 Al 3.86801 6.26952 7.4234
74 Al 5.78172 4.59541 8.90545
75 Al 5.63606 7.82856 5.99625
76 Ni 3.70804 4.15098 5.12653
77 Ni 3.76825 5.95195 9.81267
78 Ni 3.7684 8.78183 7.50888
79 Ni 5.70259 5.29378 6.27621
80 Ni 5.76496 7.22043 8.49797
81 Al 3.74355 12.2423 2.5109
82 Al 5.62524 10.5549 3.93481
83 Al 5.64724 13.8475 0.967061
84 Ni 3.74336 9.91374 -0.0589754
85 Ni 3.73397 11.7711 4.97097
86 Ni 3.71089 14.7134 2.49787
87 Ni 5.63109 11.2502 1.32752
88 Ni 5.72774 13.1309 3.51806
89 Al 3.76581 11.4288 7.45654
90 Al 5.67661 9.73032 8.86657
91 Al 5.58183 13.0432 5.85769
92 Ni 3.80075 9.1409 5.12408
93 Ni 3.72719 10.9899 9.95422
94 Ni 3.84711 13.932 7.42717
95 Ni 5.7362 10.284 6.37079
96 Ni 5.67746 12.4288 8.45215
97 Al 7.60608 2.05336 2.54367
98 Al 9.55037 0.369362 3.93675
99 Al 9.61584 3.72026 1.10146
100 Ni 7.59505 0.12446 -0.11371
101 Ni 7.51883 1.81889 4.92533
102 Ni 7.62899 4.52146 2.60875
103 Ni 9.51097 1.17202 1.38294
104 Ni 9.46762 3.11211 3.59016
105 Al 7.66068 1.30827 7.53797
106 Al 9.66785 -0.231845 8.81774
107 Al 9.45628 2.9109 6.03315
108 Ni 7.57519 -0.923783 4.86964
109 Ni 7.69725 0.946266 10.004
110 Ni 7.4972 3.74583 7.41827
111 Ni 9.47246 0.397962 6.28779
112 Ni 9.45445 2.33569 8.63189
113 Al 7.61099 7.13729 2.57062
114 Al 9.57509 5.54291 3.87094
115 Al 9.43411 8.7363 1.05316
116 Ni 7.52953 5.07159 0.147526
117 Ni 7.60108 6.60484 5.04999
118 Ni 7.64774 9.66612 2.46311
119 Ni 9.40358 6.20365 1.39892
120 Ni 9.42882 8.01824 3.6494
121 Al 7.59095 6.24713 7.39174
122 Al 9.41459 4.79911 8.80991
123 Al 9.50211 8.00606 6.08992
124 Ni 7.74006 4.26822 5.12312
125 Ni 7.51596 6.00154 9.93645
126 Ni 7.55778 8.7662 7.46641
127 Ni 9.59794 5.30167 6.35474
128 Ni 9.48846 7.40129 8.52973
129 Al 7.58707 12.2012 2.43983
130 Al 9.41965 10.5272 3.80768
131 Al 9.36272 13.8717 0.984347
132 Ni 7.59715 10.0926 -0.0330394
133 Ni 7.51014 11.637 4.88276
134 Ni 7.46677 14.5913 2.33351
135 Ni 9.44284 11.2813 1.28281
136 Ni 9.41332 13.0187 3.52952
137 Al 7.55036 11.3612 7.43053
138 Al 9.4457 9.82069 8.79556
139 Al 9.493 13.04 5.98293
140 Ni 7.56705 9.20453 4.88618
141 Ni 7.54489 11.1006 9.9057
142 Ni 7.50315 13.8642 7.27777
143 Ni 9.5329 10.4519 6.30164
144 Ni 9.48148 12.3856 8.47735
ITEM: TIMESTEP
10400
ITEM: NUMBER OF ATOMS
144
ITEM: BOX BOUNDS xy xz yz pp pp pp
-1.9091680059931543e-01 1.1454132222803066e+01 -1.0219286411652527e-01
-1.5332256284459096e+00 1.5035811098620147e+01 -2.9651712027170256e-02
-1.5540941647990358e-02 9.9182591223880507e+00 -1.5079129530432758e+00
ITEM: ATOMS id element xu yu zu
1 Al -0.103714 2.17796 2.43113
2 Al 1.75598 0.636643 3.7894
3 Al 1.78485 3.78483 1.10063
4 Ni -0.0899255 -0.0603751 -0.0121949
5 Ni -0.115512 1.77825 4.89848
6 Ni -0.221352 4.63439 2.51086
7 Ni 1.87425 1.28403 1.35939
8 Ni 1.76585 3.03153 3.60174
9 Al -0.00800038 1.31232 7.42576
10 Al 1.89795 -0.376995 8.73033
11 Al 1.84217 2.9957 6.02166
12 Ni -0.211541 -0.780325 4.91154
13 Ni -0.204842 0.922541 9.97227
14 Ni -0.0464154 3.73517 7.52015
15 Ni 1.80957 0.370675 6.2121
16 Ni 1.87028 2.30492 8.47267
17 Al -0.249012 7.17462 2.48285
18 Al 1.8064 5.54126 3.80844
19 Al 1.82371 8.75283 1.08302
20 Ni -0.234952 5.03262 0.122461
21 Ni -0.227298 6.75523 4.98649
22 Ni -0.0890277 9.65369 2.51594
23 Ni 1.77748 6.3069 1.46523
24 Ni 1.66676 8.11211 3.57003
25 Al -0.0981429 6.38685 7.31338
26 Al 1.81706 4.76479 8.90496
27 Al 1.78091 7.87886 6.02886
28 Ni -0.170403 4.31661 5.01668
29 Ni -0.0966924 6.04459 9.78171
30 Ni -0.116178 8.84305 7.42051
31 Ni 1.83033 5.44346 6.40502
32 Ni 1.80023 7.32896 8.64351
33 Al -0.123591 12.2375 2.59153
34 Al 1.70349 10.6062 3.8572
35 Al 1.71703 13.9253 1.11805
36 Ni -0.128872 9.97686 -0.0663215
37 Ni -0.113864 11.7931 5.04257
38 Ni -0.215468 14.7945 2.49838
39 Ni 1.67683 11.2047 1.32711
40 Ni 1.72523 13.1997 3.65098
41 Al -0.173523 11.4215 7.43692
42 Al 1.8392 9.80508 8.88069
43 Al 1.60447 13.0378 5.9302
44 Ni -0.134389 9.2036 4.91601
45 Ni -0.0754206 10.9881 9.95853
46 Ni -0.122336 13.8774 7.44961
47 Ni 1.70848 10.4111 6.37246
48 Ni 1.76145 12.213 8.54264
49 Al 3.75866 2.16012 2.54063
50 Al 5.67037 0.506528 3.80428
51 Al 5.55109 3.77507 1.18433
52 Ni 3.66846 -0.126558 -0.0189638
53 Ni 3.88237 1.66212 5.03705
54 Ni 3.6829 4.67145 2.54992
55 Ni 5.67376 1.12016 1.35101
56 Ni 5.65082 2.95909 3.61454
57 Al 3.77948 1.30484 7.54104
58 Al 5.70463 -0.388348 8.85229
59 Al 5.69495 2.97018 6.1497
60 Ni 3.80463 -0.783367 4.91216
61 Ni 3.73575 0.945418 9.9777
62 Ni 3.71801 3.74667 7.29756
63 Ni 5.59973 0.347635 6.26223
64 Ni 5.65229 2.34248 8.68521
65 Al 3.77648 7.13255 2.45537
66 Al 5.674 5.52413 3.9232
67 Al 5.47807 8.82708 1.12436
68 Ni 3.71278 5.00104 -0.0435961
69 Ni 3.74023 6.84149 4.80945
70 Ni 3.57004 9.72258 2.47093
71 Ni 5.63806 6.26258 1.18398
72 Ni 5.58983 8.09817 3.60592
73 Al 3.6848 6.4164 7.38354
74 Al 5.59917 4.75463 8.73908
75 Al 5.53702 8.0148 6.02086
76 Ni 3.73542 4.24569 4.92947
77 Ni 3.66286 6.03606 10.0184
78 Ni 3.65597 8.82956 7.30837
79 Ni 5.5298 5.39757 6.34542
80 Ni 5.48087 7.35989 8.60885
81 Al 3.54633 12.2612 2.52071
82 Al 5.58411 10.6774 3.97915
83 Al 5.68371 13.6328 1.15602
84 Ni 3.67902 10.1024 0.0600276
85 Ni 3.7025 11.7133 5.1048
86 Ni 3.68483 14.5506 2.33811
87 Ni 5.48381 11.1173 1.42899
88 Ni 5.49189 13.0208 3.67206
89 Al 3.64387 11.3938 7.53926
90 Al 5.60463 9.83997 8.85951
91 Al 5.56574 13.1009 6.00696
92 Ni 3.59143 9.29646 4.88926
93 Ni 3.6303 10.9143 10.0178
94 Ni 3.64156 13.8113 7.35145
95 Ni 5.52054 10.4749 6.32498
96 Ni 5.67111 12.2113 8.5619
97 Al 7.54804 2.19337 2.46189
98 Al 9.50816 0.621156 3.82059
99 Al 9.42933 3.77695 1.12012
100 Ni 7.6021 -0.0319885 0.00119522
101 Ni 7.75041 1.6635 5.03107
102 Ni 7.44973 4.83532 2.38375
103 Ni 9.51646 1.27136 1.37663
104 Ni 9.49718 3.03309 3.68712
105 Al 7.59206 1.27308 7.58316
106 Al 9.71136 -0.183207 8.8108
107 Al 9.4897 3.00658 6.11134
108 Ni 7.66547 -0.771242 4.95099
109 Ni 7.4799 0.970541 9.90552
110 Ni 7.68931 3.88127 7.4535
111 Ni 9.56963 0.276548 6.31799
112 Ni 9.52218 2.30426 8.62675
113 Al 7.57124 7.23646 2.38255
114 Al 9.38561 5.49843 3.87568
115 Al 9.52108 8.80772 1.06492
116 Ni 7.55109 5.00347 -0.0726676
117 Ni 7.39205 6.80253 4.82157
118 Ni 7.34527 9.62658 2.647
119 Ni 9.4689 6.27322 1.38266
120 Ni 9.3826 8.20458 3.47762
121 Al 7.49962 6.4203 7.40718
122 Al 9.47696 4.81264 8.76634
123 Al 9.44302 7.98557 6.06165
124 Ni 7.40376 4.11239 4.90429
125 Ni 7.52738 6.06999 9.89348
126 Ni 7.50742 8.91693 7.50514
127 Ni 9.37939 5.46042 6.32222
128 Ni 9.43549 7.25854 8.57627
129 Al 7.54929 12.1826 2.52496
130 Al 9.41195 10.5962 3.92494
131 Al 9.40748 13.7112 1.04198
132 Ni 7.41969 10.0333 0.0674712
133 Ni 7.54201 11.8115 4.95931
134 Ni 7.60559 14.6932 2.44214
135 Ni 9.62105 11.1699 1.49054
136 Ni 9.41999 13.1775 3.57542
137 Al 7.55671 11.3873 7.39515
138 Al 9.42676 9.65677 8.90759
139 Al 9.45853 12.9635 6.08502
140 Ni 7.46186 9.31181 5.09642
141 Ni 7.53929 10.9385 9.93904
142 Ni 7.54883 13.8562 7.43998
143 Ni 9.44842 10.362 6.42607
144 Ni 9.44468 12.3375 8.59306
ITEM: TIMESTEP
10500
ITEM: NUMBER OF ATOMS
144
ITEM: BOX BOUNDS xy xz yz pp pp pp
-2.5582108823064331e-02 1.1458874589397219e+01 2.1439412945515032e-02
-1.5170965797088447e+00 1.5033394927405617e+01 1.6793069281191859e-02
3.1133878868860876e-04 9.9024068419513682e+00 -1.4942000755207390e+00
ITEM: ATOMS id element xu yu zu
1 Al -0.0660686 2.1433 2.34514
2 Al 1.79548 0.647562 3.89104
3 Al 1.89483 3.66223 1.01045
4 Ni -0.06426 0.120977 0.0999802
5 Ni -0.0333131 1.75238 4.89157
6 Ni 0.025949 4.67733 2.49355
7 Ni 1.86049 1.03763 1.41142
8 Ni 1.92848 3.17536 3.44799
9 Al -0.0619161 1.20666 7.25731
10 Al 1.97999 -0.310318 8.83933
11 Al 1.97552 2.98691 6.00443
12 Ni 0.123816 -0.710205 5.14481
13 Ni 0.00503576 0.984845 9.7318
14 Ni -0.111141 3.78316 7.421
15 Ni 2.02229 0.282038 6.451
16 Ni 1.86407 2.25663 8.41953
17 Al -0.0188034 7.18839 2.49022
18 Al 2.03542 5.59458 3.72866
19 Al 1.90431 8.71318 1.10621
20 Ni 0.0481066 4.90479 -0.0152711
21 Ni -0.0107619 6.78277 4.8915
22 Ni -0.0608844 9.70618 2.57003
23 Ni 1.8856 6.05692 1.32682
24 Ni 1.99398 8.14371 3.64417
25 Al -0.0412429 6.30025 7.28539
26 Al 1.82704 4.71929 8.78968
27 Al 1.88204 7.93752 6.02922
28 Ni -0.0175087 4.31639 5.04347
29 Ni -0.0691001 5.90493 10.0056
30 Ni -0.111244 8.70382 7.41407
31 Ni 1.88843 5.35889 6.32556
32 Ni 1.7896 7.2173 8.42095
33 Al -0.0463663 12.079 2.54159
34 Al 1.88505 10.4823 3.85073
35 Al 1.9141 13.8076 1.16091
36 Ni -0.0221444 9.97665 0.0661265
37 Ni -0.069756 11.8407 4.97403
38 Ni -0.0107296 14.6832 2.57773
39 Ni 1.9468 11.231 1.45017
40 Ni 1.95122 13.1244 3.6486
41 Al 0.0547046 11.339 7.38118
42 Al 1.8218 9.77678 8.98755
43 Al 1.75553 12.9868 6.01501
44 Ni -0.0859587 9.30552 5.01466
45 Ni -0.104263 11.005 9.94703
46 Ni -0.0798683 13.8171 7.51697
47 Ni 1.93459 10.4543 6.32485
48 Ni 1.84864 12.442 8.6456
49 Al 3.75359 2.27375 2.33422
50 Al 5.50268 0.618591 3.94355
51 Al 5.69537 3.74596 0.952561
52 Ni 3.82807 0.06028 0.0303233
53 Ni 3.74223 1.81382 4.89252
54 Ni 3.80382 4.59451 2.30795
55 Ni 5.72708 1.20733 1.42107
56 Ni 5.6334 3.23286 3.54369
57 Al 3.86175 1.43847 7.3567
58 Al 5.83612 -0.186311 8.81105
59 Al 5.61205 3.16569 5.95422
60 Ni 3.80561 -0.727688 5.04722
61 Ni 3.81113 1.07002 9.8452
62 Ni 3.74823 3.93212 7.45849
63 Ni 5.76932 0.382396 6.3947
64 Ni 5.57087 2.30394 8.40904
65 Al 3.83337 7.11535 2.46602
66 Al 5.76694 5.58289 3.81532
67 Al 5.65112 8.8483 1.06036
68 Ni 3.80575 5.0065 -0.112186
69 Ni 3.82186 6.71379 5.06542
70 Ni 3.83909 9.62804 2.49871
71 Ni 5.57749 6.12367 1.37787
72 Ni 5.70592 8.10833 3.62767
73 Al 3.81689 6.46802 7.34492
74 Al 5.62863 4.73064 8.81747
75 Al 5.72415 8.02667 6.06955
76 Ni 3.79479 4.2823 4.84141
77 Ni 3.77611 5.94574 9.80947
78 Ni 3.7986 8.91916 7.55868
79 Ni 5.75661 5.53956 6.11182
80 Ni 5.80063 7.27962 8.46371
81 Al 3.85864 12.2754 2.47749
82 Al 5.75839 10.6719 3.9609
83 Al 5.66178 13.8411 1.22849
84 Ni 3.69452 9.97107 0.0599511
85 Ni 3.76422 11.9016 4.90598
86 Ni 3.79231 14.8032 2.53207
87 Ni 5.79155 11.3195 1.42171
88 Ni 5.80397 13.1633 3.51121
89 Al 3.71939 11.4001 7.50502
90 Al 5.74103 9.84241 8.9905
91 Al 5.58311 12.9835 6.08348
92 Ni 3.85967 9.34495 5.02116
93 Ni 3.76795 11.132 9.95418
94 Ni 3.84194 13.8948 7.47829
95 Ni 5.71331 10.408 6.4807
96 Ni 5.64973 12.3613 8.61462
97 Al 7.56446 2.08199 2.52424
98 Al 9.47641 0.636367 3.92449
99 Al 9.58482 3.74892 1.06927
100 Ni 7.52159 -0.260889 0.11683
101 Ni 7.49006 1.81955 4.94794
102 Ni 7.62361 4.49159 2.48499
103 Ni 9.45893 1.05203 1.44348
104 Ni 9.54765 3.20582 3.51581
105 Al 7.51681 1.59595 7.5734
106 Al 9.59204 -0.254615 8.89637
107 Al 9.45601 3.01126 5.97227
108 Ni 7.5796 -0.693735 5.04864
109 Ni 7.65491 0.973473 9.96389
110 Ni 7.43113 3.96622 7.38211
111 Ni 9.34624 0.483871 6.40894
112 Ni 9.56416 2.20507 8.46513
113 Al 7.55305 7.0856 2.48748
114 Al 9.65412 5.57464 3.86593
115 Al 9.57673 8.67574 1.09297
116 Ni 7.5836 4.87743 -0.0656449
117 Ni 7.58363 6.88466 4.94685
118 Ni 7.80423 9.73378 2.44877
119 Ni 9.4504 6.13499 1.371
120 Ni 9.536 8.03599 3.6144
121 Al 7.70477 6.3298 7.41113
122 Al 9.48865 4.61843 8.75343
123 Al 9.54428 7.99551 6.08384
124 Ni 7.67166 4.42563 4.87582
125 Ni 7.60273 5.84904 9.78901
126 Ni 7.61925 8.91359 7.55051
127 Ni 9.51962 5.45407 6.27313
128 Ni 9.50645 7.27355 8.49911
129 Al 7.6877 12.2819 2.55132
130 Al 9.46712 10.5723 3.8978
131 Al 9.55416 13.6985 1.1579
132 Ni 7.72472 9.92069 0.0342019
133 Ni 7.62609 11.7739 5.10482
134 Ni 7.57671 14.6907 2.62863
135 Ni 9.38995 11.259 1.36705
136 Ni 9.52991 13.0693 3.69968
137 Al 7.58972 11.3722 7.56134
138 Al 9.50928 9.66029 8.78508
139 Al 9.49395 13.0905 6.1326
140 Ni 7.62803 9.29159 4.95847
141 Ni 7.62866 10.9555 9.96964
142 Ni 7.56898 13.7659 7.51571
143 Ni 9.43853 10.4802 6.35846
144 Ni 9.52876 12.1868 8.5423
ITEM: TIMESTEP
10600
ITEM: NUMBER OF ATOMS
144
ITEM: BOX BOUNDS xy xz yz pp pp pp
-5.3048214390882364e-02 1.1513819412503588e+01 4.9214381159948931e-02
-1.5382705673906170e+00 1.5042948442483787e+01 1.6496818605305448e-02
-2.4993145946200279e-02 9.9277113266862678e+00 -1.5058205481243201e+00
ITEM: ATOMS id element xu yu zu
1 Al -0.0871485 2.04043 2.47294
2 Al 1.74408 0.469716 3.84001
3 Al 1.88463 3.82233 1.02021
4 Ni -0.0497319 -0.246824 0.104418
5 Ni -0.090648 1.76448 4.94381
6 Ni -0.0677476 4.57828 2.34676
7 Ni 1.81935 1.26919 1.33945
8 Ni 1.83427 3.00084 3.48924
9 Al -0.210309 1.36777 7.50771
10 Al 1.8299 -0.376562 8.8687
11 Al 1.95335 3.04294 5.99488
12 Ni -0.133748 -0.803027 5.0821
13 Ni -0.110201 0.929931 9.98813
14 Ni -0.0370276 3.88623 7.304
15 Ni 1.67386 0.49601 6.2094
16 Ni 1.81637 2.26669 8.51273
17 Al -0.0734133 7.10041 2.47589
18 Al 1.87319 5.54504 3.76646
19 Al 1.88995 8.7745 1.16638
20 Ni -0.0934646 5.06616 -0.137208
21 Ni 0.00447577 6.82709 5.08273
22 Ni -0.040157 9.60189 2.45329
23 Ni 1.85206 6.26291 1.26495
24 Ni 1.79424 8.14158 3.53856
25 Al 0.0128778 6.40475 7.44898
26 Al 1.92584 4.70887 8.74567
27 Al 1.85629 7.98332 6.03421
28 Ni -0.154617 4.29118 4.77426
29 Ni 0.038673 6.03373 9.8653
30 Ni 0.0533013 9.05661 7.5373
31 Ni 1.88875 5.5755 6.26506
32 Ni 1.97933 7.39748 8.69233
33 Al -0.0371638 12.0802 2.58339
34 Al 1.93088 10.4819 3.93245
35 Al 2.04857 13.7529 1.15965
36 Ni -0.0821484 10.0381 -0.00868988
37 Ni 0.0499024 11.8169 5.10277
38 Ni -0.0372667 14.6368 2.52933
39 Ni 1.82717 11.1479 1.42187
40 Ni 1.80367 13.097 3.66274
41 Al -0.00364586 11.5089 7.54506
42 Al 1.94679 9.75499 8.99186
43 Al 1.84528 13.1333 6.15938
44 Ni 0.0707357 9.34382 5.03456
45 Ni 0.0635404 10.9132 9.9303
46 Ni 0.0374675 13.9173 7.54737
47 Ni 1.89128 10.5353 6.4216
48 Ni 1.97127 12.2336 8.61802
49 Al 3.71293 2.18217 2.3786
50 Al 5.64645 0.506737 3.93498
51 Al 5.66394 3.70723 0.959195
52 Ni 3.71441 -0.161395 0.108001
53 Ni 3.8067 1.74166 4.92728
54 Ni 3.68351 4.68126 2.50116
55 Ni 5.73867 1.10117 1.47387
56 Ni 5.71302 2.995 3.52385
57 Al 3.74412 1.45145 7.50347
58 Al 5.71842 -0.170332 8.80089
59 Al 5.69442 3.01041 5.9879
60 Ni 3.74739 -0.776823 5.04189
61 Ni 3.7108 0.861172 9.86656
62 Ni 3.80849 3.85387 7.35312
63 Ni 5.60642 0.514823 6.32377
64 Ni 5.78608 2.33282 8.52684
65 Al 3.79758 7.08148 2.37377
66 Al 5.66401 5.43566 3.90759
67 Al 5.63163 8.64014 1.09625
68 Ni 3.71057 5.00167 -0.0272601
69 Ni 3.73014 6.84267 4.78305
70 Ni 3.77105 9.67784 2.5486
71 Ni 5.87094 6.16271 1.28808
72 Ni 5.75107 8.01764 3.46452
73 Al 3.74138 6.45452 7.38241
74 Al 5.68778 4.74954 8.85048
75 Al 5.75309 7.92894 5.97006
76 Ni 3.74271 4.2992 4.9077
77 Ni 3.8532 6.01085 9.99117
78 Ni 3.8194 8.85158 7.46255
79 Ni 5.59764 5.3651 6.44532
80 Ni 5.63773 7.27824 8.59843
81 Al 3.8259 12.0992 2.57659
82 Al 5.73848 10.5312 3.91586
83 Al 5.69507 13.7567 1.23736
84 Ni 3.87995 9.94356 0.0164797
85 Ni 3.89884 11.7395 5.05165
86 Ni 3.88248 14.5323 2.63704
87 Ni 5.69316 11.0606 1.39196
88 Ni 5.66947 13.1592 3.74661
89 Al 3.85905 11.2957 7.57842
90 Al 5.78207 9.85759 8.86538
91 Al 5.64881 13.0431 6.22006
92 Ni 3.77615 9.22568 5.0158
93 Ni 3.85519 10.9294 9.93741
94 Ni 3.7474 14.0494 7.60536
95 Ni 5.78695 10.5095 6.27037
96 Ni 5.77179 12.3632 8.60495
97 Al 7.60621 2.18607 2.4653
98 Al 9.42033 0.617595 3.81874
99 Al 9.54844 3.72716 1.066
100 Ni 7.62277 0.0782112 -0.0174772
101 Ni 7.68554 1.74073 5.02019
102 Ni 7.68925 4.75843 2.33997
103 Ni 9.55275 1.21812 1.37709
104 Ni 9.56451 3.02095 3.5499
105 Al 7.67147 1.43233 7.49202
106 Al 9.73106 -0.215511 8.89602
107 Al 9.59039 2.90724 6.03298
108 Ni 7.5765 -0.785034 4.98971
109 Ni 7.59544 0.979015 9.90182
110 Ni 7.76739 3.75583 7.31426
111 Ni 9.56488 0.355435 6.28337
112 Ni 9.47748 2.30819 8.50134
113 Al 7.6922 7.05668 2.58678
114 Al 9.64955 5.47666 3.80794
115 Al 9.53019 8.76221 1.0533
116 Ni 7.64087 5.04742 -0.113368
117 Ni 7.67562 6.64627 4.93314
118 Ni 7.46789 9.59097 2.45133
119 Ni 9.65588 6.14255 1.24938
120 Ni 9.60645 8.16423 3.55754
121 Al 7.67101 6.31156 7.47448
122 Al 9.51125 4.77219 8.78486
123 Al 9.70425 7.95363 6.0782
124 Ni 7.54663 4.22119 4.88371
125 Ni 7.71727 6.04535 9.99187
126 Ni 7.62482 8.82479 7.3435
127 Ni 9.5839 5.3595 6.29254
128 Ni 9.56909 7.33879 8.55628
129 Al 7.59596 12.112 2.5061
130 Al 9.56286 10.6016 3.91531
131 Al 9.58269 13.6664 1.20194
132 Ni 7.53565 10.0106 -0.0849519
133 Ni 7.68599 11.857 5.01272
134 Ni 7.63344 14.6646 2.35991
135 Ni 9.61736 11.1193 1.414
136 Ni 9.51526 13.1418 3.62616
137 Al 7.69404 11.3359 7.56395
138 Al 9.46574 9.71414 8.84445
139 Al 9.56388 12.9832 6.1669
140 Ni 7.65509 9.37819 4.94681
141 Ni 7.62798 11.015 9.991
142 Ni 7.5919 14.1007 7.45547
143 Ni 9.60731 10.4557 6.39332
144 Ni 9.52408 12.4167 8.68767
ITEM: TIMESTEP
10700
ITEM: NUMBER OF ATOMS
144
ITEM: BOX BOUNDS xy xz yz pp pp pp
-9.4747764573649348e-02 1.1430631873001772e+01 -5.5452166073711923e-02
-1.5515359298348870e+00 1.5028748752291547e+01 -3.7237238455991219e-03
6.8846113711424906e-03 9.8958335693689392e+00 -1.5332856007608433e+00
ITEM: ATOMS id element xu yu zu
1 Al -0.0806532 2.04718 2.53201
2 Al 1.80963 0.393275 4.0181
3 Al 1.92858 3.67674 1.21044
4 Ni -0.132142 0.16981 -0.141885
5 Ni -0.0396376 1.65896 4.95303
6 Ni -0.164868 4.66529 2.44416
7 Ni 1.81754 1.01417 1.43398
8 Ni 1.83746 3.06794 3.65599
9 Al 0.0318133 1.49259 7.57226
10 Al 1.88444 -0.103707 8.79862
11 Al 1.9596 2.84558 6.11477
12 Ni 0.0199254 -0.826683 4.83128
13 Ni -0.110729 1.00947 9.93717
14 Ni -0.0652177 4.06754 7.45912
15 Ni 1.93398 0.344648 6.47939
16 Ni 1.99529 2.40253 8.60297
17 Al -0.0391714 7.1581 2.45855
18 Al 1.89127 5.50107 3.8548
19 Al 1.77746 8.75668 1.12456
20 Ni -0.0633024 5.01056 -0.00304838
21 Ni -0.142953 6.72318 4.76573
22 Ni -0.045436 9.71118 2.55764
23 Ni 1.84486 6.06515 1.42425
24 Ni 1.85314 8.00766 3.67111
25 Al -0.137797 6.47339 7.29425
26 Al 1.8266 4.74613 8.86576
27 Al 1.87526 7.89262 5.94565
28 Ni -0.0237727 4.14826 4.94699
29 Ni -0.137821 5.90716 9.88566
30 Ni -0.133636 8.91922 7.43566
31 Ni 1.77131 5.42186 6.34116
32 Ni 1.88579 7.32039 8.34691
33 Al -0.0357627 12.179 2.63011
34 Al 1.80315 10.439 3.96158
35 Al 1.83743 13.6699 1.06317
36 Ni -0.00308838 9.99891 0.00746079
37 Ni -0.108422 11.7288 5.04608
38 Ni -0.148841 14.7036 2.41111
39 Ni 1.81964 11.1798 1.43449
40 Ni 1.89729 13.0787 3.61922
41 Al -0.0814013 11.4068 7.52941
42 Al 1.80013 9.76243 8.88928
43 Al 1.72057 13.0448 6.17743
44 Ni -0.166352 9.1538 4.96271
45 Ni -0.135598 11.0611 10.0449
46 Ni -0.187862 13.9916 7.32566
47 Ni 1.86031 10.4976 6.40636
48 Ni 1.82509 12.4097 8.61734
49 Al 3.71692 2.00005 2.57194
50 Al 5.60299 0.358936 3.85771
51 Al 5.65846 3.69149 1.05372
52 Ni 3.76555 0.00575718 -0.0170622
53 Ni 3.74461 1.71333 4.99499
54 Ni 3.82095 4.54244 2.49168
55 Ni 5.60996 1.14594 1.28377
56 Ni 5.64461 3.02869 3.60431
57 Al 3.8338 1.31837 7.51922
58 Al 5.76712 -0.300213 8.63307
59 Al 5.69383 2.89923 6.02105
60 Ni 3.82294 -0.748959 4.92399
61 Ni 3.82083 0.99771 9.96826
62 Ni 3.72048 3.84469 7.41899
63 Ni 5.68628 0.278142 6.33338
64 Ni 5.62779 2.25702 8.55224
65 Al 3.67467 7.08644 2.47533
66 Al 5.65713 5.45558 3.82592
67 Al 5.55231 8.80496 1.04485
68 Ni 3.80535 4.96078 0.0463405
69 Ni 3.77885 6.62706 4.99269
70 Ni 3.70102 9.55117 2.4374
71 Ni 5.53315 6.25818 1.41162
72 Ni 5.58271 8.05368 3.67724
73 Al 3.79416 6.22987 7.376
74 Al 5.68937 4.78527 8.79734
75 Al 5.58493 7.95469 6.13818
76 Ni 3.7899 4.14818 4.99265
77 Ni 3.74665 5.92836 9.71691
78 Ni 3.77574 8.97831 7.40816
79 Ni 5.78633 5.42294 6.16974
80 Ni 5.69069 7.31026 8.4817
81 Al 3.76927 12.0593 2.59539
82 Al 5.65398 10.4048 3.83355
83 Al 5.62737 13.8273 1.23851
84 Ni 3.68856 10.0773 0.0103305
85 Ni 3.71336 11.7365 5.00177
86 Ni 3.64008 14.6343 2.37311
87 Ni 5.60919 11.2435 1.42533
88 Ni 5.6135 12.9517 3.56939
89 Al 3.76478 11.393 7.62097
90 Al 5.64412 9.79749 8.95015
91 Al 5.65017 12.8264 6.01647
92 Ni 3.7254 9.28757 4.90669
93 Ni 3.67972 11.0355 10.0097
94 Ni 3.81916 13.8103 7.37996
95 Ni 5.57128 10.4007 6.43651
96 Ni 5.71474 12.2406 8.58108
97 Al 7.5129 1.95831 2.4146
98 Al 9.45682 0.545187 3.93636
99 Al 9.4779 3.75365 1.14883
100 Ni 7.55868 0.048345 0.105362
101 Ni 7.56562 1.71461 4.77738
102 Ni 7.4454 4.50592 2.40946
103 Ni 9.48686 1.12029 1.36068
104 Ni 9.37612 3.08336 3.49364
105 Al 7.62529 1.43985 7.49526
106 Al 9.45503 -0.173144 8.8269
107 Al 9.4943 3.00701 6.1161
108 Ni 7.62233 -0.795593 4.99677
109 Ni 7.52562 1.03097 9.90627
110 Ni 7.4843 3.94717 7.47592
111 Ni 9.54017 0.509048 6.36969
112 Ni 9.48428 2.39485 8.50403
113 Al 7.40297 7.11408 2.48907
114 Al 9.38865 5.46827 3.84363
115 Al 9.49034 8.85398 1.06779
116 Ni 7.53513 5.07323 0.0277452
117 Ni 7.46526 6.84833 4.92744
118 Ni 7.71494 9.59528 2.56141
119 Ni 9.36082 6.26861 1.37611
120 Ni 9.41577 8.02253 3.57692
121 Al 7.60975 6.43169 7.37776
122 Al 9.41218 4.795 8.88186
123 Al 9.5535 8.0056 6.03718
124 Ni 7.61445 4.18996 5.0205
125 Ni 7.50073 6.05771 9.8182
126 Ni 7.57614 8.94349 7.49975
127 Ni 9.50555 5.51958 6.31203
128 Ni 9.41079 7.39347 8.55632
129 Al 7.51712 12.0399 2.51047
130 Al 9.47318 10.4962 3.99078
131 Al 9.42936 13.7955 1.12589
132 Ni 7.65187 10.1104 0.0800726
133 Ni 7.51541 11.6899 4.93168
134 Ni 7.58655 14.5598 2.59543
135 Ni 9.49874 11.2533 1.45133
136 Ni 9.42154 13.0152 3.57798
137 Al 7.51918 11.1815 7.51944
138 Al 9.48823 9.78813 8.85398
139 Al 9.48717 12.9872 5.9782
140 Ni 7.47148 9.19735 4.93972
141 Ni 7.56418 11.0066 9.92879
142 Ni 7.61997 13.6637 7.459
143 Ni 9.41989 10.4861 6.43726
144 Ni 9.4673 12.3437 8.43868
ITEM: TIMESTEP
10800
ITEM: NUMBER OF ATOMS
144
ITEM: BOX BOUNDS xy xz yz pp pp pp
-1.0775302384642581e-01 1.1452552444526118e+01 -5.0673665433415546e-02
-1.5852700590358821e+00 1.5017668641973966e+01 4.1308776566239739e-04
-7.9918140115413649e-03 9.9107099947516151e+00 -1.5780998402794244e+00
ITEM: ATOMS id element xu yu zu
1 Al 0.0049677 2.08679 2.58355
2 Al 1.86603 0.362984 3.87909
3 Al 1.89325 3.86739 1.09166
4 Ni -0.0245729 0.0469098 0.0700723
5 Ni -0.0742131 1.67544 5.02476
6 Ni -0.00951494 4.62404 2.60745
7 Ni 1.80412 1.38263 1.32332
8 Ni 1.92369 2.96893 3.68631
9 Al -0.160724 1.28893 7.39048
10 Al 1.76051 -0.149975 8.70878
11 Al 1.87074 2.85338 6.15256
12 Ni -0.0319891 -0.792144 5.02074
13 Ni -0.0421757 0.942298 9.89607
14 Ni -0.125372 3.70243 7.55152
15 Ni 1.79362 0.422757 6.16942
16 Ni 1.79468 2.21303 8.54695
17 Al -0.0775716 7.0484 2.50251
18 Al 1.8061 5.48755 3.93389
19 Al 1.72305 8.81364 1.15373
20 Ni -0.10279 5.07291 0.0857028
21 Ni -0.0958019 6.66652 5.05556
22 Ni -0.140542 9.52033 2.416
23 Ni 1.78153 6.25675 1.32136
24 Ni 1.80382 8.04474 3.40374
25 Al -0.0855839 6.23808 7.33039
26 Al 1.81834 4.65609 8.83354
27 Al 1.80806 7.80308 5.87418
28 Ni -0.149392 4.1712 5.11425
29 Ni -0.0770033 5.99963 9.90376
30 Ni -0.116304 8.82291 7.45611
31 Ni 1.87906 5.38789 6.36062
32 Ni 1.71381 7.3352 8.6651
33 Al -0.0768934 12.0995 2.37205
34 Al 1.82609 10.4682 3.78452
35 Al 1.88976 13.8298 0.964832
36 Ni -0.201037 10.0375 0.0222941
37 Ni -0.0947372 11.668 4.83589
38 Ni -0.0850383 14.6346 2.53497
39 Ni 1.77899 11.1372 1.34416
40 Ni 1.75481 13.0829 3.49479
41 Al -0.173853 11.3409 7.37753
42 Al 1.79702 9.78651 8.74963
43 Al 1.70025 12.9544 6.09432
44 Ni -0.0660594 9.14839 4.86858
45 Ni -0.0764689 10.9109 9.80228
46 Ni -0.0618599 13.8104 7.52536
47 Ni 1.75702 10.2944 6.24496
48 Ni 1.76335 12.289 8.44511
49 Al 3.76978 2.08004 2.51619
50 Al 5.70122 0.468814 3.8856
51 Al 5.67127 3.63093 1.11641
52 Ni 3.82548 0.00424924 -0.000300234
53 Ni 3.79175 1.66395 4.96962
54 Ni 3.60032 4.61033 2.50336
55 Ni 5.69502 1.18904 1.47819
56 Ni 5.70618 3.00278 3.60938
57 Al 3.73429 1.38733 7.4513
58 Al 5.54684 -0.192015 8.83833
59 Al 5.67215 2.93325 6.04299
60 Ni 3.74021 -0.866016 4.91308
61 Ni 3.67243 1.01621 9.84386
62 Ni 3.77701 3.79948 7.53073
63 Ni 5.66367 0.43857 6.26839
64 Ni 5.72037 2.2731 8.56458
65 Al 3.7463 7.00457 2.43896
66 Al 5.57632 5.51186 3.86333
67 Al 5.59228 8.73677 1.06294
68 Ni 3.68275 5.09901 0.0434539
69 Ni 3.68901 6.71575 4.84879
70 Ni 3.72857 9.63154 2.51546
71 Ni 5.69155 6.10858 1.3176
72 Ni 5.70745 8.02622 3.4732
73 Al 3.64695 6.29456 7.56092
74 Al 5.71276 4.83477 8.8279
75 Al 5.66702 7.88352 6.02839
76 Ni 3.70932 4.23283 4.99581
77 Ni 3.78736 6.04428 10.078
78 Ni 3.59413 8.79853 7.48701
79 Ni 5.52529 5.44778 6.45981
80 Ni 5.57461 7.3363 8.59091
81 Al 3.76353 12.184 2.5122
82 Al 5.64532 10.396 3.92701
83 Al 5.63228 13.7763 1.08324
84 Ni 3.69757 10.1058 0.0520326
85 Ni 3.68513 11.6206 4.94946
86 Ni 3.83601 14.6342 2.47834
87 Ni 5.68697 11.1833 1.40938
88 Ni 5.79084 13.1483 3.54011
89 Al 3.69539 11.3696 7.33735
90 Al 5.60386 9.81883 8.80165
91 Al 5.67411 13.0269 6.01718
92 Ni 3.72747 9.16111 5.01606
93 Ni 3.68815 10.9825 9.88638
94 Ni 3.5914 13.9163 7.39737
95 Ni 5.61317 10.4008 6.4008
96 Ni 5.53691 12.3431 8.48544
97 Al 7.65443 2.08843 2.50833
98 Al 9.50037 0.479299 3.86631
99 Al 9.58216 3.68784 1.20938
100 Ni 7.68086 -0.0395692 -0.00960704
101 Ni 7.59741 1.66438 5.02503
102 Ni 7.6899 4.64907 2.66791
103 Ni 9.57587 1.23284 1.39761
104 Ni 9.50614 2.97634 3.68845
105 Al 7.622 1.36758 7.54934
106 Al 9.54593 -0.337234 8.91534
107 Al 9.40944 2.88864 6.12027
108 Ni 7.62137 -0.777912 4.88878
109 Ni 7.64157 0.97927 9.84466
110 Ni 7.61902 3.79668 7.44045
111 Ni 9.49036 0.276857 6.22688
112 Ni 9.43666 2.21128 8.56549
113 Al 7.65016 7.09736 2.49276
114 Al 9.56081 5.49425 3.87462
115 Al 9.39657 8.77291 1.01921
116 Ni 7.60784 5.02344 0.0426928
117 Ni 7.59257 6.63074 4.91747
118 Ni 7.45265 9.65102 2.56615
119 Ni 9.5741 6.07846 1.35498
120 Ni 9.54297 7.99789 3.57271
121 Al 7.50003 6.3191 7.42187
122 Al 9.51973 4.67785 8.92682
123 Al 9.58976 7.83604 6.02509
124 Ni 7.49799 4.18237 4.9646
125 Ni 7.58769 5.89945 9.91531
126 Ni 7.51173 8.78053 7.58199
127 Ni 9.46582 5.30043 6.39585
128 Ni 9.46389 7.28579 8.47928
129 Al 7.59289 12.0981 2.44294
130 Al 9.47472 10.4332 3.77945
131 Al 9.54544 13.8535 1.21003
132 Ni 7.51864 10.0355 0.0484062
133 Ni 7.71368 11.7826 4.94794
134 Ni 7.51071 14.6602 2.43847
135 Ni 9.45825 11.0971 1.32712
136 Ni 9.50881 13.0195 3.59646
137 Al 7.54575 11.3065 7.40367
138 Al 9.38483 9.77835 8.77594
139 Al 9.54906 12.9266 6.07772
140 Ni 7.64387 9.24926 5.04416
141 Ni 7.56412 10.9575 9.84445
142 Ni 7.4451 14.1051 7.54574
143 Ni 9.58399 10.3344 6.26498
144 Ni 9.44848 12.2903 8.61491
ITEM: TIMESTEP
10900
ITEM: NUMBER OF ATOMS
144
ITEM: BOX BOUNDS xy xz yz pp pp pp
-5.1727815045619963e-02 1.1511213177888632e+01 5.2499339415160225e-02
-1.6339364921584283e+00 1.5038400792817596e+01 1.1926025080398360e-02
-4.2603965934899790e-03 9.9069785773335681e+00 -1.6060341225583488e+00
ITEM: ATOMS id element xu yu zu
1 Al -0.0195384 2.01172 2.33476
2 Al 1.77491 0.375263 3.9858
3 Al 1.96202 3.8075 1.06796
4 Ni -0.135584 -0.121442 0.0496164
5 Ni -0.0197292 1.6751 4.86558
6 Ni -0.169556 4.60054 2.48637
7 Ni 1.92409 1.04425 1.46189
8 Ni 1.82273 3.07828 3.45051
9 Al -0.0296374 1.18367 7.41802
10 Al 1.74623 -0.294323 8.75128
11 Al 1.84839 2.84541 6.02128
12 Ni -0.131112 -0.808263 5.04166
13 Ni -0.0506356 0.813231 9.95435
14 Ni -0.00603662 3.80707 7.44503
15 Ni 1.90514 0.242866 6.3969
16 Ni 1.77864 2.30645 8.55855
17 Al -0.011828 7.14259 2.65854
18 Al 1.93596 5.50581 3.93861
19 Al 1.84356 8.87144 1.1926
20 Ni -0.0766746 5.0043 0.0812946
21 Ni 0.00362319 6.72781 5.04361
22 Ni -0.0244842 9.66209 2.43601
23 Ni 2.00876 6.15774 1.55808
24 Ni 1.90738 8.04087 3.88764
25 Al -0.0428578 6.30505 7.40288
26 Al 1.81869 4.7094 8.96023
27 Al 1.88623 7.92735 6.14207
28 Ni -0.0235702 4.30167 4.8403
29 Ni -0.0393706 5.86202 10.1331
30 Ni -0.0455826 8.72978 7.32915
31 Ni 1.81649 5.43512 6.4001
32 Ni 1.94033 7.15808 8.53243
33 Al -0.030205 12.1565 2.42593
34 Al 1.92763 10.5069 3.77108
35 Al 1.86719 13.7783 1.07412
36 Ni 0.0222612 9.97575 -0.0257234
37 Ni -0.0417045 11.7813 4.92354
38 Ni -0.0798121 14.6042 2.45352
39 Ni 1.90763 11.3221 1.25232
40 Ni 1.86509 13.0178 3.55833
41 Al -0.0685011 11.235 7.28183
42 Al 1.92365 9.7019 8.67903
43 Al 1.95829 12.9866 6.15836
44 Ni -0.0250193 9.30457 5.02996
45 Ni -0.0297241 10.9659 9.85627
46 Ni -0.0352369 13.6846 7.39371
47 Ni 1.98274 10.4861 6.25643
48 Ni 1.87892 12.1492 8.60329
49 Al 3.82008 2.11605 2.47298
50 Al 5.80701 0.421211 3.79856
51 Al 5.75097 3.7453 1.12096
52 Ni 3.76951 0.00805305 0.0401974
53 Ni 3.78129 1.69212 4.88192
54 Ni 3.9675 4.69716 2.57339
55 Ni 5.75396 1.1387 1.36047
56 Ni 5.68958 3.00448 3.60754
57 Al 3.70143 1.36266 7.48292
58 Al 5.65994 -0.305615 8.79447
59 Al 5.69893 2.81663 6.04825
60 Ni 3.77597 -0.764258 4.92948
61 Ni 3.79473 0.903787 9.97465
62 Ni 3.65587 3.92425 7.43396
63 Ni 5.62264 0.320516 6.43622
64 Ni 5.58885 2.22856 8.55016
65 Al 3.81199 7.18423 2.59806
66 Al 5.77503 5.52423 3.93868
67 Al 5.66872 8.6935 1.12748
68 Ni 3.7546 4.9974 0.0871956
69 Ni 3.85706 6.66909 5.06142
70 Ni 3.88351 9.69912 2.45626
71 Ni 5.75543 6.29833 1.54139
72 Ni 5.72417 8.05007 3.71396
73 Al 3.82443 6.34944 7.37817
74 Al 5.68035 4.77649 8.93801
75 Al 5.75071 7.91152 6.10222
76 Ni 3.78968 4.20691 4.93958
77 Ni 3.77183 5.88871 9.83452
78 Ni 3.93008 8.91373 7.40849
79 Ni 5.7225 5.31268 6.38037
80 Ni 5.73151 7.19974 8.54745
81 Al 3.74327 12.2514 2.32406
82 Al 5.71499 10.4421 3.66024
83 Al 5.69826 13.8133 1.06873
84 Ni 3.87725 9.90441 -0.0879765
85 Ni 3.83933 11.7391 4.82892
86 Ni 3.8272 14.6455 2.51802
87 Ni 5.75845 11.1854 1.32054
88 Ni 5.52484 13.0794 3.56657
89 Al 3.86684 11.4069 7.33881
90 Al 5.81651 9.68275 8.73654
91 Al 5.72063 13.0597 5.97464
92 Ni 3.83151 9.26544 4.90281
93 Ni 3.86449 11.0165 9.80743
94 Ni 3.93019 13.7681 7.49262
95 Ni 5.7597 10.4105 6.22856
96 Ni 5.77281 12.2705 8.46574
97 Al 7.68512 2.06092 2.61274
98 Al 9.51999 0.414748 4.01054
99 Al 9.51524 3.75446 1.12569
100 Ni 7.54735 -0.0486851 -0.0646045
101 Ni 7.60311 1.70291 4.98367
102 Ni 7.62034 4.5881 2.4749
103 Ni 9.43945 1.03252 1.36018
104 Ni 9.5992 3.08635 3.63302
105 Al 7.55552 1.28065 7.73032
106 Al 9.38345 -0.45784 8.86676
107 Al 9.52938 2.8969 6.10972
108 Ni 7.56806 -0.876873 4.95363
109 Ni 7.63777 0.833936 10.0746
110 Ni 7.51686 3.81339 7.6138
111 Ni 9.40367 0.379372 6.47142
112 Ni 9.6326 2.16952 8.55634
113 Al 7.66742 7.19467 2.59233
114 Al 9.4288 5.61465 3.85991
115 Al 9.53665 8.78349 1.14259
116 Ni 7.61933 4.91716 0.0158403
117 Ni 7.58184 6.65751 5.08202
118 Ni 7.71995 9.59276 2.39042
119 Ni 9.51943 6.2023 1.50764
120 Ni 9.50102 8.05101 3.65146
121 Al 7.60693 6.26257 7.50867
122 Al 9.57069 4.6119 8.96435
123 Al 9.56922 7.88593 6.06859
124 Ni 7.72068 4.22668 5.09216
125 Ni 7.6034 5.84291 9.96463
126 Ni 7.62748 8.89496 7.25377
127 Ni 9.54464 5.36124 6.42074
128 Ni 9.51226 7.12394 8.68558
129 Al 7.62312 12.2074 2.52394
130 Al 9.49015 10.5393 3.83077
131 Al 9.49525 13.7943 1.00817
132 Ni 7.62666 9.9556 -0.114819
133 Ni 7.52015 11.6726 4.91093
134 Ni 7.76461 14.6271 2.48983
135 Ni 9.57817 11.1819 1.28992
136 Ni 9.60021 13.1531 3.49139
137 Al 7.60557 11.3015 7.41614
138 Al 9.49625 9.67449 8.72258
139 Al 9.58727 12.9613 5.87947
140 Ni 7.50712 9.23925 4.84104
141 Ni 7.6205 10.9157 9.84361
142 Ni 7.71282 13.662 7.23152
143 Ni 9.41734 10.4144 6.31
144 Ni 9.67629 12.1967 8.43216
ITEM: TIMESTEP
11000
ITEM: NUMBER OF ATOMS
144
ITEM: BOX BOUNDS xy xz yz pp pp pp
-4.6101198958726108e-02 1.1486959232358048e+01 4.5429564740458138e-02
-1.6033471580072911e+00 1.5010065402822644e+01 3.6847031139671205e-04
6.0336775202483039e-03 9.8966845032198307e+00 -1.6037801784021521e+00
ITEM: ATOMS id element xu yu zu
1 Al -0.0770992 2.25015 2.48947
2 Al 1.89843 0.634142 3.92866
3 Al 1.85452 3.75046 1.00767
4 Ni -0.0234685 -0.0406409 -0.0248743
5 Ni -0.0895417 1.7796 5.10198
6 Ni 0.0277589 4.61065 2.55214
7 Ni 1.73706 1.1979 1.40012
8 Ni 1.85456 3.08038 3.74674
9 Al -0.116806 1.32062 7.53335
10 Al 1.76601 -0.329536 8.77023
11 Al 1.88276 2.92253 6.25363
12 Ni -0.0412534 -0.709128 4.84067
13 Ni -0.0640348 0.923253 9.81652
14 Ni -0.061457 3.74535 7.46757
15 Ni 1.8811 0.489108 6.27214
16 Ni 1.98571 2.04714 8.53798
17 Al -0.137524 7.11037 2.56555
18 Al 1.78383 5.56475 3.95135
19 Al 1.78001 8.6547 1.09973
20 Ni -0.0223693 4.9308 -0.115068
21 Ni -0.00913483 6.79078 5.13074
22 Ni -0.03152 9.61227 2.50088
23 Ni 1.71601 6.08867 1.2891
24 Ni 1.85905 8.14993 3.44278
25 Al 0.0740172 6.21803 7.39317
26 Al 1.98388 4.5902 8.81438
27 Al 1.8298 7.87597 5.94168
28 Ni -0.0193081 4.20254 5.10228
29 Ni -0.0529801 5.82815 9.90579
30 Ni 0.0538245 8.79 7.46509
31 Ni 1.97679 5.36802 6.43951
32 Ni 1.91055 7.25802 8.59637
33 Al -0.0299319 12.1805 2.46059
34 Al 1.90469 10.5722 3.8551
35 Al 1.81262 13.6937 1.05515
36 Ni -0.080902 9.90388 0.13142
37 Ni -0.0185409 11.8099 4.88672
38 Ni -0.00185149 14.6531 2.43651
39 Ni 1.88351 10.9981 1.38802
40 Ni 1.98619 13.191 3.499
41 Al -0.041977 11.4408 7.34218
42 Al 1.82204 9.81038 8.71918
43 Al 1.89053 13.0111 6.04701
44 Ni -0.00226033 9.21925 5.00343
45 Ni 0.00401157 10.8439 9.83406
46 Ni 0.0176316 13.9254 7.36933
47 Ni 1.85437 10.2816 6.31262
48 Ni 1.90039 12.2953 8.37747
49 Al 3.76002 2.21393 2.48998
50 Al 5.64025 0.487359 3.84266
51 Al 5.70413 3.71243 1.2306
52 Ni 3.77642 -0.157173 0.0290171
53 Ni 3.73038 1.77339 5.14496
54 Ni 3.53921 4.52658 2.50484
55 Ni 5.59693 1.14779 1.47258
56 Ni 5.63313 3.09571 3.68055
57 Al 3.84925 1.20287 7.50472
58 Al 5.62706 -0.368076 8.89079
59 Al 5.71959 2.88474 6.1354
60 Ni 3.76507 -0.809365 5.04642
61 Ni 3.77862 0.797579 9.88029
62 Ni 3.8675 3.59057 7.51816
63 Ni 5.7653 0.321768 6.35989
64 Ni 5.73688 2.06198 8.62059
65 Al 3.71684 6.94196 2.57517
66 Al 5.65238 5.60906 3.8968
67 Al 5.6812 8.71304 1.11534
68 Ni 3.7725 4.85991 0.0412158
69 Ni 3.73691 6.669 5.00219
70 Ni 3.70524 9.49812 2.42277
71 Ni 5.60023 6.04621 1.39099
72 Ni 5.67244 8.1653 3.51418
73 Al 3.83357 6.27512 7.46738
74 Al 5.80462 4.71068 8.83001
75 Al 5.73007 7.95574 5.95444
76 Ni 3.80944 4.24643 5.05126
77 Ni 3.84816 5.82622 10.1072
78 Ni 3.75714 8.68967 7.39811
79 Ni 5.74816 5.49249 6.38864
80 Ni 5.7763 7.21287 8.5625
81 Al 3.76641 12.1941 2.47796
82 Al 5.68903 10.4843 3.76789
83 Al 5.62227 13.7036 1.05882
84 Ni 3.73456 10.0017 0.0203548
85 Ni 3.76316 11.7592 4.93747
86 Ni 3.71148 14.6229 2.45683
87 Ni 5.63247 11.2228 1.27212
88 Ni 5.88483 13.0514 3.52351
89 Al 3.743 11.3204 7.39708
90 Al 5.81447 9.60587 8.65191
91 Al 5.76612 13.0339 6.1312
92 Ni 3.76949 9.22837 4.82164
93 Ni 3.73715 10.8213 9.94048
94 Ni 3.72052 13.8617 7.4224
95 Ni 5.65458 10.3407 6.30862
96 Ni 5.71597 12.1405 8.60862
97 Al 7.5536 2.08601 2.44968
98 Al 9.46738 0.388898 3.73401
99 Al 9.51228 3.8324 1.08634
100 Ni 7.70515 0.0127624 0.0910995
101 Ni 7.56023 1.7849 4.96826
102 Ni 7.61892 4.62002 2.50642
103 Ni 9.54762 1.18742 1.41341
104 Ni 9.35375 3.06046 3.5723
105 Al 7.62692 1.34742 7.44347
106 Al 9.42233 -0.232194 8.79055
107 Al 9.49356 2.90965 5.97736
108 Ni 7.60507 -0.72887 4.95682
109 Ni 7.54267 0.884827 9.83861
110 Ni 7.7565 3.78069 7.28211
111 Ni 9.65768 0.308746 6.16802
112 Ni 9.446 2.30568 8.56595
113 Al 7.61231 7.0992 2.58908
114 Al 9.50521 5.55448 3.89319
115 Al 9.51229 8.7538 1.16912
116 Ni 7.60295 5.03862 0.144053
117 Ni 7.73101 6.8321 5.04205
118 Ni 7.60074 9.66781 2.48624
119 Ni 9.51668 6.16541 1.41677
120 Ni 9.5783 8.14606 3.61291
121 Al 7.67 6.215 7.45872
122 Al 9.45675 4.72169 8.88867
123 Al 9.62915 7.92848 6.14411
124 Ni 7.51991 4.23329 4.93449
125 Ni 7.67311 5.956 10.0341
126 Ni 7.64981 8.6472 7.46223
127 Ni 9.62694 5.46154 6.43821
128 Ni 9.59035 7.27307 8.58247
129 Al 7.67873 12.1834 2.37414
130 Al 9.52893 10.5977 3.78999
131 Al 9.62902 13.8463 1.05239
132 Ni 7.70851 10.0091 0.0500514
133 Ni 7.72319 11.8004 4.94312
134 Ni 7.49538 14.6606 2.40633
135 Ni 9.57159 11.1515 1.41098
136 Ni 9.50991 13.0297 3.58992
137 Al 7.60633 11.1931 7.27345
138 Al 9.50778 9.75483 8.7653
139 Al 9.59477 12.997 6.0697
140 Ni 7.76424 9.23926 4.9419
141 Ni 7.65653 10.8664 9.82169
142 Ni 7.54504 13.9163 7.54617
143 Ni 9.64364 10.3799 6.27233
144 Ni 9.45692 12.1624 8.49575
ITEM: TIMESTEP
11100
ITEM: NUMBER OF ATOMS
144
ITEM: BOX BOUNDS xy xz yz pp pp pp
-1.4570585527046881e-01 1.1451058321136383e+01 -4.9645745394258742e-02
-1.6641588231691380e+00 1.5055221891326241e+01 -4.0061787087291162e-02
-2.1378503584126740e-02 9.9240966843241942e+00 -1.6194353550603913e+00
ITEM: ATOMS id element xu yu zu
1 Al -0.0573156 2.11674 2.44491
2 Al 1.89162 0.373616 3.91205
3 Al 1.86936 3.73756 1.27641
4 Ni -0.108265 -0.0844461 -0.0971418
5 Ni -0.00173845 1.66556 4.91677
6 Ni -0.169886 4.63773 2.53335
7 Ni 1.87888 1.06057 1.29456
8 Ni 1.81987 3.00959 3.62178
9 Al -0.106618 1.28903 7.55698
10 Al 1.75118 -0.453471 8.79206
11 Al 1.8566 2.87519 6.16453
12 Ni -0.163644 -0.899843 4.98608
13 Ni -0.115444 0.771223 10.1271
14 Ni -0.113574 3.9768 7.46169
15 Ni 1.81005 0.184204 6.42377
16 Ni 1.63542 2.32478 8.7065
17 Al -0.110732 7.15432 2.32373
18 Al 1.83516 5.50245 3.77737
19 Al 1.798 8.87213 1.09186
20 Ni -0.104245 4.94069 0.234621
21 Ni -0.172594 6.71484 4.75062
22 Ni -0.0835836 9.63036 2.45867
23 Ni 1.94426 6.20854 1.43404
24 Ni 1.81969 7.97412 3.68044
25 Al -0.262626 6.31371 7.16667
26 Al 1.73573 4.63306 8.90496
27 Al 1.6409 7.93827 6.13124
28 Ni -0.151337 4.10745 4.95592
29 Ni -0.0799084 5.93365 9.87419
30 Ni -0.15594 8.9112 7.42897
31 Ni 1.72472 5.4154 6.29388
32 Ni 1.75856 7.10431 8.45638
33 Al -0.250904 12.1194 2.53705
34 Al 1.84767 10.3815 3.913
35 Al 1.7817 13.7647 1.17013
36 Ni -0.0168621 10.0647 -0.118216
37 Ni -0.118276 11.6777 5.05958
38 Ni -0.161935 14.6297 2.38415
39 Ni 1.80319 11.298 1.42663
40 Ni 1.73805 12.9072 3.58069
41 Al -0.12405 11.3719 7.56028
42 Al 1.79845 9.6364 8.84544
43 Al 1.81046 12.91 6.0748
44 Ni -0.117863 9.17898 4.95193
45 Ni -0.183416 10.9313 10.0255
46 Ni -0.165585 13.781 7.38691
47 Ni 1.7442 10.5041 6.38733
48 Ni 1.77683 12.1389 8.62168
49 Al 3.73885 2.14572 2.45384
50 Al 5.76316 0.479748 3.78272
51 Al 5.64052 3.78205 1.02325
52 Ni 3.76889 -0.0327426 -0.0648873
53 Ni 3.76752 1.69259 4.94446
54 Ni 3.8767 4.64452 2.51623
55 Ni 5.59988 1.1258 1.32468
56 Ni 5.73749 2.98449 3.45247
57 Al 3.6727 1.29482 7.60274
58 Al 5.62416 -0.257703 8.76576
59 Al 5.62259 2.88451 5.99182
60 Ni 3.715 -0.808324 4.88318
61 Ni 3.60084 0.883041 10.0659
62 Ni 3.70904 3.88908 7.44565
63 Ni 5.5793 0.327688 6.31413
64 Ni 5.69177 2.21842 8.42337
65 Al 3.79949 7.17459 2.45998
66 Al 5.62929 5.43315 3.90731
67 Al 5.72475 8.64079 1.18415
68 Ni 3.70951 5.03031 0.0523223
69 Ni 3.83061 6.85008 4.93682
70 Ni 3.79506 9.67864 2.50523
71 Ni 5.70057 6.20335 1.36788
72 Ni 5.69192 7.93655 3.67061
73 Al 3.6837 6.34554 7.24882
74 Al 5.56816 4.74269 8.92402
75 Al 5.64919 7.92138 6.17827
76 Ni 3.72607 4.22522 5.01869
77 Ni 3.63164 5.80045 9.77091
78 Ni 3.73767 8.8482 7.48061
79 Ni 5.63648 5.29623 6.35608
80 Ni 5.58907 7.21427 8.57586
81 Al 3.71721 12.1345 2.5472
82 Al 5.53728 10.3568 3.8947
83 Al 5.62705 13.6985 1.01769
84 Ni 3.77411 9.93894 -0.0288216
85 Ni 3.70512 11.782 5.05863
86 Ni 3.82191 14.5776 2.38342
87 Ni 5.63413 11.0824 1.56453
88 Ni 5.56148 13.1407 3.56176
89 Al 3.71182 11.2384 7.50303
90 Al 5.6381 9.65276 8.82354
91 Al 5.67287 13.0337 6.12964
92 Ni 3.71079 9.2971 5.12587
93 Ni 3.80075 10.9104 9.94725
94 Ni 3.73319 13.6984 7.26923
95 Ni 5.66919 10.391 6.42953
96 Ni 5.6121 12.2687 8.47937
97 Al 7.59315 2.04734 2.30686
98 Al 9.59872 0.3989 3.85482
99 Al 9.42673 3.74857 1.08695
100 Ni 7.47085 -0.0655895 -0.0109345
101 Ni 7.62345 1.75715 4.82308
102 Ni 7.52115 4.52361 2.46134
103 Ni 9.52559 1.11156 1.38497
104 Ni 9.55083 3.0112 3.56182
105 Al 7.4654 1.26463 7.34075
106 Al 9.38508 -0.177037 8.70149
107 Al 9.45391 2.83529 6.08155
108 Ni 7.57266 -0.787457 5.02421
109 Ni 7.58063 0.89096 9.81856
110 Ni 7.45118 3.74901 7.51957
111 Ni 9.50703 0.465038 6.33261
112 Ni 9.46814 2.11333 8.57069
113 Al 7.59846 7.01454 2.41675
114 Al 9.34663 5.51257 3.75469
115 Al 9.46357 8.79798 1.04704
116 Ni 7.57432 4.92199 0.00850337
117 Ni 7.45327 6.76218 4.89521
118 Ni 7.57697 9.55985 2.62568
119 Ni 9.49757 6.10073 1.28701
120 Ni 9.44314 7.9139 3.5866
121 Al 7.56493 6.28082 7.31973
122 Al 9.4419 4.68045 8.76658
123 Al 9.38236 7.96249 6.05903
124 Ni 7.63493 4.15719 4.99768
125 Ni 7.50377 5.84427 9.78151
126 Ni 7.47915 8.95268 7.63497
127 Ni 9.37359 5.3402 6.25917
128 Ni 9.39542 7.19135 8.51908
129 Al 7.56527 12.1052 2.54169
130 Al 9.41447 10.4819 3.89801
131 Al 9.41973 13.8619 1.04044
132 Ni 7.44796 10.1161 0.0530271
133 Ni 7.54147 11.7507 4.87304
134 Ni 7.67521 14.6259 2.65307
135 Ni 9.48685 11.1802 1.32526
136 Ni 9.47608 13.1526 3.56701
137 Al 7.60404 11.3341 7.42337
138 Al 9.33209 9.72662 8.88979
139 Al 9.49298 13.0107 6.00728
140 Ni 7.4196 9.21274 5.10037
141 Ni 7.51593 10.9434 9.94864
142 Ni 7.62133 13.7319 7.43761
143 Ni 9.48773 10.4166 6.41444
144 Ni 9.48117 12.3511 8.61534
ITEM: TIMESTEP
11200
ITEM: NUMBER OF ATOMS
144
ITEM: BOX BOUNDS xy xz yz pp pp pp
-1.0018659384499876e-01 1.1444491061669492e+01 -2.7348529020165976e-02
-1.5885484918970727e+00 1.5016570637336649e+01 -2.3407001502796055e-02
1.7137370151083076e-02 9.8855808105889764e+00 -1.5824762777778867e+00
ITEM: ATOMS id element xu yu zu
1 Al -0.141047 2.00803 2.50383
2 Al 1.8327 0.495784 3.83685
3 Al 1.79643 3.65386 1.0944
4 Ni 0.0957556 0.0212304 0.230558
5 Ni -0.123835 1.66608 4.99067
6 Ni -0.0392964 4.61395 2.42151
7 Ni 1.88932 1.25658 1.45939
8 Ni 1.8853 2.93675 3.53486
9 Al -0.076128 1.26138 7.38938
10 Al 1.82618 -0.231422 8.83131
11 Al 1.81369 3.03625 5.91844
12 Ni -0.0225849 -0.88536 5.03036
13 Ni -0.018872 1.00691 9.67945
14 Ni -0.0934427 3.67042 7.34524
15 Ni 1.83593 0.417574 6.15119
16 Ni 1.92124 2.23606 8.4311
17 Al -0.0950402 7.06542 2.52672
18 Al 1.86859 5.52542 3.7051
19 Al 1.73195 8.71859 1.07511
20 Ni -0.0935049 5.15967 -0.0703674
21 Ni -0.0629469 6.65646 5.0014
22 Ni -0.10754 9.51662 2.51626
23 Ni 1.79356 6.21539 1.28522
24 Ni 1.83814 8.12036 3.45108
25 Al -0.112284 6.20128 7.43662
26 Al 1.76498 4.75146 8.78815
27 Al 1.76164 7.86353 6.01046
28 Ni -0.0400911 4.25602 4.94821
29 Ni -0.190262 5.95301 9.89566
30 Ni -0.140957 8.74064 7.41679
31 Ni 1.79188 5.42545 6.35617
32 Ni 1.82149 7.50656 8.55391
33 Al -0.0536478 12.0779 2.56032
34 Al 1.72802 10.4645 3.97585
35 Al 1.78048 13.7452 1.27605
36 Ni -0.166179 10.0509 0.129189
37 Ni -0.185878 11.7417 5.0197
38 Ni -0.131066 14.4875 2.58585
39 Ni 1.86311 11.1007 1.46855
40 Ni 1.84861 13.088 3.70419
41 Al -0.0707095 11.2658 7.46755
42 Al 1.71458 9.82114 8.94874
43 Al 1.92118 12.9013 6.14957
44 Ni -0.116754 9.16646 4.93379
45 Ni -0.0631225 10.9663 10.0026
46 Ni -0.0723865 13.851 7.55188
47 Ni 1.82221 10.2802 6.44825
48 Ni 1.77324 12.3817 8.56959
49 Al 3.79942 2.17545 2.39197
50 Al 5.71694 0.422947 3.89203
51 Al 5.756 3.80476 1.15918
52 Ni 3.73045 0.0628161 0.109107
53 Ni 3.60343 1.58941 4.88406
54 Ni 3.75105 4.57414 2.40691
55 Ni 5.71727 1.19852 1.34952
56 Ni 5.64192 2.97244 3.59429
57 Al 3.72392 1.42687 7.29316
58 Al 5.74828 -0.172394 8.77116
59 Al 5.65567 2.99908 6.11306
60 Ni 3.78008 -0.868646 4.90872
61 Ni 3.78727 0.936905 9.7716
62 Ni 3.55611 3.85084 7.31835
63 Ni 5.60966 0.418357 6.35202
64 Ni 5.56759 2.2987 8.50416
65 Al 3.74413 7.08846 2.46387
66 Al 5.65651 5.52404 3.72205
67 Al 5.7134 8.80037 1.16441
68 Ni 3.77478 5.13307 -0.0567955
69 Ni 3.68949 6.52765 4.90636
70 Ni 3.74384 9.61931 2.62799
71 Ni 5.60658 6.17539 1.24559
72 Ni 5.66284 8.24752 3.52631
73 Al 3.67993 6.35706 7.41579
74 Al 5.65763 4.72769 8.7284
75 Al 5.6013 7.91543 5.98051
76 Ni 3.75309 4.09971 4.89759
77 Ni 3.78531 6.04464 9.88219
78 Ni 3.69037 8.91559 7.53439
79 Ni 5.54684 5.46861 6.21653
80 Ni 5.61842 7.39438 8.47816
81 Al 3.77598 12.1203 2.6329
82 Al 5.6789 10.512 3.85222
83 Al 5.52087 13.7325 1.14187
84 Ni 3.69002 10.1405 0.18404
85 Ni 3.71124 11.606 4.95166
86 Ni 3.6455 14.701 2.53444
87 Ni 5.63057 11.2969 1.37088
88 Ni 5.73887 13.0174 3.62108
89 Al 3.75298 11.3335 7.60083
90 Al 5.65469 9.67323 8.81917
91 Al 5.56632 13.0015 6.26018
92 Ni 3.80589 9.14744 4.91662
93 Ni 3.5717 11.0664 10.0152
94 Ni 3.66366 14.0072 7.53406
95 Ni 5.61676 10.3904 6.42828
96 Ni 5.66902 12.309 8.64523
97 Al 7.62409 2.07594 2.46545
98 Al 9.4985 0.284211 3.86855
99 Al 9.5863 3.77252 1.04492
100 Ni 7.76242 -0.00448387 -0.020712
101 Ni 7.53022 1.5994 5.04945
102 Ni 7.74405 4.56118 2.37132
103 Ni 9.60698 1.10917 1.4739
104 Ni 9.514 2.92748 3.59603
105 Al 7.53893 1.42841 7.50376
106 Al 9.5059 -0.212963 8.71477
107 Al 9.4456 2.86686 5.96502
108 Ni 7.60337 -0.87322 4.91328
109 Ni 7.6284 0.913588 9.91885
110 Ni 7.62294 3.86281 7.33385
111 Ni 9.53295 0.198011 6.39335
112 Ni 9.49358 2.35456 8.51859
113 Al 7.47249 7.05504 2.54338
114 Al 9.4741 5.49128 3.81298
115 Al 9.49599 8.74906 1.11254
116 Ni 7.61214 5.06232 -0.101307
117 Ni 7.66088 6.57766 4.95234
118 Ni 7.55329 9.62113 2.44779
119 Ni 9.49387 6.16933 1.46475
120 Ni 9.46238 8.1143 3.51083
121 Al 7.55552 6.34725 7.37035
122 Al 9.34593 4.86431 8.73526
123 Al 9.53224 7.88028 5.92742
124 Ni 7.51899 4.1658 4.89026
125 Ni 7.48773 5.93033 9.91638
126 Ni 7.5816 8.7836 7.35994
127 Ni 9.51742 5.4496 6.3904
128 Ni 9.47781 7.34609 8.5176
129 Al 7.57739 12.0352 2.68534
130 Al 9.48114 10.524 3.89253
131 Al 9.52889 13.6721 1.18131
132 Ni 7.66726 9.94023 0.0189019
133 Ni 7.61356 11.6758 5.18662
134 Ni 7.53574 14.5874 2.41614
135 Ni 9.52309 11.1062 1.56039
136 Ni 9.47404 12.937 3.70511
137 Al 7.49876 11.2809 7.57118
138 Al 9.37752 9.69969 8.93909
139 Al 9.51529 12.8864 6.20352
140 Ni 7.6596 9.20728 4.92014
141 Ni 7.59395 10.8861 9.94086
142 Ni 7.42904 13.9842 7.44816
143 Ni 9.35705 10.3854 6.4204
144 Ni 9.45447 12.0913 8.54624
ITEM: TIMESTEP
11300
ITEM: NUMBER OF ATOMS
144
ITEM: BOX BOUNDS xy xz yz pp pp pp
-6.0683356444908298e-02 1.1510928042667004e+01 1.5516819209178325e-02
-1.5813507791613057e+00 1.5032914651537828e+01 3.9667868665475017e-02
-1.1190963621507954e-02 9.9139091443615683e+00 -1.5589345508409478e+00
ITEM: ATOMS id element xu yu zu
1 Al -0.194028 1.97622 2.45477
2 Al 1.98478 0.49277 3.97966
3 Al 1.77564 3.62551 1.03801
4 Ni -0.206234 0.0349315 0.0446683
5 Ni -0.0732799 1.68743 4.76002
6 Ni -0.0520811 4.57933 2.35368
7 Ni 1.77826 1.16987 1.27484
8 Ni 1.78852 3.09274 3.37545
9 Al -0.0914394 1.23888 7.33417
10 Al 1.87648 -0.207886 8.85553
11 Al 1.95509 2.86727 5.79335
12 Ni -0.151158 -0.705094 5.05015
13 Ni -0.163832 0.947878 9.99345
14 Ni 0.0316388 3.98042 7.36446
15 Ni 1.91119 0.318295 6.50295
16 Ni 1.76073 2.36239 8.25555
17 Al -0.0653137 7.07928 2.4704
18 Al 1.7992 5.58685 3.80655
19 Al 1.84335 8.76562 1.20118
20 Ni -0.0463232 4.95929 -0.180624
21 Ni -0.0795994 6.73568 5.03717
22 Ni -0.0978931 9.63412 2.52453
23 Ni 1.833 6.2085 1.43767
24 Ni 1.82958 7.90725 3.68151
25 Al -0.0238519 6.31161 7.38277
26 Al 1.89203 4.71097 8.83673
27 Al 1.8665 7.89222 6.20377
28 Ni -0.0876895 4.11056 4.84764
29 Ni 0.112707 6.00875 9.98295
30 Ni 0.136143 8.9195 7.52553
31 Ni 1.95785 5.18463 6.26686
32 Ni 1.91934 7.16699 8.58159
33 Al -0.0511359 12.1371 2.57408
34 Al 1.84867 10.4098 3.80046
35 Al 1.80506 13.7876 1.19671
36 Ni 0.0372761 10.0252 0.0433754
37 Ni 0.059736 11.6384 5.03595
38 Ni -0.080428 14.7256 2.57507
39 Ni 1.78339 11.3102 1.39425
40 Ni 1.79651 13.0585 3.68221
41 Al 0.0206344 11.3665 7.61651
42 Al 1.94827 9.67158 8.91709
43 Al 1.82549 12.9855 6.08132
44 Ni 0.000130204 9.22153 5.1037
45 Ni -0.0136006 10.9989 10.0307
46 Ni -0.0849636 13.8222 7.47241
47 Ni 1.93401 10.49 6.32522
48 Ni 1.89189 12.3737 8.69335
49 Al 3.69612 2.06976 2.44218
50 Al 5.8149 0.356263 3.96367
51 Al 5.59311 3.72943 1.13071
52 Ni 3.79213 0.0213457 0.105909
53 Ni 3.96501 1.63355 4.90441
54 Ni 3.66467 4.66203 2.39717
55 Ni 5.77748 1.18138 1.52
56 Ni 5.72661 3.02002 3.43043
57 Al 3.86225 1.36923 7.38926
58 Al 5.75409 -0.294153 8.83028
59 Al 5.78627 2.94374 5.96602
60 Ni 3.72654 -0.805374 5.20893
61 Ni 3.78894 1.05404 9.83592
62 Ni 4.01946 3.84397 7.3833
63 Ni 5.84269 0.305616 6.32767
64 Ni 5.82643 2.28535 8.50409
65 Al 3.73701 7.09277 2.42398
66 Al 5.62506 5.40189 3.79405
67 Al 5.75167 8.72755 1.105
68 Ni 3.84915 5.03401 -0.0998259
69 Ni 3.80304 6.72395 4.86204
70 Ni 3.77428 9.63518 2.38608
71 Ni 5.72284 6.24094 1.33514
72 Ni 5.6669 7.79684 3.50378
73 Al 3.88205 6.20829 7.34802
74 Al 5.81962 4.752 8.95253
75 Al 5.62494 7.93768 6.02202
76 Ni 3.70158 4.27695 4.87412
77 Ni 3.75389 5.96861 9.90125
78 Ni 3.84765 8.87402 7.40059
79 Ni 5.82042 5.33946 6.29864
80 Ni 5.7555 7.29173 8.48576
81 Al 3.74273 12.1006 2.57022
82 Al 5.57935 10.3047 3.78438
83 Al 5.65013 13.7421 1.18319
84 Ni 3.82131 10.0584 -0.168967
85 Ni 3.76817 11.7458 5.09298
86 Ni 3.84457 14.6259 2.65772
87 Ni 5.69545 11.192 1.49991
88 Ni 5.62093 12.9887 3.66566
89 Al 3.76744 11.3915 7.53912
90 Al 5.63983 9.81158 8.80513
91 Al 5.7745 12.9344 6.24153
92 Ni 3.71222 9.22642 4.87109
93 Ni 3.91722 11.0004 9.97537
94 Ni 3.88418 13.8216 7.5914
95 Ni 5.69345 10.4394 6.38354
96 Ni 5.65732 12.3314 8.60172
97 Al 7.62638 2.19855 2.492
98 Al 9.45424 0.504521 3.81849
99 Al 9.40392 3.80627 1.05807
100 Ni 7.45773 0.0543644 0.090451
101 Ni 7.65697 1.73304 4.96753
102 Ni 7.5127 4.65893 2.43273
103 Ni 9.28133 1.21806 1.37419
104 Ni 9.52123 3.10802 3.49192
105 Al 7.66282 1.30738 7.58298
106 Al 9.47145 -0.178809 8.78536
107 Al 9.55232 2.92777 5.97965
108 Ni 7.60186 -0.806218 5.01154
109 Ni 7.53646 0.912934 9.9719
110 Ni 7.62308 3.85331 7.37163
111 Ni 9.38529 0.511052 6.28517
112 Ni 9.59703 2.1864 8.45084
113 Al 7.67548 7.16488 2.45754
114 Al 9.46942 5.56018 3.75044
115 Al 9.67375 8.77485 1.11265
116 Ni 7.63157 5.09589 -0.0207521
117 Ni 7.55687 6.74594 4.94141
118 Ni 7.62343 9.64437 2.42672
119 Ni 9.54282 6.15769 1.28512
120 Ni 9.65299 7.92292 3.73427
121 Al 7.63102 6.29741 7.41015
122 Al 9.5693 4.66886 8.64636
123 Al 9.48948 7.92678 6.08209
124 Ni 7.64705 4.24294 4.82645
125 Ni 7.70536 6.04056 9.8566
126 Ni 7.59133 8.92822 7.45827
127 Ni 9.55972 5.38276 6.29689
128 Ni 9.59604 7.14347 8.56917
129 Al 7.56849 12.0815 2.70471
130 Al 9.50282 10.45 3.86865
131 Al 9.55689 13.7446 1.28816
132 Ni 7.47597 10.1734 -0.0529838
133 Ni 7.59857 11.6472 4.93946
134 Ni 7.69475 14.6308 2.57082
135 Ni 9.45205 11.2458 1.31134
136 Ni 9.56318 13.0834 3.69842
137 Al 7.7029 11.2857 7.62479
138 Al 9.53652 9.68204 8.89423
139 Al 9.60822 12.9296 6.07695
140 Ni 7.51178 9.21866 4.9022
141 Ni 7.6587 11.0835 10.1077
142 Ni 7.7508 13.7639 7.50524
143 Ni 9.67435 10.3946 6.41282
144 Ni 9.61692 12.3816 8.67378
ITEM: TIMESTEP
11400
ITEM: NUMBER OF ATOMS
144
ITEM: BOX BOUNDS xy xz yz pp pp pp
-5.5452347271316878e-02 1.1474061687528197e+01 -3.2818393646543161e-02
-1.5655756256135307e+00 1.5048345478453363e+01 5.6367735555982838e-02
-8.8444629558193100e-03 9.9115626436958699e+00 -1.5277285703776231e+00
ITEM: ATOMS id element xu yu zu
1 Al 0.0398095 2.13519 2.49507
2 Al 1.80867 0.465863 3.84221
3 Al 1.77655 3.67285 1.24984
4 Ni 0.0664887 -0.0927287 0.0280921
5 Ni -0.0471244 1.80967 5.00558
6 Ni -0.0711104 4.7436 2.4401
7 Ni 1.86251 1.12777 1.48613
8 Ni 1.87752 2.94985 3.69017
9 Al 0.0718886 1.34448 7.45784
10 Al 1.99991 -0.390382 8.8899
11 Al 1.85755 3.11573 6.03393
12 Ni 0.0832319 -0.933749 5.05473
13 Ni 0.0611426 0.940266 9.6717
14 Ni -0.082446 3.77381 7.39013
15 Ni 1.80816 0.359487 6.22156
16 Ni 1.99492 2.15583 8.65443
17 Al -0.00586008 7.21328 2.45814
18 Al 1.95474 5.50762 3.82056
19 Al 1.83212 8.61509 1.02588
20 Ni -0.100235 4.9623 0.0171192
21 Ni 0.0466014 6.75681 4.79043
22 Ni 0.0251519 9.74157 2.47908
23 Ni 1.86448 6.20407 1.2943
24 Ni 1.8815 8.2508 3.48628
25 Al -0.0597869 6.38543 7.40706
26 Al 1.79867 4.7812 8.67008
27 Al 1.74424 8.0563 6.01185
28 Ni 0.0277788 4.25268 4.90486
29 Ni -0.0645091 5.98661 9.82999
30 Ni -0.113335 8.89054 7.41647
31 Ni 1.82971 5.60858 6.34121
32 Ni 1.89593 7.41059 8.49558
33 Al 0.12764 12.2138 2.50896
34 Al 1.89149 10.6229 3.92995
35 Al 1.80481 13.6832 1.10704
36 Ni -0.113658 10.0221 -0.0237979
37 Ni -0.116601 11.8164 4.98664
38 Ni -0.0849566 14.6515 2.50612
39 Ni 1.91341 11.0974 1.42627
40 Ni 1.92022 13.0843 3.68115
41 Al -0.0450506 11.413 7.39935
42 Al 1.89263 9.66306 8.84209
43 Al 1.93256 12.9622 6.0388
44 Ni -0.0454105 9.29861 4.88134
45 Ni 0.00514974 10.981 9.90386
46 Ni -0.00708105 13.9509 7.5712
47 Ni 1.81822 10.377 6.39088
48 Ni 1.94188 12.1984 8.59945
49 Al 3.80027 2.06957 2.52226
50 Al 5.65529 0.600718 3.96621
51 Al 5.60749 3.61314 1.11939
52 Ni 3.71157 -0.100824 0.0971138
53 Ni 3.60131 1.72259 4.97497
54 Ni 3.8209 4.55664 2.48757
55 Ni 5.5593 1.16216 1.32178
56 Ni 5.61263 3.10156 3.60283
57 Al 3.71387 1.21039 7.4394
58 Al 5.77263 -0.356841 8.82023
59 Al 5.70505 2.88614 6.16262
60 Ni 3.8665 -0.748677 4.93042
61 Ni 3.77476 0.851198 9.99959
62 Ni 3.65794 3.78392 7.36227
63 Ni 5.57976 0.359941 6.34549
64 Ni 5.60376 2.35983 8.50207
65 Al 3.76158 7.05389 2.61346
66 Al 5.72494 5.59983 3.85144
67 Al 5.74009 8.75636 1.11309
68 Ni 3.73996 4.97887 -0.002801
69 Ni 3.77023 6.78278 5.03849
70 Ni 3.7809 9.61404 2.57273
71 Ni 5.65076 6.19615 1.40578
72 Ni 5.72148 8.34037 3.61156
73 Al 3.8138 6.29877 7.44407
74 Al 5.64769 4.63326 8.85492
75 Al 5.77709 7.92571 6.09017
76 Ni 3.85457 4.20149 4.9701
77 Ni 3.88287 5.91147 9.92226
78 Ni 3.81686 8.78699 7.40969
79 Ni 5.67469 5.44776 6.32966
80 Ni 5.73427 7.32884 8.52192
81 Al 3.81376 12.1428 2.53697
82 Al 5.77508 10.6917 3.90562
83 Al 5.62965 13.7743 1.12657
84 Ni 3.72453 10.0049 0.0159124
85 Ni 3.80686 11.7518 4.99618
86 Ni 3.69523 14.6412 2.50401
87 Ni 5.6602 11.149 1.37852
88 Ni 5.74455 13.2077 3.62842
89 Al 3.80263 11.3732 7.46025
90 Al 5.587 9.72308 8.81162
91 Al 5.6045 13.0226 6.14967
92 Ni 3.87338 9.28196 5.0237
93 Ni 3.7508 10.9362 9.99633
94 Ni 3.74535 13.8465 7.48682
95 Ni 5.70813 10.3532 6.32958
96 Ni 5.73491 12.2432 8.66537
97 Al 7.54144 2.10637 2.30065
98 Al 9.55923 0.525969 3.85521
99 Al 9.39794 3.73509 1.10978
100 Ni 7.62759 -0.0557016 -0.0103978
101 Ni 7.56102 1.66607 4.82474
102 Ni 7.65535 4.64379 2.48278
103 Ni 9.62873 1.19095 1.41552
104 Ni 9.52179 3.00239 3.54511
105 Al 7.69228 1.25219 7.41842
106 Al 9.53173 -0.424196 8.7974
107 Al 9.49554 2.94216 5.99157
108 Ni 7.63334 -0.769517 5.00899
109 Ni 7.70424 1.068 9.82465
110 Ni 7.60924 3.8776 7.43332
111 Ni 9.68669 0.228978 6.39664
112 Ni 9.45809 2.38794 8.48048
113 Al 7.55506 7.11805 2.41666
114 Al 9.44855 5.58609 3.80597
115 Al 9.61939 8.77337 1.10785
116 Ni 7.51225 5.05184 -0.0802141
117 Ni 7.72038 6.76141 4.89053
118 Ni 7.56143 9.64723 2.6254
119 Ni 9.533 6.26474 1.39543
120 Ni 9.37301 8.20071 3.48311
121 Al 7.60183 6.27468 7.45905
122 Al 9.53112 4.80846 8.72096
123 Al 9.57506 7.92585 5.87424
124 Ni 7.58655 4.16175 4.98993
125 Ni 7.57519 5.93425 9.91101
126 Ni 7.67799 8.84198 7.49654
127 Ni 9.59603 5.46369 6.2953
128 Ni 9.56888 7.48979 8.5361
129 Al 7.53921 12.0906 2.48255
130 Al 9.45436 10.6525 3.8971
131 Al 9.50228 13.6943 1.17714
132 Ni 7.73138 9.98594 0.0538
133 Ni 7.6408 11.8771 5.03171
134 Ni 7.48517 14.7472 2.58897
135 Ni 9.59082 11.2139 1.51446
136 Ni 9.42132 13.1405 3.53184
137 Al 7.56397 11.3356 7.47628
138 Al 9.50665 9.87929 8.94695
139 Al 9.47027 13.013 6.12898
140 Ni 7.75324 9.21667 5.06336
141 Ni 7.58427 10.9113 9.7854
142 Ni 7.40613 14.0269 7.44057
143 Ni 9.4515 10.4875 6.36635
144 Ni 9.49091 12.218 8.53235
ITEM: TIMESTEP
11500
ITEM: NUMBER OF ATOMS
144
ITEM: BOX BOUNDS xy xz yz pp pp pp
-1.0611970247742461e-01 1.1415324533407286e+01 -6.4950044152381370e-02
-1.4957814017865787e+00 1.5023700062935994e+01 -2.0905123265196082e-02
-1.4737119672124877e-02 9.9174553004121702e+00 -1.4825797620680352e+00
ITEM: ATOMS id element xu yu zu
1 Al 0.0724635 2.16308 2.61588
2 Al 1.96314 0.626312 3.89296
3 Al 1.80884 3.78995 1.14376
4 Ni -0.0516292 -0.067727 -0.0454298
5 Ni -0.0257047 1.75888 5.02013
6 Ni -0.0200831 4.57932 2.50972
7 Ni 1.90562 1.13767 1.34276
8 Ni 1.86981 3.26524 3.73179
9 Al -0.0221852 1.3167 7.54635
10 Al 1.86323 -0.171523 8.83091
11 Al 1.84537 2.91808 6.14337
12 Ni -0.11992 -0.672785 4.87458
13 Ni -0.026967 0.958667 10.2307
14 Ni -0.131594 3.98743 7.56648
15 Ni 1.90954 0.43743 6.47073
16 Ni 1.73986 2.39407 8.57349
17 Al -0.0820436 7.08954 2.35437
18 Al 1.77836 5.63398 3.91883
19 Al 1.81901 8.76271 1.08471
20 Ni -0.0515595 5.0298 0.0821376
21 Ni -0.145795 6.81042 4.99151
22 Ni -0.126146 9.57952 2.42859
23 Ni 1.87921 6.18848 1.46801
24 Ni 1.83355 8.03987 3.55131
25 Al -0.13883 6.30534 7.29549
26 Al 1.85293 4.90696 8.78567
27 Al 1.8028 7.95692 6.03062
28 Ni -0.106932 4.31349 5.16762
29 Ni -0.110724 6.01297 9.86789
30 Ni 0.0242659 8.82966 7.42025
31 Ni 1.87274 5.33901 6.32979
32 Ni 1.7342 7.28512 8.51464
33 Al -0.0707155 12.1377 2.45749
34 Al 1.78908 10.57 3.79484
35 Al 1.8765 13.7418 0.978399
36 Ni -0.0456659 9.98266 -0.0460285
37 Ni -0.0288533 11.844 4.98619
38 Ni -0.0293499 14.6829 2.40888
39 Ni 1.84311 11.349 1.431
40 Ni 1.79212 13.1563 3.52611
41 Al -0.121622 11.4109 7.50489
42 Al 1.83761 9.72463 8.87227
43 Al 1.81489 13.0242 5.9494
44 Ni -0.0504352 9.18316 4.95362
45 Ni -0.125183 11.0154 10.0768
46 Ni -0.150579 13.8688 7.26427
47 Ni 1.80893 10.4434 6.33744
48 Ni 1.84289 12.4838 8.52969
49 Al 3.79481 2.28515 2.44746
50 Al 5.63492 0.562293 3.9479
51 Al 5.60792 3.56095 1.1203
52 Ni 3.82059 0.0091163 -0.158128
53 Ni 3.78189 1.85287 5.0372
54 Ni 3.73716 4.76366 2.51538
55 Ni 5.78981 1.12979 1.36966
56 Ni 5.68316 3.05699 3.49446
57 Al 3.78544 1.38788 7.59181
58 Al 5.75503 -0.389316 8.7333
59 Al 5.63739 3.05992 6.08666
60 Ni 3.69748 -0.775508 4.90367
61 Ni 3.7047 0.978398 9.97434
62 Ni 3.80358 3.94467 7.58101
63 Ni 5.60553 0.494654 6.29971
64 Ni 5.69157 2.22597 8.59444
65 Al 3.75468 7.19606 2.49746
66 Al 5.63602 5.49024 3.82008
67 Al 5.64217 8.71308 1.16718
68 Ni 3.78908 4.97526 0.0528602
69 Ni 3.79189 6.77496 4.87117
70 Ni 3.77146 9.77625 2.48152
71 Ni 5.62318 6.13557 1.32064
72 Ni 5.6508 7.98685 3.6385
73 Al 3.72048 6.4235 7.3316
74 Al 5.719 4.61239 8.86328
75 Al 5.53579 8.10046 6.15618
76 Ni 3.6576 4.2863 5.02894
77 Ni 3.67479 5.96237 9.9369
78 Ni 3.64973 8.85543 7.53709
79 Ni 5.56325 5.44687 6.38571
80 Ni 5.59133 7.2243 8.57168
81 Al 3.70801 12.2343 2.49654
82 Al 5.67357 10.5643 3.82053
83 Al 5.61227 13.8046 0.964086
84 Ni 3.78467 9.96414 0.0236549
85 Ni 3.69396 11.8305 4.95284
86 Ni 3.76871 14.7188 2.36057
87 Ni 5.67743 11.2817 1.39958
88 Ni 5.63482 13.1024 3.54823
89 Al 3.62834 11.4333 7.4167
90 Al 5.56292 9.82088 8.84549
91 Al 5.60321 13.12 6.00177
92 Ni 3.67958 9.34406 4.94918
93 Ni 3.76857 10.971 9.8917
94 Ni 3.69271 13.9109 7.30329
95 Ni 5.65644 10.5134 6.38287
96 Ni 5.61561 12.4294 8.39616
97 Al 7.57227 2.11513 2.42642
98 Al 9.43557 0.676381 3.83331
99 Al 9.4047 3.58411 1.17414
100 Ni 7.54598 -0.0532156 -0.0522868
101 Ni 7.51871 1.88691 4.98431
102 Ni 7.51276 4.61317 2.47308
103 Ni 9.51835 1.10681 1.36211
104 Ni 9.3793 3.19726 3.65014
105 Al 7.55304 1.33114 7.50878
106 Al 9.52854 -0.270334 8.7949
107 Al 9.58364 3.01772 6.1013
108 Ni 7.53266 -0.711411 4.98087
109 Ni 7.49932 0.807558 9.90933
110 Ni 7.50419 3.82409 7.47228
111 Ni 9.3439 0.573193 6.38519
112 Ni 9.41547 2.23518 8.61432
113 Al 7.58671 7.15179 2.49017
114 Al 9.41131 5.65942 3.8816
115 Al 9.48517 8.71374 1.06165
116 Ni 7.6564 4.80353 0.0423003
117 Ni 7.45972 6.82386 4.96147
118 Ni 7.55044 9.74906 2.43159
119 Ni 9.36896 6.07278 1.45932
120 Ni 9.55286 8.02951 3.58962
121 Al 7.38267 6.34558 7.38778
122 Al 9.40771 4.6723 8.83903
123 Al 9.3248 8.06689 5.97582
124 Ni 7.52793 4.38689 4.99649
125 Ni 7.51982 5.98093 9.92019
126 Ni 7.49597 8.90541 7.42448
127 Ni 9.279 5.41132 6.38157
128 Ni 9.41125 7.12699 8.51937
129 Al 7.57958 12.2055 2.50778
130 Al 9.44713 10.5155 3.84352
131 Al 9.53245 13.6638 1.15143
132 Ni 7.37691 9.95379 -0.0146739
133 Ni 7.5524 11.8323 4.87483
134 Ni 7.65334 14.6396 2.38453
135 Ni 9.36185 11.2049 1.23178
136 Ni 9.43868 13.0653 3.67111
137 Al 7.5549 11.4494 7.45052
138 Al 9.39228 9.72108 8.79581
139 Al 9.38864 13.1242 6.03378
140 Ni 7.4378 9.35494 4.92036
141 Ni 7.59321 11.0728 9.95218
142 Ni 7.65164 13.873 7.51822
143 Ni 9.43988 10.4665 6.30453
144 Ni 9.40592 12.4332 8.52035
ITEM: TIMESTEP
11600
ITEM: NUMBER OF ATOMS
144
ITEM: BOX BOUNDS xy xz yz pp pp pp
-1.1340323275943559e-01 1.1494277974185866e+01 3.0055469009856353e-02
-1.4887568603834864e+00 1.5043164078989214e+01 -4.4240725930856983e-02
-8.4758412588765708e-03 9.9111940219989147e+00 -1.4560912046117094e+00
ITEM: ATOMS id element xu yu zu
1 Al -0.0810671 2.13129 2.37025
2 Al 1.81647 0.490812 3.74636
3 Al 1.77747 3.77068 1.12729
4 Ni -0.0945225 0.0448782 0.0168495
5 Ni -0.140229 1.80678 5.06206
6 Ni -0.142151 4.60137 2.68023
7 Ni 1.76363 1.24804 1.3653
8 Ni 1.75935 2.91382 3.52908
9 Al -0.0451405 1.2873 7.43367
10 Al 1.95282 -0.274553 8.79083
11 Al 1.85443 3.05515 5.95754
12 Ni -0.0473063 -0.780758 5.00162
13 Ni -0.122351 1.0581 9.75775
14 Ni -0.0490326 3.73925 7.51335
15 Ni 1.78488 0.470578 6.21272
16 Ni 1.91425 2.2434 8.64291
17 Al -0.161625 7.13431 2.565
18 Al 1.83025 5.40804 3.93954
19 Al 1.8095 8.67119 1.12536
20 Ni -0.0715719 4.94821 0.124345
21 Ni -0.0810452 6.79917 5.01559
22 Ni -0.0865087 9.6407 2.49839
23 Ni 1.74836 6.15596 1.47609
24 Ni 1.77043 8.12492 3.62711
25 Al -0.0914633 6.34155 7.60934
26 Al 1.83909 4.80299 8.82334
27 Al 1.73664 8.05907 6.1093
28 Ni -0.0864054 4.25023 5.00869
29 Ni -0.0947429 6.05632 10.094
30 Ni -0.0824093 8.93924 7.43819
31 Ni 1.7797 5.49542 6.44575
32 Ni 1.8517 7.42111 8.60584
33 Al -0.102627 12.2213 2.27324
34 Al 1.82907 10.6483 3.81443
35 Al 1.78626 13.7484 0.998414
36 Ni -0.0800934 9.99973 0.0510457
37 Ni -0.117371 11.8415 4.88599
38 Ni -0.143441 14.6502 2.44418
39 Ni 1.79063 11.1021 1.28754
40 Ni 1.80263 13.1039 3.48957
41 Al -0.0548819 11.4208 7.23846
42 Al 1.82519 9.84061 8.67911
43 Al 1.91505 13.0382 6.00342
44 Ni -0.158238 9.38199 4.99231
45 Ni -0.0911737 11.1135 9.70552
46 Ni -0.0336033 13.9307 7.49797
47 Ni 1.86849 10.5139 6.25451
48 Ni 1.79168 12.3537 8.43303
49 Al 3.76499 2.19153 2.46471
50 Al 5.68184 0.561017 3.94442
51 Al 5.67081 3.72751 1.24232
52 Ni 3.73079 -0.100965 0.0260372
53 Ni 3.79355 1.67892 4.99493
54 Ni 3.75637 4.56946 2.57358
55 Ni 5.62046 1.24498 1.40838
56 Ni 5.76291 3.07654 3.72593
57 Al 3.8298 1.34842 7.38368
58 Al 5.78185 -0.229164 8.869
59 Al 5.70946 3.00726 6.13106
60 Ni 3.87599 -0.768419 4.9863
61 Ni 3.78859 1.12072 9.97861
62 Ni 3.69002 3.88647 7.44692
63 Ni 5.75488 0.42256 6.33356
64 Ni 5.63282 2.47247 8.5919
65 Al 3.68147 7.10778 2.54856
66 Al 5.63015 5.67463 3.88381
67 Al 5.71958 8.75644 0.964556
68 Ni 3.79772 5.0062 0.0805841
69 Ni 3.63681 6.76819 5.01274
70 Ni 3.6253 9.61391 2.46911
71 Ni 5.67808 6.28085 1.55347
72 Ni 5.58243 8.22381 3.47796
73 Al 3.71617 6.43568 7.37726
74 Al 5.59818 4.84923 8.80266
75 Al 5.59958 8.06693 6.00969
76 Ni 3.82182 4.30397 4.97521
77 Ni 3.75519 6.13158 9.95327
78 Ni 3.74098 9.07774 7.3365
79 Ni 5.7812 5.52097 6.41808
80 Ni 5.56494 7.54668 8.44634
81 Al 3.70507 12.0953 2.33318
82 Al 5.76953 10.6355 3.72022
83 Al 5.76354 13.7545 1.0378
84 Ni 3.70937 10.1251 -0.106297
85 Ni 3.70908 11.9086 4.85863
86 Ni 3.73951 14.6172 2.45973
87 Ni 5.63677 11.1425 1.28039
88 Ni 5.70552 13.0824 3.50579
89 Al 3.75138 11.5491 7.36199
90 Al 5.65885 9.91234 8.84046
91 Al 5.63346 13.1065 5.97178
92 Ni 3.69189 9.21658 4.93425
93 Ni 3.69418 11.1534 9.8292
94 Ni 3.8195 14.0392 7.45111
95 Ni 5.59178 10.508 6.15205
96 Ni 5.67424 12.3555 8.59072
97 Al 7.57661 2.16003 2.56286
98 Al 9.60031 0.582143 3.84138
99 Al 9.40888 3.74611 1.20076
100 Ni 7.62361 0.0314159 -0.0232202
101 Ni 7.6905 1.67961 5.07308
102 Ni 7.61212 4.61513 2.59725
103 Ni 9.39413 1.18608 1.46941
104 Ni 9.56721 2.89705 3.71794
105 Al 7.64863 1.43216 7.56216
106 Al 9.44113 -0.348408 8.70866
107 Al 9.63657 3.10834 6.15973
108 Ni 7.65635 -0.742081 4.90444
109 Ni 7.59426 1.11508 10.1536
110 Ni 7.56321 3.96205 7.53441
111 Ni 9.61818 0.296181 6.31155
112 Ni 9.58139 2.35619 8.59885
113 Al 7.65339 7.03433 2.68081
114 Al 9.50408 5.53627 3.99306
115 Al 9.55058 8.69025 1.17834
116 Ni 7.50085 5.1364 0.0704359
117 Ni 7.59949 6.76925 5.15738
118 Ni 7.54426 9.55263 2.37723
119 Ni 9.55285 6.18284 1.42202
120 Ni 9.45946 8.07958 3.67995
121 Al 7.61019 6.46034 7.55772
122 Al 9.5581 4.79051 8.86501
123 Al 9.53145 8.02697 6.03833
124 Ni 7.58913 4.22877 5.03621
125 Ni 7.55187 6.03393 10.0578
126 Ni 7.53781 8.86395 7.27759
127 Ni 9.54566 5.50651 6.4575
128 Ni 9.57008 7.43386 8.5936
129 Al 7.64691 12.1128 2.39233
130 Al 9.45799 10.6012 3.79051
131 Al 9.5745 13.7572 0.957175
132 Ni 7.73378 9.95908 -0.0991057
133 Ni 7.57261 11.7967 4.95955
134 Ni 7.56263 14.6512 2.43519
135 Ni 9.61549 11.0995 1.40557
136 Ni 9.5253 13.1691 3.39298
137 Al 7.57732 11.4981 7.36424
138 Al 9.51224 9.8751 8.81879
139 Al 9.49747 13.0681 6.00513
140 Ni 7.62041 9.34795 4.93977
141 Ni 7.57716 10.9138 9.84539
142 Ni 7.5091 13.9555 7.33411
143 Ni 9.57634 10.4301 6.2869
144 Ni 9.60086 12.2903 8.481
ITEM: TIMESTEP
11700
ITEM: NUMBER OF ATOMS
144
ITEM: BOX BOUNDS xy xz yz pp pp pp
-7.2505845774122335e-03 1.1479311938549367e+01 4.5013281552502483e-02
-1.5144419516990593e+00 1.5017220755586322e+01 3.1988074072018952e-02
-1.8589062211962215e-03 9.9045770869612326e+00 -1.5077196193301723e+00
ITEM: ATOMS id element xu yu zu
1 Al 0.0294829 2.06465 2.496
2 Al 1.93521 0.511914 3.90616
3 Al 1.94078 3.66154 1.08148
4 Ni -0.0688457 -0.134292 -0.0425569
5 Ni 0.0122928 1.65121 4.81207
6 Ni 0.0263676 4.57795 2.42835
7 Ni 1.97316 1.11301 1.42947
8 Ni 1.93177 3.11379 3.66563
9 Al -0.0504432 1.43736 7.39019
10 Al 1.98713 -0.220227 8.73495
11 Al 1.84727 3.01762 6.11108
12 Ni -0.0691425 -0.842296 4.93145
13 Ni 0.0665137 1.01956 9.99659
14 Ni 0.0382494 4.00649 7.54846
15 Ni 1.95496 0.405478 6.43929
16 Ni 1.87431 2.4267 8.54182
17 Al 0.0250292 7.17307 2.50219
18 Al 1.88604 5.51025 3.91374
19 Al 1.80669 8.80656 1.11712
20 Ni 0.0063044 4.99615 0.00784544
21 Ni 0.0417353 6.69968 5.10495
22 Ni -0.0478625 9.65831 2.46162
23 Ni 1.91438 6.17906 1.44525
24 Ni 1.95789 8.01329 3.62803
25 Al 0.0376989 6.37015 7.53569
26 Al 1.90569 4.79019 8.89196
27 Al 1.95895 7.9913 6.05922
28 Ni 0.0317971 4.19573 4.999
29 Ni -0.0135361 6.03831 9.93213
30 Ni 0.0161152 8.98792 7.42242
31 Ni 1.99331 5.45185 6.41626
32 Ni 1.92603 7.37835 8.61084
33 Al -0.0831734 12.1367 2.2902
34 Al 2.00281 10.5127 3.73301
35 Al 1.93729 13.7048 1.11864
36 Ni -0.0242604 10.0429 -0.0032777
37 Ni 0.0719003 11.6197 4.75459
38 Ni 0.0362004 14.5788 2.53736
39 Ni 2.00579 11.2745 1.27441
40 Ni 1.97086 13.0331 3.58284
41 Al 0.0323501 11.4378 7.35397
42 Al 2.00008 9.7851 8.66928
43 Al 1.93368 12.9488 6.03166
44 Ni 0.0701362 9.21623 4.99313
45 Ni -0.0104988 10.9877 9.87243
46 Ni -0.0506224 13.972 7.40523
47 Ni 1.89919 10.476 6.25253
48 Ni 2.01986 12.3757 8.52253
49 Al 3.78973 2.07894 2.44646
50 Al 5.68845 0.504006 3.92811
51 Al 5.6289 3.71407 1.2015
52 Ni 3.83215 0.0711358 0.0363946
53 Ni 3.79799 1.76022 4.97565
54 Ni 3.79252 4.57178 2.6064
55 Ni 5.76316 1.11029 1.37944
56 Ni 5.55415 3.02281 3.61676
57 Al 3.84382 1.40323 7.41724
58 Al 5.78488 -0.179915 8.80186
59 Al 5.67482 2.98983 6.07999
60 Ni 3.76404 -0.793192 4.90421
61 Ni 3.77492 1.00751 9.91022
62 Ni 3.87244 3.9117 7.58877
63 Ni 5.66302 0.418502 6.37789
64 Ni 5.70788 2.36632 8.65053
65 Al 3.82977 7.16664 2.52156
66 Al 5.71119 5.48052 3.91061
67 Al 5.81422 8.74249 1.04281
68 Ni 3.7228 5.02161 0.0518443
69 Ni 3.92196 6.73296 5.05066
70 Ni 3.83057 9.61812 2.36903
71 Ni 5.69858 6.15675 1.50584
72 Ni 5.72893 7.91756 3.65633
73 Al 3.78418 6.33603 7.57078
74 Al 5.7804 4.73263 8.84655
75 Al 5.78334 7.93461 6.1534
76 Ni 3.77857 4.22839 5.09965
77 Ni 3.67561 6.01841 10.0133
78 Ni 3.89403 8.76682 7.35319
79 Ni 5.64104 5.38145 6.49224
80 Ni 5.77864 7.2901 8.61212
81 Al 3.87322 12.0725 2.42362
82 Al 5.83395 10.4482 3.7553
83 Al 5.71074 13.7047 1.03594
84 Ni 3.86074 9.92357 -0.0288826
85 Ni 3.87156 11.7028 4.89578
86 Ni 3.80723 14.6399 2.50776
87 Ni 5.70867 11.2644 1.26225
88 Ni 5.66511 13.0403 3.58293
89 Al 3.94232 11.3269 7.37639
90 Al 5.70604 9.79759 8.81323
91 Al 5.64137 13.0386 5.98185
92 Ni 3.90466 9.23142 4.89145
93 Ni 3.86341 11.014 9.84549
94 Ni 3.83665 13.8696 7.40972
95 Ni 5.79099 10.3486 6.26832
96 Ni 5.7773 12.449 8.48793
97 Al 7.59198 2.20237 2.43803
98 Al 9.4549 0.464959 3.9421
99 Al 9.52036 3.65182 1.08498
100 Ni 7.52703 0.0287568 -0.0530389
101 Ni 7.45254 1.68949 4.94292
102 Ni 7.57466 4.64319 2.59442
103 Ni 9.53985 1.16455 1.32959
104 Ni 9.52304 3.20993 3.54389
105 Al 7.53181 1.44577 7.44365
106 Al 9.52103 -0.168476 8.77889
107 Al 9.65136 3.00198 6.00679
108 Ni 7.46504 -0.817748 4.94604
109 Ni 7.63666 1.0418 9.84642
110 Ni 7.69362 3.88095 7.63507
111 Ni 9.43336 0.420291 6.42609
112 Ni 9.53451 2.41795 8.53553
113 Al 7.61542 7.14677 2.55612
114 Al 9.61066 5.57354 4.01782
115 Al 9.47751 8.82968 1.16492
116 Ni 7.7331 5.01879 0.11256
117 Ni 7.69961 6.71225 4.89981
118 Ni 7.62784 9.72532 2.46072
119 Ni 9.51068 6.21506 1.62848
120 Ni 9.49927 8.08727 3.64386
121 Al 7.7331 6.40257 7.30668
122 Al 9.53293 4.83795 8.99307
123 Al 9.55986 8.06528 6.06231
124 Ni 7.65393 4.21118 5.1296
125 Ni 7.66525 6.05764 10.0114
126 Ni 7.654 8.94837 7.47278
127 Ni 9.51601 5.38812 6.47419
128 Ni 9.56263 7.31728 8.63539
129 Al 7.57661 12.166 2.41725
130 Al 9.49214 10.45 3.79634
131 Al 9.53554 13.7682 0.994891
132 Ni 7.51405 10.2125 -0.0143237
133 Ni 7.5837 11.6243 4.77087
134 Ni 7.64702 14.6016 2.47676
135 Ni 9.39725 11.3396 1.21
136 Ni 9.51422 12.8867 3.54406
137 Al 7.54687 11.521 7.32051
138 Al 9.52464 9.91291 8.77588
139 Al 9.48907 13.0675 5.98274
140 Ni 7.61693 9.11394 4.85651
141 Ni 7.55835 11.1846 9.79507
142 Ni 7.7206 13.9184 7.42046
143 Ni 9.39716 10.4824 6.24877
144 Ni 9.48093 12.4698 8.40842
ITEM: TIMESTEP
11800
ITEM: NUMBER OF ATOMS
144
ITEM: BOX BOUNDS xy xz yz pp pp pp
-1.4446100123046585e-01 1.1485909088405252e+01 -9.6865696405785406e-02
-1.6252242090613860e+00 1.5056515398186487e+01 4.3253785233117042e-02
-2.1431837662355235e-02 9.9241500184023828e+00 -1.5792072340923402e+00
ITEM: ATOMS id element xu yu zu
1 Al -0.141271 2.13078 2.65781
2 Al 1.87725 0.456649 3.81132
3 Al 1.84882 3.652 1.09483
4 Ni -0.155311 0.0815998 0.0306276
5 Ni -0.0670802 1.73427 5.12409
6 Ni -0.0611731 4.69246 2.58618
7 Ni 1.78561 1.19768 1.32509
8 Ni 1.81894 2.96074 3.63647
9 Al -0.134745 1.29438 7.49846
10 Al 1.88067 -0.235742 8.65414
11 Al 1.7724 2.93079 6.10378
12 Ni -0.0862972 -0.762151 4.89449
13 Ni -0.106234 0.955318 9.98848
14 Ni -0.0989724 3.77203 7.36844
15 Ni 1.76337 0.37403 6.28723
16 Ni 1.79723 2.28691 8.7024
17 Al -0.0563262 7.06809 2.44947
18 Al 1.88542 5.40746 3.95492
19 Al 1.87683 8.69497 1.02642
20 Ni -0.0617234 5.09411 -0.00212249
21 Ni -0.0774257 6.6956 4.86926
22 Ni 0.00971505 9.5721 2.40767
23 Ni 1.90254 6.23973 1.44465
24 Ni 1.8428 8.06239 3.59137
25 Al -0.111305 6.25236 7.51401
26 Al 1.90031 4.65578 8.96125
27 Al 1.83413 7.92425 6.07953
28 Ni -0.0484467 4.20784 5.02344
29 Ni 0.00948577 5.9844 9.99189
30 Ni -0.110117 8.87887 7.41335
31 Ni 1.73392 5.31873 6.42059
32 Ni 1.81443 7.25627 8.55616
33 Al -0.206027 12.1634 2.48895
34 Al 1.78753 10.5646 3.91671
35 Al 1.72826 13.7182 1.05424
36 Ni -0.0865454 10.0332 -0.0496848
37 Ni -0.131405 11.8918 5.05571
38 Ni -0.176868 14.6944 2.38733
39 Ni 1.75641 11.116 1.41225
40 Ni 1.70518 13.113 3.522
41 Al -0.0836859 11.3143 7.47037
42 Al 1.85327 9.75734 8.85415
43 Al 1.77403 13.0169 6.0144
44 Ni -0.167362 9.15777 4.86324
45 Ni -0.07687 11.0634 9.8835
46 Ni -0.138287 13.8768 7.40151
47 Ni 1.78106 10.3032 6.33262
48 Ni 1.75607 12.3529 8.4705
49 Al 3.7336 2.05781 2.61823
50 Al 5.69889 0.425564 3.85636
51 Al 5.64271 3.70322 1.1557
52 Ni 3.67545 -0.0562217 -0.115369
53 Ni 3.7217 1.6699 4.99539
54 Ni 3.79526 4.62031 2.46548
55 Ni 5.57805 1.29454 1.30157
56 Ni 5.78812 2.95601 3.58368
57 Al 3.7266 1.28583 7.40514
58 Al 5.6845 -0.320975 8.806
59 Al 5.59473 2.85997 6.0037
60 Ni 3.76298 -0.886469 4.92552
61 Ni 3.76849 0.845238 10.0222
62 Ni 3.69161 3.83671 7.50237
63 Ni 5.64132 0.380454 6.22291
64 Ni 5.72908 2.20391 8.47828
65 Al 3.80007 7.12507 2.64132
66 Al 5.64242 5.45743 3.86924
67 Al 5.64696 8.80584 1.11843
68 Ni 3.81188 5.05882 0.0727
69 Ni 3.68771 6.66686 5.07653
70 Ni 3.68779 9.61489 2.55464
71 Ni 5.70284 6.13948 1.48415
72 Ni 5.72096 8.08559 3.59716
73 Al 3.72388 6.29293 7.54641
74 Al 5.69499 4.61463 8.6834
75 Al 5.64121 7.92667 6.10114
76 Ni 3.76987 4.11243 4.97701
77 Ni 3.96075 5.91708 10.0212
78 Ni 3.66107 8.97099 7.51572
79 Ni 5.74005 5.35804 6.40278
80 Ni 5.71113 7.32854 8.69305
81 Al 3.72127 12.1518 2.44518
82 Al 5.68364 10.6076 3.91813
83 Al 5.65664 13.7321 1.00273
84 Ni 3.73112 10.1111 0.0244489
85 Ni 3.6032 11.736 4.96133
86 Ni 3.58967 14.6971 2.37239
87 Ni 5.5776 11.1859 1.39798
88 Ni 5.6725 13.0802 3.56143
89 Al 3.75882 11.4247 7.42812
90 Al 5.74322 9.69121 8.93083
91 Al 5.66721 13.0189 6.00619
92 Ni 3.64583 9.19632 5.02848
93 Ni 3.80011 10.949 9.89915
94 Ni 3.62449 13.9187 7.41289
95 Ni 5.56888 10.4648 6.3405
96 Ni 5.57827 12.2199 8.53701
97 Al 7.56986 2.0815 2.3457
98 Al 9.61941 0.449757 3.83498
99 Al 9.49095 3.6505 1.13436
100 Ni 7.6149 -0.0574559 0.0463737
101 Ni 7.66898 1.65107 4.89873
102 Ni 7.58083 4.56069 2.50827
103 Ni 9.54654 1.21426 1.40426
104 Ni 9.41887 2.8603 3.64181
105 Al 7.53031 1.3235 7.34006
106 Al 9.51188 -0.338524 8.79891
107 Al 9.4781 2.97106 6.08301
108 Ni 7.6907 -0.790582 4.92631
109 Ni 7.58722 0.902865 9.9123
110 Ni 7.4794 3.82299 7.42168
111 Ni 9.54918 0.404963 6.17837
112 Ni 9.3882 2.17013 8.64698
113 Al 7.5835 7.09 2.5055
114 Al 9.4983 5.41413 3.85827
115 Al 9.50777 8.74043 1.04455
116 Ni 7.48543 4.98707 -0.0101962
117 Ni 7.5391 6.62826 5.04533
118 Ni 7.52556 9.56224 2.55801
119 Ni 9.50442 6.20818 1.17555
120 Ni 9.54476 8.00347 3.53513
121 Al 7.70359 6.28235 7.36593
122 Al 9.50334 4.64256 8.73222
123 Al 9.4673 7.95386 5.97107
124 Ni 7.5639 4.12239 4.88513
125 Ni 7.59646 5.9079 9.93514
126 Ni 7.54332 8.78887 7.43232
127 Ni 9.52039 5.32299 6.22093
128 Ni 9.47696 7.3262 8.46487
129 Al 7.60019 12.0518 2.46595
130 Al 9.48201 10.458 3.86233
131 Al 9.48561 13.756 1.0346
132 Ni 7.52587 9.8825 0.0422616
133 Ni 7.58972 11.787 4.92748
134 Ni 7.50287 14.7211 2.47861
135 Ni 9.61163 11.1296 1.42125
136 Ni 9.46438 13.2701 3.52198
137 Al 7.56424 11.2795 7.47439
138 Al 9.59215 9.76823 8.94652
139 Al 9.36471 13.0482 6.17256
140 Ni 7.58117 9.31545 4.96375
141 Ni 7.62097 10.9089 9.958
142 Ni 7.4128 13.905 7.56583
143 Ni 9.64358 10.3064 6.32253
144 Ni 9.47211 12.3425 8.64144
ITEM: TIMESTEP
11900
ITEM: NUMBER OF ATOMS
144
ITEM: BOX BOUNDS xy xz yz pp pp pp
-1.5619391497322302e-01 1.1454471702276964e+01 -5.2372514805475869e-02
-1.6258890496561347e+00 1.5022629460526771e+01 -4.4409696238239704e-02
1.6640627675224451e-02 9.8860775530648013e+00 -1.6137580123468021e+00
ITEM: ATOMS id element xu yu zu
1 Al -0.22537 2.02267 2.49709
2 Al 1.80252 0.593165 3.88001
3 Al 1.88148 3.65562 0.99717
4 Ni -0.0546947 -0.0813142 -0.0818658
5 Ni -0.158288 1.73321 4.88026
6 Ni -0.18506 4.61034 2.47001
7 Ni 1.84035 1.18844 1.45765
8 Ni 1.81882 3.11324 3.55073
9 Al -0.0656926 1.22552 7.27306
10 Al 1.86242 -0.354749 8.72816
11 Al 1.72217 2.92632 6.03195
12 Ni -0.0625314 -0.772077 5.0049
13 Ni -0.128259 0.88224 9.85689
14 Ni -0.0636619 3.68352 7.47829
15 Ni 1.89052 0.274483 6.27397
16 Ni 1.88803 2.15349 8.44112
17 Al -0.126704 7.02898 2.46176
18 Al 1.76147 5.53753 3.81586
19 Al 1.70983 8.79552 1.14927
20 Ni -0.132165 4.99005 0.0884596
21 Ni -0.184026 6.77972 4.88875
22 Ni -0.286056 9.59228 2.55757
23 Ni 1.80766 6.22677 1.29483
24 Ni 1.73773 8.08358 3.55784
25 Al -0.0209401 6.16694 7.21331
26 Al 1.79098 4.5484 8.73283
27 Al 1.93343 8.0829 6.03666
28 Ni -0.176253 4.24824 4.94132
29 Ni -0.135111 5.83607 9.76273
30 Ni -0.098222 8.69818 7.46504
31 Ni 2.0191 5.38244 6.18066
32 Ni 1.76358 7.29319 8.50147
33 Al -0.0676269 12.0202 2.62673
34 Al 1.92094 10.5132 3.93767
35 Al 1.73642 13.8296 1.21601
36 Ni -0.141608 10.0184 0.113089
37 Ni -0.0725945 11.6711 4.97805
38 Ni -0.15664 14.6009 2.51305
39 Ni 1.82901 11.2752 1.40472
40 Ni 1.83313 13.1267 3.691
41 Al -0.179593 11.2038 7.49683
42 Al 1.77585 9.69765 8.84335
43 Al 1.76889 12.9429 6.11633
44 Ni -0.0957032 9.27741 5.09816
45 Ni -0.2398 10.8122 10.0918
46 Ni -0.145887 13.8145 7.42172
47 Ni 1.78079 10.4817 6.42612
48 Ni 1.71793 12.1889 8.59347
49 Al 3.74225 2.08756 2.43201
50 Al 5.67994 0.499696 3.92096
51 Al 5.61998 3.77421 1.06695
52 Ni 3.84291 -0.00251714 -0.0019583
53 Ni 3.78162 1.69795 4.8786
54 Ni 3.76057 4.68822 2.46692
55 Ni 5.68555 0.964854 1.40103
56 Ni 5.56639 3.12571 3.53028
57 Al 3.72502 1.18778 7.24954
58 Al 5.6419 -0.312021 8.81707
59 Al 5.57714 2.8631 6.01208
60 Ni 3.83388 -0.77375 4.91992
61 Ni 3.69952 0.926624 9.75963
62 Ni 3.84574 3.74721 7.32777
63 Ni 5.61429 0.260439 6.39227
64 Ni 5.59256 2.235 8.48213
65 Al 3.67702 7.18189 2.47742
66 Al 5.72049 5.48842 3.7527
67 Al 5.59683 8.84887 1.05249
68 Ni 3.64724 4.96626 -0.0674776
69 Ni 3.78562 6.79697 4.85425
70 Ni 3.78859 9.71266 2.60122
71 Ni 5.51651 6.20758 1.31751
72 Ni 5.61167 8.10381 3.6289
73 Al 3.6925 6.34767 7.46339
74 Al 5.53946 4.67621 8.63964
75 Al 5.69499 7.89314 6.102
76 Ni 3.74661 4.23556 4.90037
77 Ni 3.53405 5.88197 9.83602
78 Ni 3.67328 8.78862 7.50485
79 Ni 5.52362 5.43383 6.25457
80 Ni 5.55886 7.25455 8.51062
81 Al 3.77463 12.1255 2.51204
82 Al 5.76107 10.5412 3.98376
83 Al 5.70452 13.4767 1.04514
84 Ni 3.72855 10.0241 0.0867767
85 Ni 3.78066 11.7552 4.99923
86 Ni 3.75733 14.6448 2.49897
87 Ni 5.6813 11.1413 1.48081
88 Ni 5.64205 13.0708 3.64875
89 Al 3.75002 11.3346 7.56512
90 Al 5.61131 9.61371 8.97673
91 Al 5.65636 12.8284 6.08911
92 Ni 3.74103 9.19623 5.04238
93 Ni 3.55612 10.9327 10.0216
94 Ni 3.71656 13.7752 7.37884
95 Ni 5.53909 10.3734 6.42374
96 Ni 5.62744 12.2221 8.57676
97 Al 7.55454 2.07931 2.58347
98 Al 9.46717 0.35845 4.02187
99 Al 9.42083 3.6108 1.00896
100 Ni 7.58606 -0.0330136 -0.0100658
101 Ni 7.44278 1.74946 5.0031
102 Ni 7.4322 4.56741 2.41456
103 Ni 9.3814 1.12441 1.35758
104 Ni 9.51103 3.21843 3.49209
105 Al 7.58045 1.21809 7.52315
106 Al 9.46428 -0.445095 8.81695
107 Al 9.478 2.88981 6.0044
108 Ni 7.49028 -0.770611 4.98977
109 Ni 7.48978 0.853971 9.94341
110 Ni 7.61418 3.77371 7.37575
111 Ni 9.53813 0.228356 6.46064
112 Ni 9.60085 2.24242 8.44325
113 Al 7.42282 7.19913 2.41852
114 Al 9.36522 5.61838 3.94132
115 Al 9.47963 8.67902 1.07608
116 Ni 7.55094 5.02801 -0.114904
117 Ni 7.54367 6.88643 4.92209
118 Ni 7.69447 9.62087 2.52062
119 Ni 9.43904 6.16784 1.48838
120 Ni 9.46328 8.16212 3.59646
121 Al 7.48981 6.22263 7.40273
122 Al 9.52688 4.63148 8.87668
123 Al 9.46373 7.95329 6.10162
124 Ni 7.52923 4.37885 4.97351
125 Ni 7.50547 5.93607 9.89174
126 Ni 7.52019 8.76146 7.49073
127 Ni 9.35609 5.43379 6.38975
128 Ni 9.52653 7.12137 8.54812
129 Al 7.59129 12.06 2.66438
130 Al 9.40899 10.4261 3.99256
131 Al 9.51769 13.6826 1.08604
132 Ni 7.57826 10.0375 0.045769
133 Ni 7.50461 11.6854 5.126
134 Ni 7.51326 14.5471 2.55858
135 Ni 9.40477 11.1796 1.43181
136 Ni 9.5191 12.9599 3.68991
137 Al 7.44537 11.1694 7.62102
138 Al 9.57764 9.58938 8.83322
139 Al 9.51188 12.863 6.09245
140 Ni 7.55758 9.29775 5.11258
141 Ni 7.50815 10.9256 9.93598
142 Ni 7.6144 13.6434 7.20487
143 Ni 9.37778 10.3996 6.43239
144 Ni 9.38956 12.0695 8.56147
ITEM: TIMESTEP
12000
ITEM: NUMBER OF ATOMS
144
ITEM: BOX BOUNDS xy xz yz pp pp pp
-1.4355836556348509e-01 1.1629111052788737e+01 1.6817510623831602e-01
-1.6277682755474872e+00 1.4996998370714220e+01 -7.7682417360534134e-02
-6.2516585570246974e-03 9.9089698392970522e+00 -1.6412683280507010e+00
ITEM: ATOMS id element xu yu zu
1 Al -0.0647211 2.11648 2.39443
2 Al 1.76096 0.508976 3.85225
3 Al 1.91347 3.83948 0.773905
4 Ni -0.14896 -0.0446438 0.2444
5 Ni -0.0219143 1.66521 4.77624
6 Ni 0.00315964 4.6448 2.39308
7 Ni 1.91542 1.10047 1.34232
8 Ni 1.80048 3.01837 3.41944
9 Al -0.110511 1.12033 7.16828
10 Al 1.7582 -0.309547 8.8284
11 Al 1.7757 2.83857 5.96306
12 Ni -0.120586 -0.801655 5.07696
13 Ni -0.111594 0.789519 9.70086
14 Ni -0.119791 3.807 7.3121
15 Ni 1.95843 0.357759 6.32678
16 Ni 1.72176 2.2021 8.42736
17 Al -0.0739994 7.22616 2.45789
18 Al 1.84535 5.54693 3.82603
19 Al 1.85447 8.66365 1.12267
20 Ni -0.0430817 4.93327 -0.248587
21 Ni -0.0282372 6.62542 4.9462
22 Ni 0.0350913 9.76455 2.61522
23 Ni 1.81313 6.18791 1.30914
24 Ni 1.89933 8.04688 3.60525
25 Al -0.0627347 6.3308 7.44505
26 Al 1.77375 4.62347 8.79452
27 Al 1.90809 7.90969 6.09657
28 Ni 0.0177965 4.17495 4.7851
29 Ni -0.176118 5.82587 9.92344
30 Ni -0.106138 8.79325 7.58208
31 Ni 1.65925 5.336 6.30451
32 Ni 1.88128 7.05149 8.55923
33 Al 0.0716929 12.1657 2.45317
34 Al 1.9394 10.5202 3.95324
35 Al 1.97544 13.6413 1.22614
36 Ni -0.0111439 9.96062 0.107462
37 Ni 0.0184534 11.6987 5.09196
38 Ni 0.0730519 14.6675 2.6671
39 Ni 1.96255 11.1383 1.5548
40 Ni 1.90228 12.9452 3.63553
41 Al 0.140815 11.1681 7.45433
42 Al 1.94057 9.54943 8.96557
43 Al 1.9836 12.9426 6.18093
44 Ni -0.0535564 9.21087 5.05984
45 Ni 0.0431131 10.8362 9.84079
46 Ni 0.0593756 13.6289 7.59758
47 Ni 1.92999 10.1078 6.31889
48 Ni 2.015 12.1566 8.71074
49 Al 3.78601 2.15034 2.39208
50 Al 5.7087 0.527381 3.84573
51 Al 5.74753 3.84226 1.08884
52 Ni 3.75477 0.0239637 0.149732
53 Ni 3.81322 1.72214 4.84599
54 Ni 3.67735 4.59634 2.29826
55 Ni 5.73306 1.40246 1.4011
56 Ni 5.68557 3.07846 3.55724
57 Al 3.76552 1.21601 7.40741
58 Al 5.5486 -0.321601 8.87518
59 Al 5.54312 2.90909 6.04542
60 Ni 3.6695 -0.711162 5.05401
61 Ni 3.7222 0.849874 9.86842
62 Ni 3.6126 3.86812 7.33559
63 Ni 5.79258 0.558566 6.23002
64 Ni 5.7401 2.19192 8.54373
65 Al 3.81297 7.02792 2.44664
66 Al 5.73739 5.37548 3.78735
67 Al 5.76194 8.84419 1.04993
68 Ni 3.84506 4.96621 -0.192637
69 Ni 3.64259 6.73704 4.94444
70 Ni 3.7442 9.58284 2.39575
71 Ni 5.81074 6.13799 1.37694
72 Ni 5.67494 7.98947 3.50712
73 Al 3.79031 6.28139 7.37207
74 Al 5.59038 4.63013 8.69074
75 Al 5.77297 7.83882 5.93477
76 Ni 3.71867 4.29953 4.76692
77 Ni 3.8331 5.87795 9.78375
78 Ni 3.79578 8.68905 7.43599
79 Ni 5.7132 5.38114 6.33277
80 Ni 5.7096 7.14225 8.52748
81 Al 3.86955 12.0917 2.58936
82 Al 5.72639 10.5504 4.01332
83 Al 5.83935 13.7405 1.16971
84 Ni 3.88524 9.97283 0.00543835
85 Ni 3.82808 11.6834 5.14831
86 Ni 3.87796 14.6243 2.62242
87 Ni 5.72415 11.203 1.43012
88 Ni 5.74624 13.08 3.76294
89 Al 3.83824 11.224 7.53264
90 Al 5.83071 9.55972 8.8837
91 Al 5.83675 12.9599 6.17135
92 Ni 3.75053 9.22181 4.88694
93 Ni 4.01461 10.8197 10.0431
94 Ni 3.87322 13.7627 7.60172
95 Ni 5.87631 10.3617 6.42765
96 Ni 5.83624 12.1814 8.68214
97 Al 7.61197 2.2356 2.50308
98 Al 9.49584 0.564169 3.82985
99 Al 9.61803 3.65957 1.03338
100 Ni 7.63472 -0.0458451 0.0732011
101 Ni 7.71484 1.72606 4.98318
102 Ni 7.73251 4.69576 2.47535
103 Ni 9.55858 1.26165 1.37112
104 Ni 9.58478 2.97301 3.55683
105 Al 7.66855 1.29707 7.50769
106 Al 9.45045 -0.323274 8.9448
107 Al 9.63318 2.84353 6.06877
108 Ni 7.66712 -0.801797 4.98828
109 Ni 7.62846 0.82976 9.94383
110 Ni 7.60904 3.73766 7.38082
111 Ni 9.40816 0.45428 6.14483
112 Ni 9.51269 2.13875 8.48327
113 Al 7.6229 7.10545 2.4956
114 Al 9.62563 5.43673 3.82093
115 Al 9.43883 8.74562 1.14021
116 Ni 7.71633 4.91259 0.0564058
117 Ni 7.58457 6.63992 4.9446
118 Ni 7.54175 9.65266 2.54269
119 Ni 9.60304 6.1966 1.24462
120 Ni 9.50719 7.98769 3.61792
121 Al 7.58853 6.14486 7.39286
122 Al 9.59382 4.58372 8.74738
123 Al 9.53697 7.86898 6.0755
124 Ni 7.64638 4.15723 4.82633
125 Ni 7.6372 5.72894 9.88783
126 Ni 7.6009 8.78296 7.43526
127 Ni 9.60323 5.33211 6.22833
128 Ni 9.53812 7.19049 8.58036
129 Al 7.66562 12.1453 2.60313
130 Al 9.5294 10.4499 3.91504
131 Al 9.68818 13.6577 1.05586
132 Ni 7.61845 9.96671 0.0954646
133 Ni 7.725 11.7591 4.9784
134 Ni 7.73012 14.7115 2.41236
135 Ni 9.58775 11.1504 1.54593
136 Ni 9.63142 13.1998 3.65296
137 Al 7.8091 11.3935 7.64206
138 Al 9.59443 9.66868 8.92987
139 Al 9.65878 12.9482 6.16125
140 Ni 7.55787 9.12067 4.87669
141 Ni 7.5749 10.8353 10.0982
142 Ni 7.69241 13.9012 7.61618
143 Ni 9.68239 10.3057 6.50414
144 Ni 9.70803 12.291 8.6085
ITEM: TIMESTEP
12100
ITEM: NUMBER OF ATOMS
144
ITEM: BOX BOUNDS xy xz yz pp pp pp
-6.6733141253602746e-02 1.1580637016585843e+01 1.1447568273631589e-01
-1.7178820497524188e+00 1.5072044798258412e+01 4.3681942484562830e-03
6.5170141774588686e-03 9.8962011665625766e+00 -1.6563356747114473e+00
ITEM: ATOMS id element xu yu zu
1 Al -0.0467391 2.04003 2.51647
2 Al 1.74959 0.467552 3.90498
3 Al 1.99334 3.82845 0.943544
4 Ni 0.0516343 0.00307491 -0.0249623
5 Ni -0.129455 1.59548 5.03417
6 Ni -0.0319264 4.59099 2.48722
7 Ni 1.82831 1.07766 1.41952
8 Ni 1.93266 2.97606 3.53719
9 Al -0.0437822 1.34508 7.43937
10 Al 1.88369 -0.344307 8.94754
11 Al 1.81716 2.82973 5.99565
12 Ni -0.0671304 -0.912776 5.02907
13 Ni -0.0620157 0.859242 9.96116
14 Ni -0.0465279 3.75367 7.25937
15 Ni 1.8001 0.263981 6.3729
16 Ni 1.9286 2.23785 8.47503
17 Al -0.01694 7.03273 2.40664
18 Al 1.90789 5.50003 3.91738
19 Al 2.00776 8.75757 1.15117
20 Ni -0.00880226 5.14522 0.00559024
21 Ni -0.147041 6.60644 5.02845
22 Ni 0.0225365 9.46588 2.50076
23 Ni 1.94864 6.11183 1.36812
24 Ni 1.88101 8.02859 3.61573
25 Al 0.00276735 6.20117 7.45056
26 Al 1.92642 4.64846 8.72675
27 Al 1.95747 7.9721 6.01704
28 Ni -0.143682 4.23357 4.89194
29 Ni 0.0962507 5.95244 9.91462
30 Ni -0.0413092 8.84358 7.42315
31 Ni 1.89287 5.32939 6.31244
32 Ni 1.80227 7.29103 8.48726
33 Al 0.159914 12.0509 2.49652
34 Al 1.89918 10.4215 3.95306
35 Al 1.95127 13.8212 1.16975
36 Ni 0.0105092 10.0775 0.0139276
37 Ni -0.00593272 11.7055 4.99547
38 Ni 0.0834962 14.5843 2.51384
39 Ni 1.92567 11.1847 1.30295
40 Ni 1.95724 13.164 3.76874
41 Al -0.0612904 11.3195 7.46331
42 Al 1.82707 9.74669 8.78106
43 Al 1.93065 12.9852 6.16222
44 Ni 0.00390963 9.16288 4.96596
45 Ni -0.000654047 10.9655 10.1102
46 Ni 0.151439 14.0002 7.44052
47 Ni 1.93799 10.5198 6.42506
48 Ni 1.8967 12.2675 8.52336
49 Al 3.84992 2.01177 2.39989
50 Al 5.52407 0.3479 3.93947
51 Al 5.79124 3.70922 0.969637
52 Ni 3.79752 -0.0227137 0.00347016
53 Ni 3.77941 1.62949 5.07732
54 Ni 3.90204 4.54032 2.48981
55 Ni 5.73646 0.999186 1.41533
56 Ni 5.77209 3.0169 3.51679
57 Al 3.70605 1.06034 7.42933
58 Al 5.64478 -0.395087 8.75039
59 Al 5.71868 2.77682 6.02192
60 Ni 3.8114 -0.975179 5.06729
61 Ni 3.86248 0.798698 9.92964
62 Ni 3.95089 3.68147 7.41659
63 Ni 5.53847 0.123927 6.42183
64 Ni 5.7002 2.13837 8.43614
65 Al 3.85258 7.08343 2.63774
66 Al 5.75784 5.39587 3.74503
67 Al 5.74387 8.84419 1.11423
68 Ni 3.77085 5.00946 0.076352
69 Ni 3.88922 6.58852 5.02961
70 Ni 3.88449 9.59837 2.55261
71 Ni 5.6829 6.14569 1.29934
72 Ni 5.81022 8.0217 3.62801
73 Al 3.82091 6.30544 7.52445
74 Al 5.66376 4.66755 8.80308
75 Al 5.85168 7.94054 6.00403
76 Ni 3.88454 4.08396 4.95752
77 Ni 3.79171 5.79845 9.98957
78 Ni 3.75753 8.78076 7.40549
79 Ni 5.76491 5.38545 6.22996
80 Ni 5.74982 7.18286 8.47867
81 Al 3.75826 12.057 2.49143
82 Al 5.81541 10.4861 3.90957
83 Al 5.84195 13.6306 1.11109
84 Ni 3.83926 10.0032 -0.00221616
85 Ni 3.89174 11.6608 4.98855
86 Ni 3.84294 14.6207 2.50809
87 Ni 5.78486 11.1303 1.44544
88 Ni 5.80207 12.9778 3.64244
89 Al 3.77084 11.3892 7.46992
90 Al 5.77888 9.68372 8.90375
91 Al 5.84391 12.776 6.0654
92 Ni 3.80652 9.23568 5.06843
93 Ni 3.6673 10.9033 9.95711
94 Ni 3.90876 13.798 7.44585
95 Ni 5.70526 10.4037 6.31272
96 Ni 5.63316 12.206 8.64964
97 Al 7.60961 2.07097 2.34051
98 Al 9.59524 0.405383 3.97509
99 Al 9.50709 3.71345 0.957782
100 Ni 7.63045 -0.0629097 0.032884
101 Ni 7.554 1.55436 4.75147
102 Ni 7.54632 4.61865 2.39633
103 Ni 9.47694 1.08158 1.30166
104 Ni 9.5467 2.98399 3.40797
105 Al 7.6299 1.21888 7.33332
106 Al 9.52956 -0.404367 8.90856
107 Al 9.50675 2.75828 5.95474
108 Ni 7.4765 -0.952306 5.0101
109 Ni 7.59017 0.851426 9.7404
110 Ni 7.65279 3.88193 7.31276
111 Ni 9.55999 0.191683 6.43257
112 Ni 9.57834 2.2203 8.40369
113 Al 7.65665 7.0919 2.47943
114 Al 9.57572 5.39486 3.75341
115 Al 9.50739 8.76469 1.11792
116 Ni 7.57239 5.02088 -0.0965543
117 Ni 7.71479 6.65486 4.84146
118 Ni 7.76527 9.67689 2.53838
119 Ni 9.52859 6.23082 1.36055
120 Ni 9.6578 8.04644 3.57157
121 Al 7.59992 6.27019 7.23332
122 Al 9.6351 4.67352 8.85211
123 Al 9.65532 7.92485 6.09959
124 Ni 7.61893 4.16611 4.84963
125 Ni 7.64768 5.99441 9.78389
126 Ni 7.72468 8.80867 7.53386
127 Ni 9.57373 5.33494 6.24463
128 Ni 9.54458 7.30313 8.57071
129 Al 7.72693 12.1143 2.59306
130 Al 9.61017 10.545 3.77328
131 Al 9.67504 13.8204 1.18873
132 Ni 7.67058 10.0004 0.0175413
133 Ni 7.59197 11.6631 5.06657
134 Ni 7.77948 14.7106 2.69186
135 Ni 9.58165 11.2972 1.4216
136 Ni 9.6139 12.9949 3.71
137 Al 7.66216 11.3752 7.59256
138 Al 9.69894 9.68384 8.77685
139 Al 9.59132 12.9698 6.11311
140 Ni 7.73264 9.15753 5.05821
141 Ni 7.69074 10.9235 9.95678
142 Ni 7.73556 13.7844 7.45671
143 Ni 9.55396 10.4595 6.36061
144 Ni 9.52266 12.1335 8.74267
ITEM: TIMESTEP
12200
ITEM: NUMBER OF ATOMS
144
ITEM: BOX BOUNDS xy xz yz pp pp pp
-1.8993807417862826e-01 1.1489176459288668e+01 -1.5301347235450977e-01
-1.5642599962692774e+00 1.4982958461777123e+01 5.7191859117087906e-02
-1.2063185417687805e-04 9.9028388125942186e+00 -1.5917999577095860e+00
ITEM: ATOMS id element xu yu zu
1 Al 0.00510788 2.08452 2.66898
2 Al 1.69462 0.377278 3.82151
3 Al 1.92104 3.81591 1.22069
4 Ni -0.242183 0.158862 0.0352989
5 Ni -0.0094042 1.71217 5.05287
6 Ni -0.198825 4.46757 2.4378
7 Ni 1.85145 1.20486 1.44196
8 Ni 1.82443 2.97725 3.82647
9 Al -0.0491703 1.47114 7.49464
10 Al 1.76218 -0.208391 8.95387
11 Al 1.8418 2.89757 6.21374
12 Ni -0.0358909 -0.742117 4.91175
13 Ni -0.0225139 0.961008 10.1055
14 Ni -0.0413992 3.88955 7.60454
15 Ni 1.86409 0.497991 6.3573
16 Ni 1.87693 2.22143 8.74166
17 Al -0.0702366 7.08997 2.35247
18 Al 1.82599 5.49626 3.85189
19 Al 1.77024 8.76489 1.07935
20 Ni -0.105807 4.97865 0.107036
21 Ni 0.0380802 6.78229 4.79757
22 Ni -0.195682 9.62791 2.41157
23 Ni 1.89526 6.19164 1.34756
24 Ni 1.81776 7.97204 3.55198
25 Al 0.0600889 6.23748 7.32709
26 Al 1.90218 4.75548 8.86717
27 Al 1.93433 7.88469 6.07535
28 Ni 0.0306 4.18599 5.07388
29 Ni -0.117435 5.88195 9.80107
30 Ni -0.0567697 8.77566 7.3699
31 Ni 1.96821 5.41122 6.30155
32 Ni 1.943 7.31772 8.61009
33 Al -0.227393 12.0915 2.36941
34 Al 1.72768 10.3611 3.83096
35 Al 1.69099 13.7216 1.08441
36 Ni -0.120044 10.107 -0.0732624
37 Ni -0.158966 11.712 5.01563
38 Ni -0.20946 14.5241 2.40131
39 Ni 1.68803 11.2127 1.44166
40 Ni 1.71868 12.9309 3.37626
41 Al -0.0810724 11.248 7.45862
42 Al 1.76216 9.79555 8.86106
43 Al 1.70327 12.9925 6.00725
44 Ni -0.0911166 9.19503 4.833
45 Ni -0.169875 10.9698 9.87505
46 Ni -0.261497 13.7251 7.3688
47 Ni 1.72431 10.2551 6.26606
48 Ni 1.8143 12.311 8.59206
49 Al 3.67674 2.09867 2.55156
50 Al 5.6287 0.485626 3.89515
51 Al 5.65959 3.72673 1.07852
52 Ni 3.6512 -0.00841746 0.0553963
53 Ni 3.7914 1.6961 4.96737
54 Ni 3.73002 4.66107 2.45605
55 Ni 5.48114 1.22514 1.42085
56 Ni 5.6404 3.00062 3.58962
57 Al 3.79785 1.38783 7.41038
58 Al 5.55066 -0.205557 8.69868
59 Al 5.63284 3.01594 6.03911
60 Ni 3.74914 -0.786605 4.88446
61 Ni 3.69724 0.938346 9.94516
62 Ni 3.69101 3.93541 7.39401
63 Ni 5.72219 0.475502 6.24944
64 Ni 5.79951 2.33671 8.59389
65 Al 3.75037 7.18721 2.4699
66 Al 5.66083 5.45553 3.82194
67 Al 5.68209 8.81653 1.17398
68 Ni 3.7692 5.04793 -0.0810047
69 Ni 3.69446 6.71588 4.92184
70 Ni 3.72317 9.58878 2.46957
71 Ni 5.63126 6.17701 1.43518
72 Ni 5.61399 8.03071 3.61298
73 Al 3.79596 6.33476 7.493
74 Al 5.65743 4.74483 8.9277
75 Al 5.6138 7.91741 6.08504
76 Ni 3.7627 4.22642 4.98131
77 Ni 3.79772 6.00423 9.84567
78 Ni 3.69987 8.81489 7.56214
79 Ni 5.67099 5.31412 6.4368
80 Ni 5.64336 7.34108 8.65805
81 Al 3.66144 12.0062 2.36561
82 Al 5.57132 10.546 3.95212
83 Al 5.51661 13.6808 1.00321
84 Ni 3.64052 10.09 0.167419
85 Ni 3.61799 11.6841 4.92618
86 Ni 3.5988 14.5417 2.46276
87 Ni 5.59468 11.1783 1.43305
88 Ni 5.55967 13.0126 3.63316
89 Al 3.60016 11.3707 7.3254
90 Al 5.68171 9.76874 8.91949
91 Al 5.59676 12.7924 5.96833
92 Ni 3.73815 9.0682 4.91112
93 Ni 3.77415 10.945 9.84031
94 Ni 3.57714 13.8298 7.42138
95 Ni 5.6169 10.3034 6.42474
96 Ni 5.68963 12.2513 8.45882
97 Al 7.53557 1.99506 2.41747
98 Al 9.46812 0.525829 3.84138
99 Al 9.45343 3.70134 1.09229
100 Ni 7.55773 0.0697924 0.0983724
101 Ni 7.6393 1.71512 4.96952
102 Ni 7.56307 4.53636 2.41229
103 Ni 9.50474 1.21669 1.3938
104 Ni 9.36753 3.04603 3.62128
105 Al 7.6065 1.29669 7.34613
106 Al 9.46798 -0.0604403 8.91867
107 Al 9.58388 2.96638 6.09481
108 Ni 7.71133 -0.80382 5.0365
109 Ni 7.60485 0.948663 9.94409
110 Ni 7.53212 3.73528 7.41678
111 Ni 9.61079 0.520044 6.25708
112 Ni 9.33487 2.31942 8.52989
113 Al 7.57718 6.96233 2.59539
114 Al 9.53622 5.42393 3.8874
115 Al 9.41781 8.69583 1.05101
116 Ni 7.56052 5.01815 -0.0112976
117 Ni 7.52808 6.73419 5.05729
118 Ni 7.55924 9.52508 2.4458
119 Ni 9.53133 6.1483 1.34353
120 Ni 9.43415 7.93848 3.48248
121 Al 7.51367 6.36601 7.40701
122 Al 9.45425 4.7541 8.8223
123 Al 9.55286 7.92294 5.96373
124 Ni 7.5427 4.23561 4.94867
125 Ni 7.62742 5.96637 10.0165
126 Ni 7.50361 8.79131 7.44841
127 Ni 9.43295 5.46934 6.37724
128 Ni 9.61721 7.27164 8.47137
129 Al 7.51632 11.9529 2.50805
130 Al 9.40852 10.4729 3.81502
131 Al 9.35045 13.6773 1.00618
132 Ni 7.54324 10.0163 0.0888868
133 Ni 7.6088 11.6758 4.92722
134 Ni 7.31339 14.4114 2.483
135 Ni 9.40355 11.0843 1.44614
136 Ni 9.3439 12.9163 3.60679
137 Al 7.59468 11.327 7.42046
138 Al 9.37614 9.66917 8.79629
139 Al 9.39433 12.9358 5.97109
140 Ni 7.47106 9.26763 4.97586
141 Ni 7.49616 10.9583 9.90667
142 Ni 7.40957 13.7245 7.462
143 Ni 9.5063 10.2892 6.44195
144 Ni 9.35894 12.356 8.45699
ITEM: TIMESTEP
12300
ITEM: NUMBER OF ATOMS
144
ITEM: BOX BOUNDS xy xz yz pp pp pp
-1.6720223621237107e-01 1.1494555058838081e+01 -1.0271341178996087e-01
-1.5878005093234311e+00 1.5066824424565475e+01 3.5006236068201926e-02
-2.1712545159262575e-03 9.9048894352559742e+00 -1.5314745079753944e+00
ITEM: ATOMS id element xu yu zu
1 Al -0.0993903 1.99667 2.52142
2 Al 1.688 0.477152 3.87956
3 Al 1.78739 3.66836 1.20885
4 Ni 0.0898237 -0.173107 -0.0658759
5 Ni -0.149848 1.69139 5.0388
6 Ni -0.0522336 4.73485 2.68308
7 Ni 1.79977 1.07604 1.34454
8 Ni 1.71859 3.01624 3.52885
9 Al -0.0686915 1.36549 7.32494
10 Al 1.92802 -0.257207 8.9385
11 Al 1.82996 2.9258 6.02317
12 Ni -0.0560569 -0.859508 4.92488
13 Ni -0.110648 0.851151 9.8907
14 Ni -0.158725 3.86036 7.43534
15 Ni 1.87479 0.318186 6.36993
16 Ni 1.78236 2.37044 8.50442
17 Al -0.145319 7.11685 2.53248
18 Al 1.83831 5.59366 3.97469
19 Al 1.89093 8.73397 1.00431
20 Ni -0.120936 5.01554 0.0846666
21 Ni -0.175686 6.71102 5.026
22 Ni -0.0787335 9.61992 2.53005
23 Ni 1.71439 6.19362 1.38161
24 Ni 1.82905 8.16288 3.57208
25 Al -0.181488 6.32367 7.48401
26 Al 1.90082 4.75491 8.80759
27 Al 1.82977 7.96615 5.96355
28 Ni -0.178003 4.11224 5.04327
29 Ni 0.00224481 5.96579 9.92928
30 Ni -0.119166 8.97067 7.422
31 Ni 1.69871 5.45536 6.32334
32 Ni 1.76982 7.25153 8.40377
33 Al -0.239797 12.127 2.31367
34 Al 1.68326 10.5481 3.8305
35 Al 1.76818 13.7723 1.06865
36 Ni -0.152543 9.89931 0.0637467
37 Ni -0.234522 11.7582 4.79865
38 Ni -0.170339 14.6934 2.48877
39 Ni 1.80723 11.1874 1.27151
40 Ni 1.71388 13.2094 3.68218
41 Al -0.1569 11.3846 7.22718
42 Al 1.75209 9.69906 8.77708
43 Al 1.8045 12.929 6.05303
44 Ni -0.0834449 9.26259 5.05277
45 Ni -0.0454955 10.9318 9.83301
46 Ni -0.0452775 13.9676 7.39206
47 Ni 1.86716 10.5141 6.38465
48 Ni 1.73237 12.2562 8.36351
49 Al 3.71287 1.99605 2.56509
50 Al 5.59792 0.45906 3.92375
51 Al 5.70127 3.71449 1.16912
52 Ni 3.83477 0.00297909 -0.0727037
53 Ni 3.6767 1.67261 5.09964
54 Ni 3.71869 4.56474 2.59568
55 Ni 5.725 1.20884 1.4511
56 Ni 5.69029 3.0215 3.69166
57 Al 3.70099 1.33095 7.42314
58 Al 5.7422 -0.240382 8.71295
59 Al 5.70302 3.06111 6.11139
60 Ni 3.79886 -0.784565 4.90575
61 Ni 3.75232 1.01937 10.0287
62 Ni 3.87094 3.81241 7.533
63 Ni 5.64484 0.41862 6.45996
64 Ni 5.61278 2.22409 8.60198
65 Al 3.72536 7.11556 2.4736
66 Al 5.72028 5.54435 3.81097
67 Al 5.61929 8.75737 1.15011
68 Ni 3.68033 4.97522 0.152263
69 Ni 3.73243 6.73991 4.9302
70 Ni 3.65023 9.67887 2.50036
71 Ni 5.67465 6.1454 1.43557
72 Ni 5.64786 7.99015 3.57427
73 Al 3.65641 6.3406 7.41529
74 Al 5.61393 4.64901 8.93941
75 Al 5.67978 8.04696 6.04582
76 Ni 3.74171 4.11365 5.01448
77 Ni 3.73108 5.94595 9.93486
78 Ni 3.81049 8.98854 7.39418
79 Ni 5.68555 5.4871 6.35278
80 Ni 5.63348 7.24367 8.46948
81 Al 3.61949 12.1554 2.42305
82 Al 5.61084 10.4816 3.74611
83 Al 5.6064 13.8726 1.09432
84 Ni 3.76794 9.96451 -0.150439
85 Ni 3.79759 11.8294 4.90946
86 Ni 3.63021 14.7805 2.39816
87 Ni 5.50496 11.1999 1.21826
88 Ni 5.5687 13.0986 3.47129
89 Al 3.76685 11.5161 7.44011
90 Al 5.65528 9.87836 8.71169
91 Al 5.60608 13.0432 6.00724
92 Ni 3.6988 9.30589 4.97546
93 Ni 3.7066 11.0691 9.93332
94 Ni 3.72559 13.9499 7.4488
95 Ni 5.63951 10.6029 6.17581
96 Ni 5.63572 12.3721 8.53426
97 Al 7.68209 2.12509 2.58991
98 Al 9.47821 0.520617 4.0231
99 Al 9.6095 3.74526 1.29292
100 Ni 7.61975 -0.107045 -0.109274
101 Ni 7.5696 1.7801 5.12363
102 Ni 7.54402 4.51206 2.65363
103 Ni 9.4929 1.08575 1.38506
104 Ni 9.59956 2.95422 3.74853
105 Al 7.60152 1.47424 7.56374
106 Al 9.57875 -0.331522 8.93615
107 Al 9.52376 2.84595 6.17334
108 Ni 7.50601 -0.677817 4.8672
109 Ni 7.60079 1.02845 10.0099
110 Ni 7.63528 3.86767 7.56969
111 Ni 9.44412 0.356829 6.38812
112 Ni 9.63111 2.17882 8.71365
113 Al 7.55992 7.15581 2.55127
114 Al 9.42912 5.45323 3.92573
115 Al 9.41802 8.71112 1.10001
116 Ni 7.53934 4.99185 0.162589
117 Ni 7.58026 6.73492 5.04517
118 Ni 7.50168 9.59044 2.42743
119 Ni 9.37599 6.11338 1.48405
120 Ni 9.49994 8.04371 3.67061
121 Al 7.63906 6.35319 7.36259
122 Al 9.57043 4.72227 8.93704
123 Al 9.55324 7.96333 6.1176
124 Ni 7.62656 4.20343 5.1226
125 Ni 7.52328 5.91304 10.001
126 Ni 7.65166 8.85683 7.33719
127 Ni 9.52771 5.36307 6.42087
128 Ni 9.4809 7.29774 8.59077
129 Al 7.51094 12.1444 2.4461
130 Al 9.34823 10.6291 3.67994
131 Al 9.53382 13.7201 1.00509
132 Ni 7.48124 10.0295 -0.0640705
133 Ni 7.40083 11.8857 4.89644
134 Ni 7.58651 14.851 2.29261
135 Ni 9.39233 11.2022 1.25384
136 Ni 9.42681 13.1826 3.51469
137 Al 7.52824 11.5341 7.47491
138 Al 9.47234 9.73986 8.68739
139 Al 9.37328 13.0197 5.88421
140 Ni 7.58311 9.18445 4.90009
141 Ni 7.53248 10.9986 9.8566
142 Ni 7.57247 14.0369 7.36669
143 Ni 9.44271 10.5143 6.21498
144 Ni 9.55975 12.1805 8.52356
ITEM: TIMESTEP
12400
ITEM: NUMBER OF ATOMS
144
ITEM: BOX BOUNDS xy xz yz pp pp pp
-3.5793998712688804e-02 1.1537229183366398e+01 1.3230537103985210e-01
-1.4745223858860415e+00 1.5014663604677015e+01 -2.5930184733601831e-02
-1.6694211674792570e-02 9.9194123924148343e+00 -1.4703572044264497e+00
ITEM: ATOMS id element xu yu zu
1 Al 0.0534693 2.13069 2.55635
2 Al 1.91562 0.54301 3.85966
3 Al 2.00747 3.68329 1.22348
4 Ni -0.134744 -0.0110499 0.0187232
5 Ni -0.036102 1.78358 4.87832
6 Ni -0.0711503 4.61938 2.42909
7 Ni 1.94328 1.22323 1.38967
8 Ni 2.01669 3.13137 3.74163
9 Al 0.00389498 1.32278 7.40905
10 Al 1.92814 -0.300946 8.88266
11 Al 1.91157 2.90337 6.15577
12 Ni -0.0488452 -0.67968 4.96995
13 Ni 0.0611887 1.00103 9.96546
14 Ni 0.0399131 3.78552 7.58292
15 Ni 1.89299 0.560649 6.32286
16 Ni 1.92468 2.14547 8.58941
17 Al 0.0488121 7.11244 2.69738
18 Al 1.87166 5.56457 4.00455
19 Al 1.9116 8.64662 1.18491
20 Ni -0.0149513 4.94135 0.0424239
21 Ni 0.00475559 6.85416 5.08812
22 Ni 0.0596872 9.73964 2.43479
23 Ni 1.92552 6.17555 1.51705
24 Ni 1.91179 8.08757 3.70086
25 Al -0.0461426 6.3433 7.52815
26 Al 1.80283 4.80328 9.03686
27 Al 1.87139 7.94296 6.06091
28 Ni 0.0282516 4.34891 5.04428
29 Ni -0.140158 6.01366 10.0661
30 Ni 0.0222452 8.82125 7.47952
31 Ni 1.90088 5.38523 6.54102
32 Ni 1.9412 7.3864 8.73437
33 Al 0.00160979 12.1272 2.28781
34 Al 1.9333 10.4987 3.65073
35 Al 1.94636 13.743 1.06298
36 Ni 0.0862878 10.0019 -0.0216975
37 Ni 0.173972 11.8254 4.87177
38 Ni 0.163449 14.6781 2.4831
39 Ni 2.00452 11.2042 1.30819
40 Ni 2.01868 13.1466 3.4205
41 Al 0.0648647 11.3231 7.31121
42 Al 1.87128 9.80549 8.72517
43 Al 1.90327 12.9693 5.99179
44 Ni -0.0246796 9.28454 4.95767
45 Ni 0.0225005 11.0908 9.74128
46 Ni 0.0898964 13.7928 7.48425
47 Ni 1.98352 10.4652 6.2022
48 Ni 2.04126 12.3753 8.57412
49 Al 3.84594 2.0885 2.46683
50 Al 5.67861 0.488314 3.93668
51 Al 5.82811 3.76651 1.20246
52 Ni 3.74301 -0.0688935 0.023948
53 Ni 3.90307 1.93165 4.97304
54 Ni 3.82541 4.73227 2.51532
55 Ni 5.69997 1.11 1.44876
56 Ni 5.68644 3.12228 3.74892
57 Al 3.86934 1.34872 7.45774
58 Al 5.73065 -0.302646 8.79782
59 Al 5.74895 3.04153 6.20837
60 Ni 3.78004 -0.727181 4.99152
61 Ni 3.81399 0.903853 9.9699
62 Ni 3.58456 3.8896 7.63508
63 Ni 5.67334 0.451499 6.32565
64 Ni 5.7467 2.40342 8.74618
65 Al 3.80686 7.20752 2.61586
66 Al 5.73563 5.70212 3.86954
67 Al 5.75146 8.67876 1.00654
68 Ni 3.83268 4.98107 0.0369731
69 Ni 3.76198 6.85428 5.0451
70 Ni 3.90206 9.6278 2.34811
71 Ni 5.64856 6.18689 1.43432
72 Ni 5.72025 8.23773 3.45496
73 Al 3.76625 6.398 7.47771
74 Al 5.66122 4.82176 8.9163
75 Al 5.77162 7.89375 5.99209
76 Ni 3.72174 4.43143 5.13988
77 Ni 3.74022 5.98008 9.90402
78 Ni 3.8308 8.75256 7.225
79 Ni 5.74148 5.40843 6.45982
80 Ni 5.66395 7.37469 8.49308
81 Al 3.96358 12.1199 2.29557
82 Al 5.7055 10.6878 3.82363
83 Al 5.83764 13.7833 1.0049
84 Ni 3.78055 9.9948 -0.0349094
85 Ni 3.86169 11.8428 4.97691
86 Ni 4.00823 14.6389 2.51834
87 Ni 5.86612 11.2203 1.34992
88 Ni 5.85449 13.1806 3.58663
89 Al 3.89833 11.3911 7.35109
90 Al 5.62094 9.82666 8.84902
91 Al 5.81888 12.9136 5.9462
92 Ni 3.8692 9.36212 4.8139
93 Ni 3.8865 10.961 9.75172
94 Ni 3.90664 13.8923 7.39779
95 Ni 5.70721 10.3526 6.27424
96 Ni 5.71222 12.3377 8.42036
97 Al 7.60466 2.12663 2.54864
98 Al 9.55945 0.545496 3.83945
99 Al 9.47901 3.82184 1.14923
100 Ni 7.6359 -0.080835 0.0310147
101 Ni 7.68221 1.71145 4.9664
102 Ni 7.62766 4.82942 2.57466
103 Ni 9.53632 1.19791 1.37297
104 Ni 9.49175 3.26036 3.60879
105 Al 7.56915 1.37184 7.58421
106 Al 9.49001 -0.200195 8.87045
107 Al 9.57555 3.00052 5.99135
108 Ni 7.71159 -0.849644 4.97454
109 Ni 7.65857 0.811735 10.0401
110 Ni 7.57163 3.94845 7.48178
111 Ni 9.49289 0.49286 6.31286
112 Ni 9.51142 2.35974 8.52784
113 Al 7.62894 7.33011 2.38401
114 Al 9.49145 5.65717 3.91118
115 Al 9.56364 8.88306 1.12917
116 Ni 7.62382 4.96096 0.100395
117 Ni 7.60516 6.82098 4.90387
118 Ni 7.64341 9.79825 2.45292
119 Ni 9.63783 6.27507 1.47123
120 Ni 9.48455 8.15908 3.53269
121 Al 7.66954 6.47685 7.36304
122 Al 9.54423 4.73957 8.87705
123 Al 9.45966 8.0556 6.07613
124 Ni 7.5369 4.27964 5.00081
125 Ni 7.66391 5.99407 9.96835
126 Ni 7.5356 8.98256 7.40606
127 Ni 9.49744 5.48964 6.44402
128 Ni 9.51399 7.37987 8.62065
129 Al 7.68319 12.1424 2.41921
130 Al 9.58683 10.5976 3.78768
131 Al 9.64334 13.74 1.04552
132 Ni 7.66614 9.93832 -0.154856
133 Ni 7.78456 11.7433 4.7816
134 Ni 7.71478 14.5322 2.59511
135 Ni 9.59246 11.2501 1.30661
136 Ni 9.67966 12.9897 3.49911
137 Al 7.55107 11.4048 7.35849
138 Al 9.52955 9.8139 8.69718
139 Al 9.55587 12.9653 5.92889
140 Ni 7.56979 9.34926 4.88704
141 Ni 7.65631 11.0218 9.749
142 Ni 7.59642 13.8016 7.42152
143 Ni 9.57585 10.4857 6.26469
144 Ni 9.49358 12.3426 8.38533
ITEM: TIMESTEP
12500
ITEM: NUMBER OF ATOMS
144
ITEM: BOX BOUNDS xy xz yz pp pp pp
-8.9926533161612268e-02 1.1521501707652204e+01 9.2284122809816238e-02
-1.4667865201610959e+00 1.5034998486023623e+01 -5.5768946666678323e-02
-1.9104818459600992e-02 9.9218229991996445e+00 -1.4422864573548950e+00
ITEM: ATOMS id element xu yu zu
1 Al -0.0592519 2.11547 2.56528
2 Al 1.84966 0.584722 3.87881
3 Al 1.87952 3.67447 1.14872
4 Ni -0.00852441 0.074212 -0.0264008
5 Ni 0.0422654 1.76812 5.17985
6 Ni 0.051928 4.68485 2.58527
7 Ni 1.93242 1.21539 1.41159
8 Ni 1.81183 3.13303 3.5839
9 Al -0.0382736 1.45374 7.60904
10 Al 1.87229 -0.242541 8.88776
11 Al 2.01598 3.00314 6.17265
12 Ni 0.0220448 -0.698838 4.95883
13 Ni -0.224451 1.07904 10.01
14 Ni -0.130307 3.91243 7.44489
15 Ni 1.85524 0.441495 6.45979
16 Ni 1.79234 2.45322 8.63266
17 Al -0.0742746 7.07216 2.4984
18 Al 1.91257 5.56127 3.86076
19 Al 1.94101 8.85373 1.04691
20 Ni -0.0609282 5.09691 0.0531777
21 Ni -0.0135913 6.79943 4.95088
22 Ni -0.0772017 9.6469 2.38976
23 Ni 1.91602 6.22421 1.43178
24 Ni 1.86795 8.13045 3.55912
25 Al -0.100466 6.38922 7.35615
26 Al 1.91188 4.84437 8.85229
27 Al 1.8771 7.95656 5.96487
28 Ni -0.0432421 4.21898 4.96764
29 Ni 0.0705917 6.08737 9.95499
30 Ni -0.0836217 8.91883 7.36601
31 Ni 1.82344 5.53491 6.3185
32 Ni 1.83962 7.25514 8.52863
33 Al -0.0803909 12.1443 2.47669
34 Al 1.84887 10.5502 3.6521
35 Al 1.85215 13.8227 1.03396
36 Ni -0.0701724 10.0926 -0.133882
37 Ni -0.0381128 11.8408 4.92072
38 Ni 0.0490709 14.7259 2.44459
39 Ni 1.87751 11.3029 1.24941
40 Ni 1.95258 13.1763 3.63839
41 Al -0.157463 11.3988 7.41581
42 Al 1.76095 9.74579 8.73001
43 Al 1.87508 12.8804 6.03597
44 Ni 0.0502433 9.32082 4.82255
45 Ni 0.0035958 11.0897 9.97167
46 Ni -0.0315881 14.0362 7.39157
47 Ni 1.74207 10.4107 6.28938
48 Ni 1.81909 12.3769 8.46248
49 Al 3.80961 2.1529 2.49292
50 Al 5.64555 0.507383 3.79898
51 Al 5.69912 3.86416 1.03143
52 Ni 3.80827 0.0339669 -0.0368875
53 Ni 3.69354 1.63919 5.08078
54 Ni 3.76143 4.60876 2.64436
55 Ni 5.64279 1.19504 1.36991
56 Ni 5.74587 3.174 3.52758
57 Al 3.70943 1.2541 7.54919
58 Al 5.67813 -0.336845 8.85014
59 Al 5.76318 2.96314 5.97314
60 Ni 3.84135 -0.710447 4.85128
61 Ni 3.66432 1.01635 9.98285
62 Ni 3.97501 3.84462 7.41694
63 Ni 5.66446 0.396277 6.44062
64 Ni 5.65137 2.30898 8.38986
65 Al 3.80432 7.16846 2.64638
66 Al 5.74116 5.5807 3.9186
67 Al 5.75024 8.67008 1.24526
68 Ni 3.81343 5.0401 0.105565
69 Ni 3.73105 6.76464 5.0391
70 Ni 3.84832 9.71199 2.47448
71 Ni 5.75519 6.20171 1.38831
72 Ni 5.72552 8.04927 3.67097
73 Al 3.78936 6.45598 7.55364
74 Al 5.68309 4.74854 8.85485
75 Al 5.73295 8.02452 6.18736
76 Ni 3.85623 4.19501 4.99969
77 Ni 3.78202 6.09931 10.1155
78 Ni 3.76418 8.95889 7.57641
79 Ni 5.59908 5.54807 6.41722
80 Ni 5.67475 7.2882 8.54463
81 Al 3.79474 12.1215 2.36001
82 Al 5.8148 10.5562 3.79537
83 Al 5.71308 13.8378 1.10636
84 Ni 3.89259 10.0453 -0.0420331
85 Ni 3.83935 11.7705 4.8063
86 Ni 3.81957 14.7253 2.45326
87 Ni 5.70115 11.2822 1.28823
88 Ni 5.67742 13.1442 3.49727
89 Al 3.78694 11.4429 7.37944
90 Al 5.65966 9.83878 8.78436
91 Al 5.62023 13.0518 6.07226
92 Ni 3.75349 9.22633 4.99338
93 Ni 3.70948 11.0787 9.92021
94 Ni 3.8026 13.8962 7.53665
95 Ni 5.71354 10.5575 6.32029
96 Ni 5.75128 12.2987 8.52667
97 Al 7.58733 2.19539 2.36535
98 Al 9.55742 0.6275 3.95944
99 Al 9.50678 3.77082 1.1232
100 Ni 7.5043 0.0782012 -0.0353191
101 Ni 7.57038 1.92412 4.94349
102 Ni 7.61643 4.51645 2.38398
103 Ni 9.52054 1.20028 1.4313
104 Ni 9.56625 2.94875 3.62343
105 Al 7.59051 1.2794 7.43699
106 Al 9.39762 -0.225694 8.93405
107 Al 9.54559 2.92898 6.01978
108 Ni 7.46038 -0.641776 4.96251
109 Ni 7.45262 1.17669 9.79314
110 Ni 7.5765 3.82111 7.47457
111 Ni 9.5751 0.422659 6.41334
112 Ni 9.39581 2.32383 8.58433
113 Al 7.67275 7.12551 2.55473
114 Al 9.53177 5.45559 3.75872
115 Al 9.5745 8.66538 1.00813
116 Ni 7.61135 4.97769 -0.0669429
117 Ni 7.61787 6.68703 5.04134
118 Ni 7.71023 9.58601 2.48895
119 Ni 9.43233 6.05602 1.31351
120 Ni 9.5252 8.06947 3.65061
121 Al 7.58247 6.27793 7.38475
122 Al 9.56225 4.77732 8.83732
123 Al 9.51665 7.9361 6.01426
124 Ni 7.69561 4.32718 4.99981
125 Ni 7.49583 6.13715 9.88922
126 Ni 7.69894 8.74486 7.44704
127 Ni 9.45304 5.44721 6.35218
128 Ni 9.4688 7.32936 8.4927
129 Al 7.5987 12.2131 2.48523
130 Al 9.50632 10.6586 3.88578
131 Al 9.62184 13.8742 1.1367
132 Ni 7.67045 10.026 0.0456136
133 Ni 7.64123 11.8526 4.98419
134 Ni 7.66526 14.8927 2.44764
135 Ni 9.61425 11.1926 1.35497
136 Ni 9.55144 13.3122 3.61674
137 Al 7.63356 11.4638 7.48725
138 Al 9.45801 9.86457 8.74637
139 Al 9.39801 13.0578 6.01486
140 Ni 7.70115 9.37295 4.98314
141 Ni 7.61244 11.0783 9.88447
142 Ni 7.69236 13.9623 7.51039
143 Ni 9.5772 10.3933 6.25226
144 Ni 9.61675 12.4091 8.62086
ITEM: TIMESTEP
12600
ITEM: NUMBER OF ATOMS
144
ITEM: BOX BOUNDS xy xz yz pp pp pp
-1.9418848827380999e-01 1.1469039931856681e+01 -1.3981855845094474e-01
-1.5164613703945653e+00 1.5051592719028974e+01 1.9610003686365323e-02
-6.9424689740591461e-03 9.9096606497140947e+00 -1.4753670745830023e+00
ITEM: ATOMS id element xu yu zu
1 Al -0.234607 2.1857 2.54244
2 Al 1.81622 0.457135 3.88385
3 Al 1.81067 3.74912 1.21572
4 Ni -0.0930143 -0.126377 0.08536
5 Ni -0.20541 1.7197 4.88855
6 Ni -0.245769 4.5919 2.52479
7 Ni 1.7132 1.12445 1.41016
8 Ni 1.79719 3.02048 3.64801
9 Al -0.0952944 1.33084 7.45552
10 Al 2.00505 -0.284957 8.78842
11 Al 1.81874 2.89534 6.0424
12 Ni -0.218575 -0.859948 4.94762
13 Ni 0.130339 1.04911 9.99005
14 Ni -0.0143382 3.95572 7.47542
15 Ni 1.7752 0.370054 6.30945
16 Ni 1.81065 2.34215 8.53054
17 Al -0.0612987 7.12156 2.38567
18 Al 1.82197 5.51236 3.60694
19 Al 1.83636 8.75806 0.987668
20 Ni -0.0679876 5.02073 -0.0680544
21 Ni -0.0922867 6.70959 4.8167
22 Ni -0.0684299 9.66334 2.51979
23 Ni 1.84574 6.30168 1.22893
24 Ni 1.76623 8.08746 3.54726
25 Al -0.0434705 6.44336 7.25214
26 Al 1.8028 4.95187 8.83322
27 Al 1.75922 7.92084 5.85785
28 Ni -0.154363 4.26519 4.94223
29 Ni -0.226248 6.01026 9.72251
30 Ni -0.111109 8.9459 7.45527
31 Ni 1.90376 5.41297 6.28921
32 Ni 1.79756 7.58663 8.47561
33 Al -0.236996 12.0859 2.499
34 Al 1.64575 10.534 3.98688
35 Al 1.67962 13.7008 1.1416
36 Ni -0.0602135 10.0416 0.0714912
37 Ni -0.198241 11.6896 5.05198
38 Ni -0.258903 14.6892 2.53886
39 Ni 1.74566 11.1467 1.5849
40 Ni 1.64388 13.0422 3.53674
41 Al -0.197799 11.3701 7.56554
42 Al 1.78009 9.9358 8.9596
43 Al 1.58411 12.8666 6.00561
44 Ni -0.226957 9.21481 5.04006
45 Ni -0.239883 11.0599 9.97327
46 Ni -0.10677 13.8746 7.55061
47 Ni 1.82398 10.5724 6.50865
48 Ni 1.83506 12.4256 8.56449
49 Al 3.71452 2.14484 2.32295
50 Al 5.62384 0.360047 3.7335
51 Al 5.78702 3.79426 1.19863
52 Ni 3.74405 0.0471462 -0.0708497
53 Ni 3.6793 1.7433 4.96184
54 Ni 3.817 4.69037 2.24516
55 Ni 5.60433 1.1639 1.36312
56 Ni 5.64565 2.93572 3.55821
57 Al 3.75626 1.39612 7.40302
58 Al 5.67791 -0.231412 8.88896
59 Al 5.58381 2.90324 6.0601
60 Ni 3.64813 -0.868178 4.94013
61 Ni 3.72515 1.17418 9.93554
62 Ni 3.55017 3.98804 7.38898
63 Ni 5.50514 0.44768 6.25674
64 Ni 5.66653 2.38008 8.59543
65 Al 3.67836 7.25832 2.51858
66 Al 5.6167 5.43057 3.89509
67 Al 5.57929 8.73617 1.22039
68 Ni 3.76824 5.01999 -0.150123
69 Ni 3.89706 6.69291 4.93317
70 Ni 3.56174 9.71817 2.65038
71 Ni 5.61314 6.1971 1.31905
72 Ni 5.69325 8.0233 3.58754
73 Al 3.84485 6.4541 7.38936
74 Al 5.7519 4.83247 8.73419
75 Al 5.65725 7.90759 6.18432
76 Ni 3.65059 4.22916 4.74708
77 Ni 3.75988 6.14058 9.78245
78 Ni 3.76093 8.93871 7.46229
79 Ni 5.75989 5.33383 6.27823
80 Ni 5.65913 7.43207 8.63493
81 Al 3.63307 12.1086 2.57572
82 Al 5.61875 10.4919 3.89689
83 Al 5.43486 13.839 1.15464
84 Ni 3.63481 10.1148 0.020188
85 Ni 3.67883 11.7638 5.09915
86 Ni 3.61658 14.7702 2.55013
87 Ni 5.55697 11.2832 1.47059
88 Ni 5.59944 13.1126 3.63814
89 Al 3.75871 11.5197 7.47033
90 Al 5.53828 9.90238 8.85876
91 Al 5.52124 13.137 6.02687
92 Ni 3.76496 9.1997 4.98363
93 Ni 3.77925 11.0894 9.89407
94 Ni 3.57512 13.9863 7.41718
95 Ni 5.61897 10.3992 6.38397
96 Ni 5.56171 12.5568 8.55262
97 Al 7.57646 1.99225 2.47488
98 Al 9.53788 0.431203 3.7319
99 Al 9.44029 3.84947 1.02462
100 Ni 7.66927 -0.0142134 0.0215652
101 Ni 7.5654 1.64161 4.93745
102 Ni 7.547 4.67771 2.49891
103 Ni 9.56143 1.066 1.3784
104 Ni 9.42856 3.1933 3.60297
105 Al 7.529 1.32063 7.56924
106 Al 9.49222 -0.278349 8.79059
107 Al 9.48785 2.90034 6.00383
108 Ni 7.62378 -0.805367 5.02467
109 Ni 7.68362 0.97067 10.0128
110 Ni 7.56217 3.91334 7.35004
111 Ni 9.43974 0.418988 6.34145
112 Ni 9.55414 2.36998 8.54978
113 Al 7.5593 7.09518 2.59296
114 Al 9.39035 5.62681 3.81388
115 Al 9.43768 8.81926 1.09047
116 Ni 7.52969 5.01179 0.0350708
117 Ni 7.56233 6.83197 5.02958
118 Ni 7.46172 9.67118 2.51031
119 Ni 9.48828 6.27781 1.42997
120 Ni 9.51057 8.08908 3.47588
121 Al 7.56637 6.45791 7.44025
122 Al 9.49257 4.70729 8.84111
123 Al 9.38455 8.06974 6.0716
124 Ni 7.49123 4.14413 4.87039
125 Ni 7.60636 6.04912 10.0754
126 Ni 7.54256 9.02547 7.43247
127 Ni 9.52202 5.4047 6.35187
128 Ni 9.52915 7.38608 8.51403
129 Al 7.4383 12.0613 2.58912
130 Al 9.39658 10.4636 3.96119
131 Al 9.38724 13.792 1.15851
132 Ni 7.55811 10.1332 0.000978996
133 Ni 7.51318 11.7589 4.96713
134 Ni 7.42963 14.485 2.51357
135 Ni 9.3451 11.2368 1.38507
136 Ni 9.37202 12.9304 3.63355
137 Al 7.42786 11.507 7.57154
138 Al 9.44579 9.84124 8.81166
139 Al 9.30562 13.0004 6.17787
140 Ni 7.4969 9.25664 4.96809
141 Ni 7.50171 11.0867 10.0172
142 Ni 7.42124 13.901 7.39634
143 Ni 9.40471 10.5485 6.40165
144 Ni 9.34268 12.3674 8.53396
ITEM: TIMESTEP
12700
ITEM: NUMBER OF ATOMS
144
ITEM: BOX BOUNDS xy xz yz pp pp pp
-1.1018342972813074e-01 1.1501498650535877e+01 -9.3180500971160998e-02
-1.5565922086537913e+00 1.5000012675551776e+01 8.9435723431451411e-02
-1.3247184203676987e-02 9.9159653649437161e+00 -1.5670779563194372e+00
ITEM: ATOMS id element xu yu zu
1 Al -0.0716848 2.02145 2.32221
2 Al 1.96869 0.454771 3.86591
3 Al 1.79092 3.62023 0.903178
4 Ni -0.0808404 0.0379745 -0.00820497
5 Ni -0.0209017 1.66701 4.82113
6 Ni 0.0714957 4.64862 2.38256
7 Ni 1.98046 1.25575 1.35018
8 Ni 1.79827 3.07399 3.42314
9 Al -0.0156407 1.42382 7.24943
10 Al 1.999 -0.263888 8.72099
11 Al 1.9151 3.03062 5.88424
12 Ni 0.117932 -0.753121 5.04517
13 Ni -0.215532 0.968005 9.74963
14 Ni -0.0904372 3.86752 7.44619
15 Ni 2.01279 0.520047 6.34026
16 Ni 1.76601 2.30967 8.40825
17 Al -0.0775012 7.08484 2.41894
18 Al 1.85153 5.47601 3.68323
19 Al 1.8501 8.7876 1.21087
20 Ni -0.140426 5.04363 -0.0389238
21 Ni -0.0311208 6.73628 4.92537
22 Ni -0.0509825 9.57826 2.58485
23 Ni 1.83701 6.12213 1.3122
24 Ni 1.88396 7.99594 3.57293
25 Al 0.00463774 6.33171 7.43015
26 Al 1.91031 4.60962 8.77231
27 Al 1.74595 7.82569 6.08976
28 Ni -0.00866408 4.17219 4.88441
29 Ni 0.197384 5.98467 9.93264
30 Ni -0.000398901 8.91154 7.65774
31 Ni 1.81313 5.45745 6.27709
32 Ni 1.98375 7.14077 8.67621
33 Al 0.0303317 12.0735 2.5304
34 Al 1.83892 10.5159 3.85121
35 Al 1.64339 13.8093 1.21061
36 Ni -0.101382 10.0005 0.145097
37 Ni -0.0218612 11.7195 5.01675
38 Ni -0.214639 14.4933 2.47821
39 Ni 1.89473 11.201 1.41428
40 Ni 1.80411 13.0613 3.80972
41 Al 0.0127355 11.3007 7.46973
42 Al 1.94464 9.65199 8.91155
43 Al 1.91202 12.992 6.24813
44 Ni 0.105395 9.23542 5.08176
45 Ni 0.0582829 11.0097 9.95529
46 Ni -0.112349 13.8491 7.46255
47 Ni 1.89214 10.3826 6.42985
48 Ni 1.81941 12.3768 8.70483
49 Al 3.81359 2.08095 2.43758
50 Al 5.72063 0.427981 3.80594
51 Al 5.58639 3.77205 1.04687
52 Ni 3.78754 0.0388352 0.111505
53 Ni 3.84725 1.76002 4.91985
54 Ni 3.68032 4.49051 2.50169
55 Ni 5.72477 1.16756 1.47718
56 Ni 5.69275 3.14945 3.52726
57 Al 3.88998 1.43394 7.33968
58 Al 5.71995 -0.294086 8.96516
59 Al 5.77594 2.99675 5.96813
60 Ni 3.9688 -0.812034 5.00999
61 Ni 3.76999 0.89109 9.90179
62 Ni 3.94011 3.83823 7.33662
63 Ni 5.87862 0.339087 6.40916
64 Ni 5.73602 2.40635 8.46057
65 Al 3.71318 7.08982 2.33939
66 Al 5.58261 5.5295 3.84849
67 Al 5.68204 8.64523 0.950356
68 Ni 3.68631 5.04983 -0.00899457
69 Ni 3.62682 6.73612 4.78535
70 Ni 3.81221 9.53857 2.34808
71 Ni 5.75308 6.16706 1.2839
72 Ni 5.52152 8.10162 3.48954
73 Al 3.72427 6.31235 7.34176
74 Al 5.73188 4.81379 8.74233
75 Al 5.55066 7.92186 5.95184
76 Ni 3.84145 4.21772 4.98155
77 Ni 3.75834 5.98731 9.85686
78 Ni 3.79071 8.82483 7.49545
79 Ni 5.61633 5.5388 6.21893
80 Ni 5.62011 7.28741 8.38176
81 Al 3.66653 12.0306 2.647
82 Al 5.72123 10.4462 3.87708
83 Al 5.55735 13.7031 1.26588
84 Ni 3.71478 9.99242 0.0231112
85 Ni 3.71925 11.748 5.09161
86 Ni 3.67788 14.5082 2.48748
87 Ni 5.61362 11.204 1.48486
88 Ni 5.66513 13.0307 3.70697
89 Al 3.65496 11.3748 7.6054
90 Al 5.60769 9.7488 8.89098
91 Al 5.61176 12.9706 6.22166
92 Ni 3.77658 9.31389 4.99543
93 Ni 3.70409 11.0478 10.1799
94 Ni 3.82944 13.9131 7.55157
95 Ni 5.62967 10.4199 6.46531
96 Ni 5.67291 12.2575 8.6857
97 Al 7.51452 2.21533 2.48242
98 Al 9.54922 0.465427 3.82498
99 Al 9.38069 3.71098 1.0422
100 Ni 7.51695 0.0264942 0.029035
101 Ni 7.61776 1.72946 4.96329
102 Ni 7.63364 4.60838 2.37233
103 Ni 9.36088 1.17764 1.38315
104 Ni 9.55291 2.86196 3.52761
105 Al 7.63612 1.49139 7.45951
106 Al 9.45646 -0.263058 8.74539
107 Al 9.52228 3.04058 5.99834
108 Ni 7.54543 -0.982885 4.94097
109 Ni 7.62684 0.941884 9.821
110 Ni 7.59227 3.94908 7.47577
111 Ni 9.46521 0.417718 6.36912
112 Ni 9.57564 2.27201 8.47884
113 Al 7.54643 7.1054 2.45887
114 Al 9.53244 5.38369 3.69786
115 Al 9.43764 8.62539 1.13562
116 Ni 7.64375 5.06473 -0.0972304
117 Ni 7.54254 6.65399 4.75678
118 Ni 7.58763 9.61942 2.45915
119 Ni 9.45483 6.13735 1.24101
120 Ni 9.45384 7.8853 3.6548
121 Al 7.5447 6.41063 7.21196
122 Al 9.62896 4.7832 8.80636
123 Al 9.46516 7.97183 6.0955
124 Ni 7.63583 4.20182 5.02119
125 Ni 7.67389 5.94487 9.72041
126 Ni 7.56851 8.81496 7.48796
127 Ni 9.47234 5.48374 6.35163
128 Ni 9.50161 7.40124 8.56224
129 Al 7.58995 12.0693 2.60633
130 Al 9.48821 10.4471 4.0368
131 Al 9.40037 13.734 1.17676
132 Ni 7.51752 9.99317 0.0354412
133 Ni 7.52072 11.5871 5.07102
134 Ni 7.5622 14.6268 2.497
135 Ni 9.47242 11.119 1.53257
136 Ni 9.43233 13.0447 3.64797
137 Al 7.64071 11.3989 7.59643
138 Al 9.53362 9.79896 9.00139
139 Al 9.3934 12.9292 6.15004
140 Ni 7.61776 9.04079 4.93343
141 Ni 7.601 10.9526 9.95469
142 Ni 7.54694 13.9747 7.53014
143 Ni 9.52633 10.2877 6.43343
144 Ni 9.52768 12.3066 8.62373
ITEM: TIMESTEP
12800
ITEM: NUMBER OF ATOMS
144
ITEM: BOX BOUNDS xy xz yz pp pp pp
-9.1404904140413912e-02 1.1637257537143160e+01 1.3067040818128092e-01
-1.7035004853448523e+00 1.5074853010445004e+01 2.0122226474001248e-02
1.7393232939373782e-02 9.8853249478006759e+00 -1.6391458981172766e+00
ITEM: ATOMS id element xu yu zu
1 Al 0.0452698 2.0021 2.42711
2 Al 1.93289 0.343685 3.90794
3 Al 1.95406 3.63835 1.08916
4 Ni -0.0514286 -0.0381354 0.185679
5 Ni -0.013355 1.73913 4.91094
6 Ni -0.135171 4.41907 2.36604
7 Ni 1.89588 0.968476 1.36516
8 Ni 1.85492 2.95323 3.57848
9 Al -0.0790294 1.31523 7.42338
10 Al 1.98879 -0.522001 8.76447
11 Al 1.92199 2.85809 5.9379
12 Ni -0.117399 -0.800942 5.01704
13 Ni 0.113975 0.923175 9.89501
14 Ni 0.0179504 3.72279 7.21269
15 Ni 1.79022 0.286017 6.29823
16 Ni 1.9266 2.16949 8.49892
17 Al -0.0728361 6.98197 2.61698
18 Al 1.90756 5.42338 3.82569
19 Al 1.8674 8.70901 1.03767
20 Ni -0.0374593 4.96615 -0.11279
21 Ni -0.00949509 6.71397 5.05989
22 Ni -0.0750043 9.54583 2.46818
23 Ni 1.79052 6.16273 1.44407
24 Ni 1.82813 8.01812 3.60604
25 Al -0.066537 6.23829 7.40927
26 Al 1.81358 4.67347 8.88061
27 Al 1.7181 7.97928 6.02654
28 Ni -0.0524612 4.13692 4.85732
29 Ni -0.214604 5.83984 9.9749
30 Ni -0.0953538 8.79919 7.29831
31 Ni 1.82498 5.27093 6.37249
32 Ni 1.81224 7.39958 8.40155
33 Al 0.106513 12.1412 2.63089
34 Al 1.9193 10.588 3.94899
35 Al 1.96719 13.6677 1.12848
36 Ni -0.0526875 10.0257 -0.0604452
37 Ni 0.0208791 11.7454 5.07411
38 Ni 0.201788 14.6992 2.58213
39 Ni 1.87387 11.1059 1.46915
40 Ni 2.0509 13.0632 3.64161
41 Al 0.0634331 11.3656 7.49461
42 Al 1.89817 9.77291 8.85355
43 Al 2.02321 13.004 6.09322
44 Ni -0.148593 9.24957 4.92913
45 Ni -0.0227408 10.8836 10.0875
46 Ni 0.020817 13.9172 7.53808
47 Ni 1.90432 10.5441 6.36998
48 Ni 1.93373 12.2061 8.61774
49 Al 3.78722 1.97209 2.40467
50 Al 5.71739 0.404573 3.84666
51 Al 5.61846 3.66831 1.19985
52 Ni 3.82896 -0.0967148 0.119396
53 Ni 3.80103 1.70652 4.9887
54 Ni 3.7963 4.62713 2.40842
55 Ni 5.73725 1.05608 1.29063
56 Ni 5.64807 2.95475 3.59288
57 Al 3.80375 1.23872 7.2728
58 Al 5.75869 -0.436659 8.68392
59 Al 5.67471 2.94335 6.07335
60 Ni 3.71077 -0.743107 5.10744
61 Ni 3.89322 0.720968 9.85837
62 Ni 3.70675 3.80229 7.39003
63 Ni 5.66109 0.354356 6.32858
64 Ni 5.75136 2.1082 8.47887
65 Al 3.78215 7.18578 2.60524
66 Al 5.67384 5.42833 3.90192
67 Al 5.62749 8.80949 1.14041
68 Ni 3.82976 4.99764 -0.0439037
69 Ni 3.94644 6.75955 5.07319
70 Ni 3.82596 9.59411 2.52687
71 Ni 5.59219 6.12026 1.32619
72 Ni 5.86761 7.97559 3.51858
73 Al 3.72544 6.35914 7.48108
74 Al 5.78004 4.58441 8.64697
75 Al 5.78116 7.86986 6.0156
76 Ni 3.75686 4.18918 4.90483
77 Ni 3.83855 5.78387 9.91367
78 Ni 3.80696 8.86377 7.39727
79 Ni 5.79611 5.31308 6.31221
80 Ni 5.82131 7.2151 8.55897
81 Al 3.91552 12.0727 2.41559
82 Al 5.75552 10.4967 3.8879
83 Al 5.7785 13.7473 1.23089
84 Ni 3.78261 9.9574 0.00829458
85 Ni 3.89885 11.7813 5.11428
86 Ni 4.03761 14.7039 2.62847
87 Ni 5.85364 11.1474 1.47615
88 Ni 5.78181 13.083 3.67309
89 Al 3.82211 11.3047 7.51388
90 Al 5.85169 9.66103 8.75941
91 Al 5.79458 13.0943 6.09974
92 Ni 3.83547 9.11223 4.94685
93 Ni 3.95971 10.7677 9.88303
94 Ni 3.86826 13.741 7.49981
95 Ni 5.77981 10.3751 6.41651
96 Ni 5.85747 12.2052 8.5947
97 Al 7.64015 2.09792 2.49115
98 Al 9.65509 0.518378 3.72309
99 Al 9.46588 3.66181 0.976906
100 Ni 7.65272 -0.106197 0.0602203
101 Ni 7.67501 1.73235 4.88696
102 Ni 7.62146 4.56754 2.43101
103 Ni 9.54873 1.09117 1.36237
104 Ni 9.57328 3.10077 3.47478
105 Al 7.70847 1.24293 7.35717
106 Al 9.51456 -0.355093 8.7149
107 Al 9.54745 2.88299 5.98945
108 Ni 7.667 -0.812018 5.04646
109 Ni 7.67927 0.811435 9.94441
110 Ni 7.72215 3.84066 7.31355
111 Ni 9.57473 0.242351 6.31137
112 Ni 9.53883 2.28412 8.42486
113 Al 7.5986 7.05634 2.32771
114 Al 9.56747 5.61375 3.76065
115 Al 9.5531 8.74191 1.12009
116 Ni 7.5374 4.9794 0.000562273
117 Ni 7.70558 6.7058 4.98938
118 Ni 7.63739 9.60086 2.56277
119 Ni 9.62906 6.08606 1.38896
120 Ni 9.57016 8.12803 3.48532
121 Al 7.68435 6.28008 7.35351
122 Al 9.61422 4.67421 8.82557
123 Al 9.44861 8.0006 5.92335
124 Ni 7.64845 4.12405 4.82835
125 Ni 7.52276 5.88834 9.84408
126 Ni 7.72466 8.82806 7.45105
127 Ni 9.72466 5.24037 6.21061
128 Ni 9.58797 7.18719 8.4594
129 Al 7.81806 12.1588 2.67508
130 Al 9.6478 10.5872 3.90173
131 Al 9.73076 13.8311 1.29202
132 Ni 7.6951 9.93987 0.0820843
133 Ni 7.82135 11.8481 5.0352
134 Ni 7.70523 14.7602 2.58798
135 Ni 9.59306 11.2231 1.3802
136 Ni 9.7355 13.115 3.6776
137 Al 7.72245 11.3125 7.57983
138 Al 9.68983 9.66181 8.86434
139 Al 9.75513 12.9983 6.19769
140 Ni 7.69207 9.35907 5.08667
141 Ni 7.76446 10.889 10.0699
142 Ni 7.8239 13.6954 7.45599
143 Ni 9.63585 10.5093 6.38976
144 Ni 9.65262 12.2475 8.59365
ITEM: TIMESTEP
12900
ITEM: NUMBER OF ATOMS
144
ITEM: BOX BOUNDS xy xz yz pp pp pp
-1.7497682219158750e-01 1.1529955421994130e+01 7.5460993980498589e-02
-1.6468061437838970e+00 1.4975485812816769e+01 -1.1554239252540800e-01
8.3581730949315869e-03 9.8943600076451119e+00 -1.6818187541845453e+00
ITEM: ATOMS id element xu yu zu
1 Al 0.0405222 2.16154 2.6728
2 Al 1.76397 0.42406 3.90842
3 Al 1.76036 3.79726 1.13796
4 Ni -0.0299925 -0.0473972 0.0419493
5 Ni -0.114766 1.65634 5.05122
6 Ni 0.0158967 4.81031 2.48828
7 Ni 1.80464 1.25961 1.48226
8 Ni 1.88195 3.15477 3.56186
9 Al -0.0976512 1.26818 7.54072
10 Al 1.79538 -0.448195 8.88638
11 Al 1.76813 2.93881 6.02784
12 Ni -0.0927316 -0.86923 4.97224
13 Ni -0.216818 0.754508 10.0164
14 Ni -0.204591 3.79977 7.51181
15 Ni 1.85118 0.314536 6.37864
16 Ni 1.75339 2.21569 8.56135
17 Al -0.0725806 7.14042 2.39362
18 Al 1.87341 5.54024 3.83571
19 Al 1.88918 8.79244 1.10756
20 Ni -0.0758997 5.02563 0.051099
21 Ni -0.166173 6.73526 4.81719
22 Ni -0.119239 9.66535 2.3575
23 Ni 1.95504 6.19738 1.30065
24 Ni 1.83044 7.99261 3.50104
25 Al -0.139859 6.28126 7.21463
26 Al 1.81875 4.58709 8.72367
27 Al 1.75673 7.81745 6.01981
28 Ni -0.0851646 4.22676 5.01363
29 Ni -0.079949 5.80097 9.76378
30 Ni -0.0165495 8.70357 7.41708
31 Ni 1.88067 5.39589 6.33644
32 Ni 1.79489 7.04488 8.55843
33 Al -0.0704084 12.1049 2.545
34 Al 1.8206 10.5642 3.92978
35 Al 1.86347 13.6959 1.0724
36 Ni -0.0542367 10.035 -0.0308251
37 Ni -0.142995 11.6131 4.98888
38 Ni -0.152427 14.52 2.47334
39 Ni 1.87553 11.1833 1.3683
40 Ni 1.75009 13.009 3.60115
41 Al -0.065904 11.2576 7.40535
42 Al 1.80345 9.58322 8.84652
43 Al 2.02044 12.8993 6.00879
44 Ni -0.0640182 9.16768 4.84545
45 Ni -0.118272 10.7491 9.90672
46 Ni -0.00927301 13.6574 7.4198
47 Ni 1.7815 10.1944 6.39687
48 Ni 1.91143 12.1698 8.51486
49 Al 3.71572 2.15769 2.4613
50 Al 5.59015 0.52342 3.81791
51 Al 5.65888 3.63889 1.11919
52 Ni 3.70583 -0.0258766 -0.0907176
53 Ni 3.69032 1.65587 4.94621
54 Ni 3.81757 4.65073 2.46002
55 Ni 5.63069 1.16848 1.50489
56 Ni 5.80702 3.12803 3.52255
57 Al 3.69492 1.32432 7.32962
58 Al 5.53312 -0.413524 8.84925
59 Al 5.57796 2.89267 6.021
60 Ni 3.71314 -0.878381 4.90228
61 Ni 3.63556 0.807873 9.93797
62 Ni 3.72948 3.71843 7.43624
63 Ni 5.54037 0.275907 6.3104
64 Ni 5.57629 2.15601 8.48473
65 Al 3.86275 7.1388 2.54946
66 Al 5.6544 5.57055 3.88475
67 Al 5.65185 8.73017 1.16955
68 Ni 3.75434 4.91437 0.0120341
69 Ni 3.78141 6.67336 4.89999
70 Ni 3.76117 9.55934 2.53611
71 Ni 5.73271 6.14617 1.49016
72 Ni 5.55991 8.14681 3.81173
73 Al 3.65382 6.26832 7.46887
74 Al 5.62171 4.5594 8.91895
75 Al 5.58865 7.82924 6.15068
76 Ni 3.76986 4.17058 4.96504
77 Ni 3.67064 5.79997 10.0163
78 Ni 3.75567 8.71338 7.50806
79 Ni 5.5986 5.34717 6.3257
80 Ni 5.59633 7.1254 8.67629
81 Al 3.82787 12.0726 2.41053
82 Al 5.73323 10.5781 3.74836
83 Al 5.72339 13.7445 1.11146
84 Ni 3.80548 10.0001 0.0489616
85 Ni 3.71153 11.6424 4.87404
86 Ni 3.75018 14.4748 2.50049
87 Ni 5.64572 11.1614 1.36213
88 Ni 5.7464 13.0598 3.58906
89 Al 3.73366 11.1271 7.37235
90 Al 5.68493 9.61883 8.68669
91 Al 5.61296 12.8772 6.07553
92 Ni 3.77136 9.31559 4.99077
93 Ni 3.69286 10.7354 9.89405
94 Ni 3.74666 13.8044 7.40214
95 Ni 5.70235 10.3414 6.30894
96 Ni 5.67884 12.0477 8.48323
97 Al 7.63016 2.05154 2.46126
98 Al 9.5295 0.475881 3.84824
99 Al 9.48116 3.73809 1.15357
100 Ni 7.64288 0.0279088 0.0710309
101 Ni 7.54556 1.70448 5.00627
102 Ni 7.62683 4.5649 2.46816
103 Ni 9.59685 1.19242 1.51645
104 Ni 9.4368 2.96325 3.60311
105 Al 7.52535 1.19729 7.37399
106 Al 9.39109 -0.436571 8.77506
107 Al 9.43095 3.03847 6.10355
108 Ni 7.54904 -0.70428 5.00387
109 Ni 7.52498 0.804991 9.78057
110 Ni 7.4618 3.5169 7.39388
111 Ni 9.56693 0.384318 6.39247
112 Ni 9.4059 2.07977 8.62147
113 Al 7.48624 7.21671 2.52508
114 Al 9.4606 5.52855 3.823
115 Al 9.53814 8.72536 1.04734
116 Ni 7.69573 4.91402 -0.0417169
117 Ni 7.49239 6.84178 5.01827
118 Ni 7.61388 9.6048 2.41933
119 Ni 9.45263 6.23712 1.38277
120 Ni 9.46229 7.9884 3.6271
121 Al 7.49201 6.1289 7.56999
122 Al 9.47918 4.63433 8.78479
123 Al 9.40509 7.87682 6.02047
124 Ni 7.52375 4.34464 5.01556
125 Ni 7.62423 5.75216 10.0146
126 Ni 7.59949 8.67371 7.34521
127 Ni 9.39136 5.43 6.43851
128 Ni 9.47744 7.16609 8.54098
129 Al 7.65408 12.0379 2.49253
130 Al 9.52746 10.4615 3.8144
131 Al 9.62375 13.6635 1.1479
132 Ni 7.62643 10.0529 0.0157995
133 Ni 7.5736 11.6802 5.00969
134 Ni 7.70244 14.4421 2.50547
135 Ni 9.54397 11.137 1.44259
136 Ni 9.45955 12.9872 3.62839
137 Al 7.61417 11.232 7.45639
138 Al 9.53011 9.58837 8.85158
139 Al 9.55897 12.9015 6.16464
140 Ni 7.57808 9.18519 4.93181
141 Ni 7.54698 10.7994 9.78822
142 Ni 7.60614 13.7457 7.45954
143 Ni 9.5588 10.2385 6.28185
144 Ni 9.41008 12.1135 8.58021
ITEM: TIMESTEP
13000
ITEM: NUMBER OF ATOMS
144
ITEM: BOX BOUNDS xy xz yz pp pp pp
-1.5562653389002226e-01 1.1441260655355732e+01 -5.1258993812696441e-02
-1.7423157162654288e+00 1.5061420624477460e+01 -5.8166883069061349e-02
1.8498526647459101e-03 9.9008683280753136e+00 -1.6913935150053874e+00
ITEM: ATOMS id element xu yu zu
1 Al -0.146422 1.99954 2.5637
2 Al 1.82638 0.429112 3.87377
3 Al 1.77645 3.79528 1.22018
4 Ni -0.132949 0.00837588 -0.112952
5 Ni -0.130157 1.62527 5.00123
6 Ni -0.224841 4.54333 2.74689
7 Ni 1.73967 1.18955 1.3525
8 Ni 1.7174 2.95579 3.74183
9 Al -0.141004 1.09209 7.48185
10 Al 1.74757 -0.546186 8.87935
11 Al 1.82668 2.74265 6.22511
12 Ni -0.152952 -0.818621 4.90314
13 Ni -0.164486 0.857833 9.91563
14 Ni -0.0903358 3.60173 7.61514
15 Ni 1.73573 0.267939 6.32352
16 Ni 1.77312 2.08408 8.65066
17 Al -0.00573522 7.02725 2.56949
18 Al 1.85885 5.36795 3.8505
19 Al 1.8972 8.74415 1.11195
20 Ni -0.0896423 5.00299 0.188832
21 Ni 0.0225006 6.4998 4.8998
22 Ni -0.0347895 9.61303 2.6162
23 Ni 1.82616 6.16599 1.42403
24 Ni 1.89118 8.08314 3.59899
25 Al -0.108928 6.14647 7.42986
26 Al 1.83398 4.53224 8.86974
27 Al 1.65634 7.85689 6.13727
28 Ni -0.145161 4.06864 5.10988
29 Ni -0.169559 5.74359 9.93233
30 Ni -0.179607 8.69496 7.53044
31 Ni 1.74658 5.1322 6.2935
32 Ni 1.82722 7.19599 8.50062
33 Al -0.149037 12.1745 2.40909
34 Al 1.89571 10.65 3.87345
35 Al 1.78022 13.8005 1.04464
36 Ni -0.0492723 9.94688 0.0842106
37 Ni -0.135298 11.6905 4.83007
38 Ni -0.127051 14.748 2.44887
39 Ni 1.80292 11.2591 1.37983
40 Ni 1.80593 13.1139 3.53084
41 Al -0.1278 11.1437 7.27489
42 Al 1.78334 9.67009 8.88402
43 Al 1.81313 13.0899 5.99272
44 Ni -0.0888179 9.13568 5.09773
45 Ni -0.209085 10.8745 9.79372
46 Ni -0.26897 13.8088 7.35937
47 Ni 1.82473 10.404 6.19437
48 Ni 1.69815 12.2077 8.50608
49 Al 3.63805 2.11925 2.50902
50 Al 5.60694 0.424219 3.90677
51 Al 5.61573 3.6416 1.17089
52 Ni 3.71175 0.0956043 0.0626191
53 Ni 3.74014 1.63896 5.03776
54 Ni 3.72572 4.51475 2.57372
55 Ni 5.64956 1.16681 1.36614
56 Ni 5.60653 2.93807 3.60833
57 Al 3.69212 1.08882 7.51275
58 Al 5.62649 -0.43393 8.82722
59 Al 5.64655 2.80186 6.2272
60 Ni 3.69339 -0.86542 4.94825
61 Ni 3.6321 0.830846 10.0494
62 Ni 3.79261 3.72331 7.44634
63 Ni 5.70361 0.299638 6.4451
64 Ni 5.71709 2.16365 8.55193
65 Al 3.83491 7.06739 2.46595
66 Al 5.64279 5.43291 3.94794
67 Al 5.6227 8.82243 1.10049
68 Ni 3.82722 5.07469 0.0401267
69 Ni 3.71804 6.57875 4.9709
70 Ni 3.75992 9.74377 2.48829
71 Ni 5.70971 6.17489 1.42321
72 Ni 5.73039 7.91162 3.46957
73 Al 3.62612 6.21343 7.29375
74 Al 5.64141 4.61862 8.8133
75 Al 5.59602 7.85414 5.90529
76 Ni 3.73785 4.18617 4.99481
77 Ni 3.72563 5.86867 9.75979
78 Ni 3.59196 8.68933 7.4354
79 Ni 5.64486 5.2558 6.43795
80 Ni 5.54553 7.16647 8.44273
81 Al 3.73507 12.2361 2.32683
82 Al 5.66894 10.4397 3.76217
83 Al 5.62908 13.8473 1.08098
84 Ni 3.73995 10.0083 0.0389636
85 Ni 3.74273 11.7165 4.92042
86 Ni 3.72123 14.8478 2.49664
87 Ni 5.56436 11.2175 1.31854
88 Ni 5.62399 13.0536 3.48
89 Al 3.70343 11.2132 7.3783
90 Al 5.51078 9.65292 8.75147
91 Al 5.59804 12.9267 5.9702
92 Ni 3.67943 9.17725 4.96032
93 Ni 3.62614 11.0147 9.79584
94 Ni 3.6698 13.6837 7.41376
95 Ni 5.50042 10.318 6.2481
96 Ni 5.57824 12.2661 8.47502
97 Al 7.59332 2.17283 2.58315
98 Al 9.40903 0.3958 3.76812
99 Al 9.42159 3.70999 1.13649
100 Ni 7.53162 -0.0796866 -0.0319278
101 Ni 7.5971 1.57026 4.97362
102 Ni 7.55309 4.58028 2.6204
103 Ni 9.41513 1.06849 1.3348
104 Ni 9.41273 3.03646 3.76755
105 Al 7.56345 1.18246 7.52233
106 Al 9.30137 -0.527689 8.7638
107 Al 9.41098 2.82166 6.22578
108 Ni 7.49905 -0.940182 4.93364
109 Ni 7.59793 0.804742 10.0068
110 Ni 7.64653 3.93298 7.56068
111 Ni 9.32971 0.168446 6.38144
112 Ni 9.43424 2.15133 8.59399
113 Al 7.63542 7.0836 2.51119
114 Al 9.44926 5.52967 3.98824
115 Al 9.47547 8.6577 1.05142
116 Ni 7.59338 5.1232 0.146672
117 Ni 7.56408 6.57485 5.10938
118 Ni 7.59867 9.61759 2.45991
119 Ni 9.50084 6.10063 1.50341
120 Ni 9.67041 8.05592 3.55828
121 Al 7.56684 6.32122 7.56714
122 Al 9.46965 4.6607 8.90613
123 Al 9.52857 7.73033 5.97578
124 Ni 7.54176 4.04703 5.07564
125 Ni 7.43975 5.85095 9.94499
126 Ni 7.49459 8.76388 7.4052
127 Ni 9.47322 5.17045 6.40985
128 Ni 9.5182 7.10307 8.52178
129 Al 7.55004 12.1233 2.33733
130 Al 9.54307 10.5202 3.76752
131 Al 9.54767 13.7779 1.01955
132 Ni 7.58644 10.0097 -0.0760795
133 Ni 7.53292 11.6874 4.65705
134 Ni 7.43965 14.7435 2.47199
135 Ni 9.50087 11.1869 1.18211
136 Ni 9.46487 13.1363 3.45781
137 Al 7.44032 11.2634 7.40643
138 Al 9.42686 9.58873 8.76357
139 Al 9.48502 12.8712 6.00489
140 Ni 7.60995 9.07366 4.91834
141 Ni 7.44647 10.8263 9.76842
142 Ni 7.42242 13.7116 7.47187
143 Ni 9.42268 10.3632 6.31638
144 Ni 9.45998 12.2181 8.39137
ITEM: TIMESTEP
13100
ITEM: NUMBER OF ATOMS
144
ITEM: BOX BOUNDS xy xz yz pp pp pp
-9.1003087120136592e-02 1.1540121960921143e+01 -2.8296136211352508e-02
-1.5923359949601934e+00 1.5019088341943867e+01 8.2355011664884417e-02
-4.9346067146345263e-03 9.9076527874546905e+00 -1.5837460762337370e+00
ITEM: ATOMS id element xu yu zu
1 Al -0.0778124 1.96789 2.51781
2 Al 1.80865 0.430081 3.84415
3 Al 1.9897 3.70154 1.16567
4 Ni -0.0949546 -0.0182344 0.00362433
5 Ni -0.0660479 1.65957 4.99263
6 Ni 0.0492336 4.60009 2.52141
7 Ni 1.92292 1.11141 1.42069
8 Ni 1.85534 3.00892 3.61482
9 Al -0.0166325 1.26305 7.4632
10 Al 1.8631 -0.358087 8.97903
11 Al 1.89142 2.89011 6.14421
12 Ni -0.0178886 -0.902698 4.92257
13 Ni -0.00299847 0.891124 9.96027
14 Ni -0.109905 3.81603 7.46118
15 Ni 1.89978 0.289813 6.35005
16 Ni 1.83964 2.26497 8.57851
17 Al -0.0928604 7.12534 2.62453
18 Al 1.75373 5.5071 4.02582
19 Al 1.90392 8.80101 1.11872
20 Ni -0.0149776 4.99553 0.0556385
21 Ni -0.150679 6.86177 5.15724
22 Ni -0.0888912 9.61423 2.44341
23 Ni 1.83544 6.12975 1.45048
24 Ni 1.76706 7.92774 3.64257
25 Al -0.0548358 6.29062 7.60176
26 Al 1.86843 4.64247 8.94877
27 Al 1.98159 7.81073 6.12447
28 Ni -0.0381178 4.24339 5.05947
29 Ni 0.0659144 6.06553 10.0813
30 Ni 0.0318762 8.8699 7.25325
31 Ni 1.93332 5.44778 6.50134
32 Ni 1.89703 7.27947 8.61414
33 Al -0.0630994 12.0974 2.32045
34 Al 1.9322 10.4118 3.88278
35 Al 1.95908 13.6372 0.985228
36 Ni -0.102655 10.1843 -0.0413983
37 Ni -0.064976 11.6919 4.78263
38 Ni -0.114345 14.5592 2.4519
39 Ni 1.93667 11.1916 1.24738
40 Ni 1.82736 13.009 3.47634
41 Al -0.170427 11.2005 7.32515
42 Al 1.93787 9.81341 8.75882
43 Al 1.90086 12.9447 5.96006
44 Ni -0.0846413 9.25028 4.84288
45 Ni -0.0439526 11.02 9.7604
46 Ni -0.038562 13.7569 7.41189
47 Ni 1.82036 10.2983 6.28366
48 Ni 1.83426 12.2747 8.39367
49 Al 3.74803 2.07676 2.58409
50 Al 5.67571 0.423833 3.83534
51 Al 5.61153 3.75923 1.28421
52 Ni 3.77087 -0.0116887 -0.0368542
53 Ni 3.66681 1.59 5.04967
54 Ni 3.74509 4.71761 2.63086
55 Ni 5.62769 1.19247 1.447
56 Ni 5.73725 3.02118 3.73379
57 Al 3.71593 1.19684 7.50725
58 Al 5.76433 -0.394968 8.79178
59 Al 5.6157 2.94098 6.35646
60 Ni 3.8249 -0.804543 4.98191
61 Ni 3.89274 0.882503 9.99934
62 Ni 3.66663 3.76032 7.64602
63 Ni 5.6634 0.3306 6.31953
64 Ni 5.61672 2.31916 8.76018
65 Al 3.72513 7.11674 2.52184
66 Al 5.68525 5.51762 3.86843
67 Al 5.7126 8.81306 1.08511
68 Ni 3.67361 5.07088 0.1473
69 Ni 3.83833 6.69498 4.87758
70 Ni 3.83138 9.56287 2.26817
71 Ni 5.64651 6.30581 1.40214
72 Ni 5.68751 8.14987 3.57573
73 Al 3.93188 6.34256 7.53546
74 Al 5.76976 4.76916 8.87152
75 Al 5.81042 7.89849 6.0025
76 Ni 3.70336 4.17689 5.0643
77 Ni 3.78659 5.95691 10.0665
78 Ni 3.88185 8.94124 7.23441
79 Ni 5.75934 5.41703 6.31308
80 Ni 5.77954 7.30862 8.54047
81 Al 3.74632 11.9531 2.4434
82 Al 5.68672 10.5825 3.74684
83 Al 5.70953 13.835 1.04238
84 Ni 3.74293 10.0672 -0.1631
85 Ni 3.75748 11.6865 4.87421
86 Ni 3.71241 14.4947 2.41007
87 Ni 5.73579 11.253 1.32187
88 Ni 5.71982 13.046 3.55253
89 Al 3.85937 11.3614 7.32429
90 Al 5.72211 9.74567 8.76792
91 Al 5.73541 12.9243 5.95002
92 Ni 3.86685 9.17062 4.84139
93 Ni 3.82771 10.8564 9.92708
94 Ni 3.76289 13.9341 7.39615
95 Ni 5.77523 10.4047 6.22114
96 Ni 5.72917 12.2693 8.43792
97 Al 7.57567 2.18203 2.61871
98 Al 9.51812 0.383181 3.81404
99 Al 9.50636 3.77979 1.16596
100 Ni 7.57849 0.122231 -0.1164
101 Ni 7.54598 1.68289 5.0866
102 Ni 7.73143 4.68606 2.63454
103 Ni 9.49434 1.25477 1.42536
104 Ni 9.607 2.99205 3.52622
105 Al 7.57882 1.18877 7.60201
106 Al 9.57954 -0.368328 8.77726
107 Al 9.50198 3.01883 6.17316
108 Ni 7.69146 -0.907761 4.82811
109 Ni 7.51976 0.887794 10.0196
110 Ni 7.57692 3.71743 7.56507
111 Ni 9.61461 0.373024 6.27931
112 Ni 9.65073 2.26176 8.71689
113 Al 7.575 7.06762 2.46677
114 Al 9.6743 5.43347 4.04101
115 Al 9.48207 8.73743 1.19334
116 Ni 7.57421 4.97697 0.156709
117 Ni 7.69463 6.63385 4.86554
118 Ni 7.53417 9.68702 2.40554
119 Ni 9.5936 6.25793 1.50605
120 Ni 9.45672 8.00087 3.69145
121 Al 7.69804 6.33767 7.55431
122 Al 9.5615 4.68219 8.92315
123 Al 9.52129 7.89585 6.1422
124 Ni 7.70087 4.12998 5.035
125 Ni 7.84815 5.97606 9.96037
126 Ni 7.64173 8.91335 7.37488
127 Ni 9.58456 5.41542 6.45535
128 Ni 9.57937 7.34681 8.70463
129 Al 7.56189 12.1574 2.55059
130 Al 9.56235 10.4823 3.72611
131 Al 9.57464 13.8062 0.974348
132 Ni 7.5962 10.0436 -0.0305265
133 Ni 7.54186 11.6133 4.95572
134 Ni 7.64535 14.6327 2.42415
135 Ni 9.46321 11.2965 1.38249
136 Ni 9.56768 12.9848 3.42156
137 Al 7.63006 11.3881 7.47484
138 Al 9.55928 9.71408 8.82513
139 Al 9.67638 12.9369 5.98658
140 Ni 7.50494 9.22474 4.81687
141 Ni 7.63954 11.0145 9.82975
142 Ni 7.67453 13.9169 7.3356
143 Ni 9.52571 10.3497 6.15184
144 Ni 9.47098 12.317 8.41884
ITEM: TIMESTEP
13200
ITEM: NUMBER OF ATOMS
144
ITEM: BOX BOUNDS xy xz yz pp pp pp
-4.7593874249383994e-02 1.1542264742163916e+01 5.6639807664710648e-02
-1.5075727103517671e+00 1.5023162666206073e+01 4.2971061902355084e-02
9.5997910261615971e-03 9.8931183897138908e+00 -1.4949084673630997e+00
ITEM: ATOMS id element xu yu zu
1 Al -0.118407 2.05935 2.54567
2 Al 1.88475 0.58567 3.86894
3 Al 1.90692 3.77806 1.23284
4 Ni -0.0418044 0.150146 0.0452156
5 Ni 0.0977224 1.75543 4.95979
6 Ni -0.126148 4.57943 2.48231
7 Ni 1.94891 1.2082 1.3861
8 Ni 1.90698 3.10583 3.63469
9 Al -0.0171701 1.47913 7.43798
10 Al 1.89583 -0.0426916 8.79263
11 Al 1.99753 3.0081 6.14617
12 Ni -0.0462736 -0.717915 5.0045
13 Ni -0.0240171 1.05421 9.94086
14 Ni 0.042407 3.89769 7.53976
15 Ni 1.95558 0.53268 6.35984
16 Ni 1.92041 2.48055 8.6077
17 Al -0.086768 7.1673 2.56479
18 Al 1.93055 5.58679 3.99895
19 Al 1.96764 8.68208 1.00326
20 Ni -0.174723 5.09049 0.0456516
21 Ni -0.00562043 6.65699 5.02146
22 Ni -0.0997044 9.56844 2.34243
23 Ni 1.82939 6.18376 1.56953
24 Ni 1.93791 8.12802 3.51517
25 Al -0.0103615 6.35215 7.57922
26 Al 1.94221 4.69392 9.03029
27 Al 1.86866 8.01984 6.09426
28 Ni -0.0331519 4.2541 4.98546
29 Ni -0.191151 5.97968 9.97571
30 Ni -0.143251 8.94692 7.42073
31 Ni 1.8616 5.4413 6.4493
32 Ni 1.87209 7.35773 8.53365
33 Al -0.0597784 12.1002 2.41598
34 Al 1.88148 10.5473 3.73548
35 Al 2.05671 13.6809 1.09965
36 Ni -0.0536947 9.93599 -0.104792
37 Ni -0.0266787 11.7767 4.88408
38 Ni 0.0237192 14.5601 2.45911
39 Ni 1.85761 11.1395 1.20352
40 Ni 1.84029 12.9382 3.51766
41 Al 0.0772664 11.3833 7.35415
42 Al 1.84589 9.87716 8.66592
43 Al 1.88767 13.1443 6.00022
44 Ni -0.0103921 9.23585 4.90428
45 Ni 0.0503109 11.0129 9.83644
46 Ni 0.0615302 14.0443 7.4418
47 Ni 1.97979 10.5012 6.14586
48 Ni 1.97816 12.3289 8.55583
49 Al 3.82083 2.12627 2.47753
50 Al 5.69824 0.506204 3.894
51 Al 5.78393 3.57994 1.042
52 Ni 3.76378 -0.0485878 -0.0593534
53 Ni 3.8205 1.77026 4.93327
54 Ni 3.79245 4.54658 2.58241
55 Ni 5.79221 1.13812 1.35649
56 Ni 5.73062 3.0768 3.59461
57 Al 3.82027 1.46857 7.43898
58 Al 5.81317 -0.235689 8.90478
59 Al 5.86954 2.99936 6.13802
60 Ni 3.77363 -0.87402 4.86207
61 Ni 3.75176 1.0243 9.94698
62 Ni 3.87804 4.01142 7.54729
63 Ni 5.71018 0.41911 6.39466
64 Ni 5.80309 2.315 8.56987
65 Al 3.74938 7.02181 2.51692
66 Al 5.65255 5.51697 4.03703
67 Al 5.7121 8.75134 1.17123
68 Ni 3.77596 4.88006 0.134582
69 Ni 3.81352 6.76298 5.17181
70 Ni 3.76805 9.62948 2.47634
71 Ni 5.7069 6.03913 1.57569
72 Ni 5.72412 7.99852 3.62858
73 Al 3.88786 6.38746 7.63087
74 Al 5.77471 4.71437 8.92477
75 Al 5.68513 8.13619 6.09956
76 Ni 3.87257 4.23059 5.14252
77 Ni 3.84784 5.91759 9.94037
78 Ni 3.80024 8.84426 7.46946
79 Ni 5.65586 5.40351 6.46799
80 Ni 5.87267 7.30777 8.46861
81 Al 3.74111 12.0359 2.33446
82 Al 5.8196 10.474 3.87348
83 Al 5.74934 13.729 1.05103
84 Ni 3.86313 10.0248 0.0194196
85 Ni 3.85097 11.738 4.86811
86 Ni 3.86568 14.7513 2.44361
87 Ni 5.69165 11.1014 1.32458
88 Ni 5.70926 13.082 3.56925
89 Al 3.85282 11.3715 7.35721
90 Al 5.79712 9.7741 8.82939
91 Al 5.77749 12.9769 5.94866
92 Ni 3.78013 9.27117 4.89753
93 Ni 3.85343 10.9658 9.73188
94 Ni 3.83296 13.8814 7.35407
95 Ni 5.71941 10.4997 6.36654
96 Ni 5.81341 12.3838 8.50864
97 Al 7.63742 2.13871 2.64767
98 Al 9.54024 0.47875 3.95048
99 Al 9.48694 3.71702 1.13423
100 Ni 7.64504 -0.0451035 -0.022335
101 Ni 7.72144 1.79068 4.98872
102 Ni 7.51256 4.51355 2.44979
103 Ni 9.57864 1.14413 1.47695
104 Ni 9.57701 3.02405 3.71973
105 Al 7.57203 1.22023 7.43163
106 Al 9.51126 -0.236564 8.85479
107 Al 9.60669 3.07253 6.14154
108 Ni 7.55674 -0.575876 4.95325
109 Ni 7.74073 1.13314 9.9106
110 Ni 7.69246 3.89132 7.39021
111 Ni 9.50434 0.448057 6.49499
112 Ni 9.47587 2.34907 8.4702
113 Al 7.62018 6.9821 2.54196
114 Al 9.55738 5.47941 3.92677
115 Al 9.37835 8.66162 0.958321
116 Ni 7.66069 5.01579 -0.0332509
117 Ni 7.54269 6.85569 5.04271
118 Ni 7.63241 9.65225 2.44325
119 Ni 9.43228 6.1466 1.35379
120 Ni 9.51836 8.13714 3.5012
121 Al 7.64562 6.31105 7.35921
122 Al 9.41151 4.79631 8.73075
123 Al 9.70736 7.92259 5.98603
124 Ni 7.62388 4.34642 5.00976
125 Ni 7.59348 6.02894 9.87519
126 Ni 7.63626 8.80738 7.41914
127 Ni 9.61208 5.41438 6.27614
128 Ni 9.41374 7.31587 8.40931
129 Al 7.62952 12.1451 2.52268
130 Al 9.57527 10.5328 3.8377
131 Al 9.67691 13.7473 1.11063
132 Ni 7.63947 10.076 0.000594741
133 Ni 7.68062 11.8829 4.89535
134 Ni 7.59057 14.6348 2.48296
135 Ni 9.54774 11.1836 1.21348
136 Ni 9.62242 13.1617 3.66189
137 Al 7.70406 11.449 7.45943
138 Al 9.50878 9.79963 8.7394
139 Al 9.68811 13.132 6.11275
140 Ni 7.6872 9.27609 5.05479
141 Ni 7.76464 11.0287 9.88562
142 Ni 7.6131 13.8964 7.43619
143 Ni 9.63777 10.559 6.3416
144 Ni 9.75779 12.419 8.59596
ITEM: TIMESTEP
13300
ITEM: NUMBER OF ATOMS
144
ITEM: BOX BOUNDS xy xz yz pp pp pp
-9.9366361190360783e-02 1.1440665866534385e+01 2.3109831769324483e-02
-1.5314303495982080e+00 1.5070897504477189e+01 -7.6870324772764440e-02
-3.0334507968701629e-02 9.9330526887087522e+00 -1.4710312683384257e+00
ITEM: ATOMS id element xu yu zu
1 Al -0.159307 2.20198 2.50064
2 Al 1.79625 0.636899 3.9197
3 Al 2.04603 3.65186 1.11211
4 Ni -0.152879 -0.229208 -0.0091387
5 Ni -0.0769213 1.7731 4.99853
6 Ni -0.0700196 4.63599 2.65818
7 Ni 1.76172 1.12621 1.35956
8 Ni 1.8647 2.9478 3.60665
9 Al -0.126804 1.39985 7.46194
10 Al 1.83068 -0.162033 8.81383
11 Al 1.84361 2.96549 6.07222
12 Ni -0.0736032 -0.759814 4.97974
13 Ni -0.0644005 0.853498 9.9305
14 Ni -0.138126 3.95603 7.43008
15 Ni 1.74051 0.398615 6.29338
16 Ni 1.82845 2.25071 8.56783
17 Al -0.0674118 7.0857 2.3307
18 Al 1.83939 5.5345 3.77628
19 Al 1.90775 8.72693 1.16691
20 Ni 0.114439 4.95236 0.0432699
21 Ni -0.146208 6.76995 4.78062
22 Ni 0.00244655 9.60258 2.62408
23 Ni 1.96887 6.11392 1.23871
24 Ni 1.71037 7.97334 3.62257
25 Al 0.0112853 6.48938 7.27951
26 Al 1.8929 4.67384 8.72913
27 Al 1.91626 8.1486 6.0149
28 Ni -0.0724332 4.30514 4.98016
29 Ni 0.037017 6.04192 9.87633
30 Ni -0.0593047 8.99309 7.39889
31 Ni 1.79422 5.43938 6.24734
32 Ni 1.77495 7.34891 8.63261
33 Al 0.0583762 12.358 2.62151
34 Al 1.90657 10.4931 3.93522
35 Al 1.90306 13.8384 1.08787
36 Ni -0.0384979 10.0265 0.0281361
37 Ni 0.00304181 11.8893 5.05009
38 Ni -0.0573593 14.8371 2.54775
39 Ni 1.81245 11.2053 1.52807
40 Ni 1.96858 13.312 3.62951
41 Al -0.116735 11.5189 7.53772
42 Al 1.76907 9.91819 8.98019
43 Al 1.86128 13.0697 6.09133
44 Ni -0.116308 9.34683 4.92919
45 Ni -0.127263 11.0038 9.98262
46 Ni -0.0602021 13.9632 7.45069
47 Ni 1.71867 10.547 6.44574
48 Ni 1.86988 12.4127 8.49709
49 Al 3.71465 1.99814 2.48673
50 Al 5.77879 0.375009 3.86856
51 Al 5.777 3.62005 1.02584
52 Ni 3.78555 -0.0840711 0.106377
53 Ni 3.72081 1.79848 4.95594
54 Ni 3.78629 4.62231 2.41906
55 Ni 5.5263 1.04244 1.38695
56 Ni 5.65157 3.00675 3.52467
57 Al 3.70901 1.37535 7.30505
58 Al 5.75734 -0.307928 8.84337
59 Al 5.62174 3.04901 6.03323
60 Ni 3.81948 -0.688002 5.01944
61 Ni 3.80905 0.975106 9.93515
62 Ni 3.63806 3.87519 7.36666
63 Ni 5.73898 0.513355 6.31361
64 Ni 5.66059 2.3569 8.57673
65 Al 3.68682 7.09361 2.47109
66 Al 5.72828 5.57456 3.76051
67 Al 5.67216 8.82897 1.16927
68 Ni 3.79639 5.01275 -0.0481452
69 Ni 3.7285 6.83195 4.88253
70 Ni 3.77517 9.64068 2.54062
71 Ni 5.6197 6.18987 1.2387
72 Ni 5.68993 8.20655 3.63836
73 Al 3.70385 6.4261 7.44294
74 Al 5.61141 4.81751 8.65943
75 Al 5.69592 8.11838 6.14915
76 Ni 3.66774 4.34339 4.86579
77 Ni 3.65328 6.05022 9.97516
78 Ni 3.66523 9.02984 7.45919
79 Ni 5.59034 5.4799 6.25794
80 Ni 5.48461 7.34732 8.66948
81 Al 3.71947 12.201 2.36817
82 Al 5.59607 10.6912 3.82861
83 Al 5.70166 13.7745 1.01367
84 Ni 3.68471 9.85524 0.00640749
85 Ni 3.71677 11.9427 4.95323
86 Ni 3.80487 14.6081 2.47069
87 Ni 5.69619 11.2144 1.36105
88 Ni 5.75701 13.1801 3.53278
89 Al 3.66577 11.396 7.39485
90 Al 5.47914 9.77149 8.95541
91 Al 5.66473 13.1105 6.00217
92 Ni 3.76728 9.41451 5.03899
93 Ni 3.65523 11.1928 10.0083
94 Ni 3.80582 14.0276 7.56597
95 Ni 5.63607 10.5032 6.25156
96 Ni 5.58125 12.3398 8.53861
97 Al 7.53767 2.08499 2.47042
98 Al 9.38421 0.497044 3.82641
99 Al 9.49105 3.65412 1.02457
100 Ni 7.5478 -0.168326 0.0658405
101 Ni 7.46981 1.79188 4.97441
102 Ni 7.59876 4.65504 2.46178
103 Ni 9.62971 1.04504 1.26452
104 Ni 9.40636 3.16116 3.4813
105 Al 7.67872 1.34185 7.36475
106 Al 9.45406 -0.295787 8.79407
107 Al 9.44736 3.10403 6.0715
108 Ni 7.63711 -0.821942 5.0417
109 Ni 7.46141 0.826693 9.92394
110 Ni 7.49949 3.95544 7.41924
111 Ni 9.587 0.389015 6.23018
112 Ni 9.58891 2.33966 8.64546
113 Al 7.56845 7.1294 2.4174
114 Al 9.48828 5.51912 3.98985
115 Al 9.46829 8.70753 1.01695
116 Ni 7.5708 4.87148 0.0445009
117 Ni 7.59263 6.81812 4.95921
118 Ni 7.5572 9.63551 2.46546
119 Ni 9.43333 6.11885 1.39256
120 Ni 9.51596 8.06123 3.59375
121 Al 7.49619 6.50757 7.61661
122 Al 9.39782 4.73866 8.85656
123 Al 9.55466 8.01912 6.09196
124 Ni 7.52338 4.27792 4.96608
125 Ni 7.49613 5.86178 9.97879
126 Ni 7.57414 9.00095 7.48678
127 Ni 9.36512 5.46096 6.35195
128 Ni 9.58036 7.34652 8.62252
129 Al 7.62365 12.1427 2.50049
130 Al 9.48161 10.5798 3.87516
131 Al 9.51655 13.6812 1.03576
132 Ni 7.51835 9.94174 -0.0429162
133 Ni 7.59183 11.8739 4.96987
134 Ni 7.68133 14.656 2.52402
135 Ni 9.54927 11.1483 1.45746
136 Ni 9.48802 13.0973 3.55866
137 Al 7.48666 11.4891 7.4016
138 Al 9.37478 9.87738 8.85052
139 Al 9.55096 13.1256 5.99831
140 Ni 7.52412 9.386 4.86145
141 Ni 7.41853 10.9901 9.90684
142 Ni 7.66388 14 7.56981
143 Ni 9.54925 10.4776 6.34554
144 Ni 9.28813 12.3201 8.5648
ITEM: TIMESTEP
13400
ITEM: NUMBER OF ATOMS
144
ITEM: BOX BOUNDS xy xz yz pp pp pp
-6.3468464781370235e-02 1.1415296154109457e+01 -1.3620048123341392e-02
-1.4485043263742727e+00 1.5008846948617400e+01 -2.9612260896039178e-02
-7.1284061912049168e-03 9.9098465869312520e+00 -1.4501558009742843e+00
ITEM: ATOMS id element xu yu zu
1 Al -0.0184726 2.09229 2.40038
2 Al 1.82769 0.629739 3.97919
3 Al 1.88239 3.79518 0.90228
4 Ni 0.0511522 -0.0169385 -0.00152276
5 Ni -0.0752801 1.71979 4.88996
6 Ni -0.0183891 4.70006 2.29491
7 Ni 1.94087 1.11946 1.41295
8 Ni 1.8475 3.33014 3.47199
9 Al -0.149283 1.33289 7.38015
10 Al 1.77448 -0.0980083 8.74328
11 Al 1.83525 3.07923 5.94601
12 Ni -0.0563365 -0.78627 4.96163
13 Ni -0.129647 1.07692 9.86979
14 Ni -0.0582325 3.81609 7.40632
15 Ni 1.90089 0.54155 6.37588
16 Ni 1.81182 2.38231 8.39223
17 Al 0.0206152 7.23998 2.61067
18 Al 1.85411 5.69495 3.84003
19 Al 1.97632 8.72281 0.986411
20 Ni -0.185471 4.91987 -0.201835
21 Ni -0.0141894 6.8363 5.04353
22 Ni -0.0683336 9.69198 2.53918
23 Ni 1.86392 6.25445 1.33468
24 Ni 2.00243 8.29006 3.538
25 Al -0.0638393 6.45358 7.35163
26 Al 1.88449 4.77465 8.72633
27 Al 2.00389 7.99902 6.00597
28 Ni -0.154989 4.31489 4.88079
29 Ni -0.0991301 6.01579 9.85122
30 Ni -0.0758545 8.82651 7.67451
31 Ni 1.85289 5.48813 6.23717
32 Ni 1.84719 7.32924 8.47902
33 Al -0.0988532 12.162 2.61289
34 Al 1.81687 10.5301 3.94555
35 Al 1.98754 13.7071 1.20043
36 Ni -0.025743 9.91459 0.11437
37 Ni -0.18955 11.772 5.1173
38 Ni -0.0543932 14.4812 2.35894
39 Ni 1.91979 11.2009 1.42683
40 Ni 1.71418 12.9435 3.68659
41 Al -0.0201762 11.3669 7.44671
42 Al 1.79333 9.78186 8.92546
43 Al 1.73357 12.9373 6.08576
44 Ni -0.0186677 9.2697 5.18395
45 Ni -0.093414 11.0606 10.1041
46 Ni -0.111244 13.8834 7.40376
47 Ni 1.92847 10.3812 6.49145
48 Ni 1.81579 12.2104 8.73028
49 Al 3.82072 2.27985 2.45306
50 Al 5.71954 0.588484 3.88502
51 Al 5.75314 3.74131 0.900013
52 Ni 3.7774 -0.0686985 0.0378989
53 Ni 3.78827 1.86488 5.01032
54 Ni 3.68796 4.73546 2.31079
55 Ni 5.78029 1.22796 1.35735
56 Ni 5.7354 3.16191 3.59142
57 Al 3.79487 1.38488 7.34623
58 Al 5.698 -0.105063 8.86336
59 Al 5.76567 3.05079 5.96266
60 Ni 3.72451 -0.645353 5.04914
61 Ni 3.61404 0.970757 9.8931
62 Ni 3.80728 3.81932 7.33396
63 Ni 5.60444 0.417384 6.36876
64 Ni 5.55867 2.33398 8.49403
65 Al 3.77938 7.14141 2.3009
66 Al 5.6816 5.61911 3.77427
67 Al 5.68304 8.7745 1.04745
68 Ni 3.70114 4.93176 -0.182386
69 Ni 3.72664 6.85633 4.84074
70 Ni 3.76782 9.71501 2.49008
71 Ni 5.77331 6.19143 1.37481
72 Ni 5.59777 8.11417 3.51953
73 Al 3.7114 6.32947 7.34363
74 Al 5.64817 4.79919 8.71859
75 Al 5.66826 8.1427 6.09375
76 Ni 3.82106 4.30815 4.85643
77 Ni 3.73372 6.05173 9.76422
78 Ni 3.76392 8.81407 7.46388
79 Ni 5.73831 5.50535 6.33674
80 Ni 5.59758 7.4017 8.46963
81 Al 3.83251 12.1934 2.5626
82 Al 5.58148 10.4854 3.90085
83 Al 5.58905 13.7845 1.1123
84 Ni 3.87194 10.0994 0.108014
85 Ni 3.8546 11.7336 5.1508
86 Ni 3.69418 14.6871 2.52652
87 Ni 5.68784 11.1391 1.42424
88 Ni 5.63052 13.1081 3.77398
89 Al 3.71405 11.3464 7.64087
90 Al 5.68653 9.8121 8.88726
91 Al 5.59159 12.9588 6.12084
92 Ni 3.70386 9.29272 5.03876
93 Ni 3.80676 11.0415 10.0016
94 Ni 3.66905 13.857 7.40449
95 Ni 5.6846 10.5075 6.41994
96 Ni 5.70662 12.4038 8.70043
97 Al 7.53265 2.31741 2.59394
98 Al 9.48217 0.446794 3.866
99 Al 9.40459 3.73403 1.10459
100 Ni 7.62988 0.0487129 -0.0790325
101 Ni 7.67863 1.76051 4.90476
102 Ni 7.56071 4.64419 2.40196
103 Ni 9.36624 1.21698 1.42926
104 Ni 9.5312 3.00334 3.61569
105 Al 7.51734 1.50038 7.32268
106 Al 9.434 -0.186441 8.82027
107 Al 9.50252 3.04808 6.09722
108 Ni 7.50022 -0.719109 4.86909
109 Ni 7.59689 1.06279 9.91094
110 Ni 7.55755 4.03234 7.49622
111 Ni 9.30277 0.458136 6.43073
112 Ni 9.42561 2.33504 8.46923
113 Al 7.61841 7.22461 2.38354
114 Al 9.55155 5.58334 3.86067
115 Al 9.59874 8.74053 1.07629
116 Ni 7.62095 4.99964 -0.0572077
117 Ni 7.4761 6.75927 4.95197
118 Ni 7.60603 9.69205 2.54913
119 Ni 9.51622 6.24277 1.33374
120 Ni 9.52486 8.13839 3.6127
121 Al 7.54569 6.46878 7.48396
122 Al 9.41513 4.80347 8.76457
123 Al 9.57311 8.05971 6.08281
124 Ni 7.60981 4.3197 4.92311
125 Ni 7.56646 6.09455 9.89071
126 Ni 7.51912 8.92455 7.44962
127 Ni 9.41311 5.55076 6.29327
128 Ni 9.37414 7.34472 8.55018
129 Al 7.54513 12.2433 2.55912
130 Al 9.43328 10.5292 4.01178
131 Al 9.42439 13.8132 1.12
132 Ni 7.64348 9.91103 0.0229348
133 Ni 7.52625 11.7215 4.97502
134 Ni 7.48006 14.6661 2.5195
135 Ni 9.39789 11.1547 1.45744
136 Ni 9.38211 13.127 3.71588
137 Al 7.56817 11.4988 7.58917
138 Al 9.43087 9.84603 8.87159
139 Al 9.35838 13.138 6.05152
140 Ni 7.55807 9.26222 5.03714
141 Ni 7.65162 11.0242 9.94444
142 Ni 7.45055 13.9857 7.38558
143 Ni 9.39526 10.4798 6.49439
144 Ni 9.51951 12.3471 8.62809
ITEM: TIMESTEP
13500
ITEM: NUMBER OF ATOMS
144
ITEM: BOX BOUNDS xy xz yz pp pp pp
-8.3830966873102833e-02 1.1563387648379567e+01 -8.8209904970955738e-03
-1.5090514505826096e+00 1.5035344321026933e+01 9.3317673656095501e-02
3.1555545399166718e-03 9.8995626262001277e+00 -1.4842055527730895e+00
ITEM: ATOMS id element xu yu zu
1 Al -0.0255556 2.08294 2.40046
2 Al 1.89347 0.518699 3.90187
3 Al 1.86266 3.80097 1.05625
4 Ni -0.184107 0.0210727 0.134241
5 Ni -0.0104958 1.87109 4.90579
6 Ni -0.0623985 4.63582 2.40826
7 Ni 1.82313 1.26722 1.29695
8 Ni 1.78249 2.88135 3.52708
9 Al -0.0465942 1.31075 7.41046
10 Al 1.90988 -0.181469 8.77416
11 Al 1.94204 2.89887 6.02287
12 Ni -0.115988 -0.704882 5.03136
13 Ni 0.0155513 1.06657 9.78419
14 Ni -0.0697253 3.82521 7.23527
15 Ni 1.77935 0.310474 6.2195
16 Ni 1.83438 2.28499 8.55694
17 Al -0.108729 7.11933 2.48535
18 Al 1.8805 5.486 3.80206
19 Al 1.85278 8.73795 1.16249
20 Ni 0.00411411 5.12012 -0.0311462
21 Ni -0.128671 6.72539 4.82933
22 Ni -0.079171 9.61439 2.48826
23 Ni 1.84418 6.19695 1.34739
24 Ni 1.70359 7.97842 3.67601
25 Al -0.0263376 6.41873 7.35026
26 Al 1.9738 4.76814 8.73328
27 Al 1.91595 7.93472 6.00319
28 Ni 0.119534 4.2529 4.81298
29 Ni -0.0605158 6.16136 9.96504
30 Ni -0.0364082 8.80868 7.3399
31 Ni 1.8868 5.37643 6.33122
32 Ni 1.91103 7.26367 8.56069
33 Al 0.0309439 12.2201 2.57395
34 Al 1.88324 10.3706 3.90485
35 Al 1.80661 13.8971 1.0925
36 Ni -0.11274 10.104 0.0537057
37 Ni 0.0397884 11.8773 4.95319
38 Ni -0.127409 14.7269 2.67409
39 Ni 1.85698 11.179 1.55502
40 Ni 1.86627 13.2364 3.61823
41 Al -0.019854 11.3568 7.43878
42 Al 1.88916 9.73378 8.8642
43 Al 1.71565 12.9542 6.08792
44 Ni -0.0829819 9.29156 4.92511
45 Ni 0.0348917 11.0778 9.90451
46 Ni 0.0083968 13.839 7.541
47 Ni 1.90371 10.4155 6.37144
48 Ni 1.93619 12.4126 8.52958
49 Al 3.77994 2.23182 2.35734
50 Al 5.78558 0.501968 3.81982
51 Al 5.79474 3.83499 1.04335
52 Ni 3.69913 0.00377362 0.125728
53 Ni 3.71956 1.6476 4.78307
54 Ni 3.79103 4.63525 2.57275
55 Ni 5.56879 1.24872 1.40544
56 Ni 5.66394 3.04773 3.50394
57 Al 3.83771 1.33483 7.34965
58 Al 5.84641 -0.189021 8.88882
59 Al 5.58963 2.83224 5.97334
60 Ni 3.77678 -0.857533 4.96984
61 Ni 3.91353 1.16725 9.87494
62 Ni 3.72438 3.94758 7.41525
63 Ni 5.68897 0.441917 6.3009
64 Ni 5.73214 2.39489 8.54522
65 Al 3.82453 7.14633 2.54092
66 Al 5.75578 5.54922 3.76378
67 Al 5.63552 8.83681 1.00215
68 Ni 3.79366 5.02118 0.0768529
69 Ni 3.8308 6.73738 4.96731
70 Ni 3.8086 9.62689 2.55463
71 Ni 5.61385 6.23228 1.35294
72 Ni 5.76499 8.08301 3.56342
73 Al 3.7812 6.45504 7.46072
74 Al 5.77284 4.77843 8.57843
75 Al 5.78282 7.93982 6.12987
76 Ni 3.69923 4.17668 4.93073
77 Ni 3.87752 5.96066 9.93355
78 Ni 3.88006 8.90317 7.46719
79 Ni 5.70127 5.31086 6.21379
80 Ni 5.93842 7.29218 8.51579
81 Al 3.79138 12.1734 2.60876
82 Al 5.72333 10.5628 4.06977
83 Al 5.49775 13.8147 1.11032
84 Ni 3.69551 9.92196 -0.0131236
85 Ni 3.65747 11.836 5.01991
86 Ni 3.83912 14.7301 2.46568
87 Ni 5.63803 11.2832 1.60449
88 Ni 5.6641 13.1714 3.59811
89 Al 3.75652 11.3934 7.50063
90 Al 5.69477 9.79595 8.9441
91 Al 5.64449 12.9745 6.05269
92 Ni 3.90997 9.20613 4.95914
93 Ni 3.79844 10.9815 10.0704
94 Ni 3.8414 13.9322 7.4872
95 Ni 5.79871 10.3034 6.53324
96 Ni 5.69821 12.2846 8.57842
97 Al 7.62931 2.21159 2.45958
98 Al 9.50606 0.610999 3.84204
99 Al 9.49453 3.73886 0.971442
100 Ni 7.54684 0.0329573 0.139299
101 Ni 7.51262 1.74043 5.00671
102 Ni 7.64452 4.65956 2.40706
103 Ni 9.63632 1.20238 1.30764
104 Ni 9.5419 3.15046 3.39079
105 Al 7.70708 1.22224 7.321
106 Al 9.54357 -0.161447 8.82029
107 Al 9.54089 2.88692 5.88327
108 Ni 7.69911 -0.735541 5.07732
109 Ni 7.59935 1.11659 9.91268
110 Ni 7.64951 3.70149 7.22684
111 Ni 9.62708 0.373524 6.23045
112 Ni 9.57099 2.37346 8.42737
113 Al 7.66708 7.13448 2.28809
114 Al 9.62314 5.51773 3.83605
115 Al 9.55249 8.85754 1.12413
116 Ni 7.5872 5.03426 -0.0871416
117 Ni 7.79935 6.71118 4.94332
118 Ni 7.56772 9.62578 2.51477
119 Ni 9.51063 6.20426 1.24868
120 Ni 9.57236 8.10687 3.54043
121 Al 7.78311 6.23511 7.37188
122 Al 9.56772 4.70114 8.739
123 Al 9.68985 7.99794 6.03633
124 Ni 7.61905 4.2221 4.79581
125 Ni 7.72088 6.12459 9.81835
126 Ni 7.73742 8.87806 7.5327
127 Ni 9.68497 5.34432 6.2142
128 Ni 9.6827 7.30918 8.58226
129 Al 7.63999 12.2535 2.71071
130 Al 9.49884 10.5706 3.94263
131 Al 9.57551 13.7994 1.19741
132 Ni 7.54564 10.1671 0.12386
133 Ni 7.68007 11.8399 5.25709
134 Ni 7.74359 14.72 2.6128
135 Ni 9.5231 11.2801 1.49222
136 Ni 9.68362 13.1382 3.64604
137 Al 7.71032 11.3281 7.72906
138 Al 9.58546 9.82671 8.86987
139 Al 9.63555 13.0189 6.08231
140 Ni 7.65059 9.27307 5.09244
141 Ni 7.62493 11.1809 10.1881
142 Ni 7.73875 13.8347 7.609
143 Ni 9.59359 10.4322 6.3767
144 Ni 9.62989 12.3519 8.65236
ITEM: TIMESTEP
13600
ITEM: NUMBER OF ATOMS
144
ITEM: BOX BOUNDS xy xz yz pp pp pp
-3.6709039425639745e-02 1.1457534985723978e+01 1.6640219371567766e-03
-1.6010636522002282e+00 1.5025104185232278e+01 2.4101926013712111e-02
-3.2277572628371942e-03 9.9059459380028798e+00 -1.5864578901853481e+00
ITEM: ATOMS id element xu yu zu
1 Al -0.0239779 2.14562 2.53311
2 Al 1.95647 0.467236 4.0201
3 Al 1.87674 3.72768 0.965723
4 Ni 0.0273844 0.0605261 -0.0142933
5 Ni -0.0254447 1.5919 4.9075
6 Ni -0.0909306 4.68273 2.52826
7 Ni 1.82065 1.17497 1.41089
8 Ni 1.90216 3.20529 3.53573
9 Al 0.0844062 1.28093 7.49021
10 Al 1.83626 -0.343772 8.84174
11 Al 1.8806 2.99894 5.92175
12 Ni 0.114491 -0.899742 5.06036
13 Ni -0.00760105 0.918365 9.9225
14 Ni 0.0660295 3.82085 7.47723
15 Ni 2.04805 0.452573 6.38
16 Ni 1.89761 2.36435 8.47397
17 Al -0.0160216 7.19312 2.52528
18 Al 1.80017 5.56439 3.85903
19 Al 1.83061 8.78585 1.13369
20 Ni -0.109117 4.98718 0.0402297
21 Ni -0.0747829 6.68446 4.94637
22 Ni -0.0754029 9.61763 2.54059
23 Ni 1.93828 6.18392 1.4616
24 Ni 1.84745 8.0878 3.54774
25 Al -0.118908 6.29403 7.35648
26 Al 1.9699 4.76312 8.81604
27 Al 1.74504 7.84043 6.00562
28 Ni -0.243122 4.16792 5.01099
29 Ni 0.00517887 5.91648 9.7733
30 Ni -0.0974436 8.96552 7.48992
31 Ni 1.98983 5.40752 6.3682
32 Ni 1.87787 7.36925 8.53577
33 Al -0.123135 12.166 2.61995
34 Al 1.84495 10.5246 3.84748
35 Al 1.87981 13.7973 1.10833
36 Ni -0.0329327 10.0461 0.0336896
37 Ni -0.125981 11.6632 5.01108
38 Ni -0.0772645 14.7398 2.42459
39 Ni 1.80752 11.2656 1.22631
40 Ni 1.77084 12.9682 3.7096
41 Al -0.0866291 11.4228 7.4974
42 Al 1.91815 9.74533 8.78023
43 Al 1.81668 12.9355 6.08788
44 Ni -0.0454642 9.11945 4.99633
45 Ni -0.0983882 11.0085 9.99202
46 Ni 0.0349251 13.9422 7.42941
47 Ni 1.83059 10.4039 6.31684
48 Ni 1.84252 12.3048 8.56942
49 Al 3.81832 2.05516 2.47012
50 Al 5.76125 0.46854 3.87078
51 Al 5.64326 3.71551 0.942528
52 Ni 3.8298 -0.066478 0.0224905
53 Ni 3.80958 1.72199 5.04145
54 Ni 3.79324 4.67639 2.42613
55 Ni 5.63565 1.08683 1.23829
56 Ni 5.66176 3.04459 3.54535
57 Al 3.90728 1.24457 7.44171
58 Al 5.81205 -0.303495 8.81306
59 Al 5.77392 2.80575 6.03148
60 Ni 3.82629 -0.885224 4.93982
61 Ni 3.75438 0.816658 9.8641
62 Ni 3.89817 3.81966 7.43822
63 Ni 5.75401 0.258523 6.30475
64 Ni 5.73877 2.14989 8.50145
65 Al 3.93442 7.16755 2.49118
66 Al 5.62159 5.38957 3.84907
67 Al 5.75648 8.79577 1.11135
68 Ni 3.75143 5.05905 -0.0310181
69 Ni 3.7737 6.61309 4.99329
70 Ni 3.74803 9.72764 2.59366
71 Ni 5.7487 6.21769 1.40087
72 Ni 5.6592 8.11384 3.69856
73 Al 3.73122 6.3695 7.51549
74 Al 5.66469 4.65923 8.75478
75 Al 5.51405 8.02112 6.11509
76 Ni 3.8779 4.21878 4.99389
77 Ni 3.83134 6.10086 9.95877
78 Ni 3.82192 8.8173 7.54395
79 Ni 5.67242 5.45186 6.40909
80 Ni 5.58769 7.32647 8.65063
81 Al 3.81142 12.0837 2.44843
82 Al 5.7402 10.4408 3.83731
83 Al 5.56477 13.6642 1.26585
84 Ni 3.80743 10.1105 0.0652783
85 Ni 3.90648 11.6147 4.93283
86 Ni 3.65232 14.6215 2.53526
87 Ni 5.76929 11.2232 1.36945
88 Ni 5.70315 12.9411 3.73503
89 Al 3.79611 11.352 7.40699
90 Al 5.72987 9.77176 8.71649
91 Al 5.64704 12.8412 6.1237
92 Ni 3.6666 9.14666 5.00679
93 Ni 3.83376 11.136 9.8711
94 Ni 3.78469 13.7612 7.44606
95 Ni 5.66715 10.3752 6.27198
96 Ni 5.73834 12.2433 8.68631
97 Al 7.56852 2.2223 2.47423
98 Al 9.47979 0.316085 3.92693
99 Al 9.41856 3.72066 1.05097
100 Ni 7.62872 -0.0533155 -0.0413476
101 Ni 7.63226 1.67875 4.85344
102 Ni 7.52672 4.61579 2.30862
103 Ni 9.41802 1.19168 1.46633
104 Ni 9.42814 3.03876 3.5586
105 Al 7.59027 1.23461 7.33107
106 Al 9.55962 -0.370361 8.93107
107 Al 9.52021 2.75395 6.10114
108 Ni 7.60143 -0.85304 5.00199
109 Ni 7.6299 0.900964 9.83375
110 Ni 7.61372 3.85197 7.37014
111 Ni 9.47763 0.316876 6.45551
112 Ni 9.53818 2.1559 8.46376
113 Al 7.61932 7.11963 2.50558
114 Al 9.47664 5.51157 3.80893
115 Al 9.58145 8.75724 1.04536
116 Ni 7.61752 5.00352 -0.0795939
117 Ni 7.45135 6.76913 4.86148
118 Ni 7.69565 9.69698 2.56855
119 Ni 9.48848 6.2582 1.37932
120 Ni 9.50649 8.02323 3.57529
121 Al 7.56661 6.2819 7.49867
122 Al 9.45591 4.64043 8.79327
123 Al 9.53653 7.92939 5.98109
124 Ni 7.59305 4.27078 4.92252
125 Ni 7.633 5.90158 9.96159
126 Ni 7.57285 8.69948 7.42193
127 Ni 9.40737 5.41285 6.2751
128 Ni 9.4999 7.32686 8.36474
129 Al 7.62283 12.1797 2.51364
130 Al 9.55038 10.4255 3.96658
131 Al 9.50522 13.8114 1.1853
132 Ni 7.65308 9.95688 0.0238625
133 Ni 7.65859 11.6541 4.91951
134 Ni 7.48549 14.5604 2.51728
135 Ni 9.4632 11.1735 1.41105
136 Ni 9.44881 13.0417 3.69203
137 Al 7.63649 11.1936 7.50494
138 Al 9.50891 9.72905 8.87395
139 Al 9.55683 12.9212 6.10879
140 Ni 7.6452 9.2268 4.89416
141 Ni 7.66505 10.9002 9.89259
142 Ni 7.59484 13.7577 7.41127
143 Ni 9.58217 10.2814 6.43783
144 Ni 9.48 12.2122 8.58617
ITEM: TIMESTEP
13700
ITEM: NUMBER OF ATOMS
144
ITEM: BOX BOUNDS xy xz yz pp pp pp
-1.2414970664085707e-01 1.1477246382465244e+01 3.6515207225937887e-02
-1.6920861533595770e+00 1.5048411624640462e+01 -7.8478529749001671e-02
4.5030289515493038e-03 9.8982151517885058e+00 -1.6541729519365151e+00
ITEM: ATOMS id element xu yu zu
1 Al -0.0712533 1.97467 2.50695
2 Al 1.85801 0.428863 3.91549
3 Al 1.80495 3.63155 1.17957
4 Ni -0.127878 -0.157107 0.0433506
5 Ni -0.123509 1.73183 4.999
6 Ni -0.0295896 4.62717 2.59349
7 Ni 1.83099 1.10312 1.3596
8 Ni 1.82531 2.89669 3.72176
9 Al -0.127551 1.33458 7.60469
10 Al 1.62616 -0.474144 8.85053
11 Al 1.79779 2.81942 6.09001
12 Ni -0.226344 -0.850662 4.90744
13 Ni -0.153144 0.818194 9.92962
14 Ni -0.185834 3.81586 7.56313
15 Ni 1.62419 0.186264 6.3413
16 Ni 1.82928 2.10784 8.65335
17 Al -0.0633195 7.20779 2.55423
18 Al 1.81358 5.48541 3.79242
19 Al 1.77776 8.72212 1.12989
20 Ni 0.00119045 4.93571 0.048474
21 Ni -0.0576735 6.66166 4.89667
22 Ni -0.0539485 9.65926 2.4283
23 Ni 1.76726 6.17924 1.29317
24 Ni 1.84383 8.088 3.61401
25 Al -0.137966 6.20624 7.45281
26 Al 1.81292 4.62741 8.70684
27 Al 1.69988 7.81556 5.98468
28 Ni 0.10629 4.1605 4.98676
29 Ni -0.0706535 5.84857 9.9316
30 Ni -0.0273761 8.63357 7.48805
31 Ni 1.76971 5.35108 6.28575
32 Ni 1.89896 7.19579 8.54627
33 Al -0.151254 12.1518 2.60894
34 Al 1.79213 10.536 3.93963
35 Al 1.9157 13.7058 1.0731
36 Ni -0.0491254 9.94533 -0.00930415
37 Ni -0.0459037 11.7551 5.02141
38 Ni -0.0247812 14.5212 2.40834
39 Ni 1.89227 11.0845 1.61713
40 Ni 1.96496 13.1663 3.44397
41 Al -0.138283 11.2361 7.46036
42 Al 1.82376 9.55169 8.98372
43 Al 1.74366 13.0114 5.96915
44 Ni -0.0944438 9.2185 5.03401
45 Ni -0.131539 10.7825 9.84606
46 Ni -0.131533 13.7031 7.4123
47 Ni 1.836 10.3868 6.45163
48 Ni 1.89746 12.2587 8.56566
49 Al 3.74251 1.95575 2.55848
50 Al 5.72976 0.495605 3.9826
51 Al 5.80345 3.66617 1.18645
52 Ni 3.68567 0.0161905 -0.0444066
53 Ni 3.74301 1.72198 4.95699
54 Ni 3.70608 4.55028 2.46677
55 Ni 5.71845 1.21386 1.5251
56 Ni 5.733 3.00178 3.65946
57 Al 3.65303 1.23707 7.39142
58 Al 5.60112 -0.30301 8.9801
59 Al 5.67378 2.81066 6.13765
60 Ni 3.66486 -0.698839 5.03503
61 Ni 3.77872 0.989494 10.0095
62 Ni 3.67066 3.7354 7.35169
63 Ni 5.6194 0.427163 6.38717
64 Ni 5.68686 2.28209 8.54221
65 Al 3.7173 7.02543 2.456
66 Al 5.60729 5.39994 3.92975
67 Al 5.66638 8.61254 1.00825
68 Ni 3.82024 4.97719 -0.0459894
69 Ni 3.72407 6.80736 4.9241
70 Ni 3.72953 9.51728 2.41286
71 Ni 5.60916 6.08649 1.48342
72 Ni 5.61052 8.03465 3.53987
73 Al 3.74156 6.16773 7.3816
74 Al 5.55696 4.64733 8.80132
75 Al 5.54493 7.97618 6.08878
76 Ni 3.69591 4.24304 4.85554
77 Ni 3.67612 5.77843 9.8737
78 Ni 3.68158 8.8361 7.45632
79 Ni 5.73032 5.32506 6.32346
80 Ni 5.58165 7.20825 8.50741
81 Al 3.85696 12.0199 2.35383
82 Al 5.65414 10.4419 3.77278
83 Al 5.67604 13.7941 0.916163
84 Ni 3.68938 9.90475 0.0395774
85 Ni 3.71696 11.7097 4.88774
86 Ni 3.87754 14.5944 2.40716
87 Ni 5.66914 11.0712 1.26223
88 Ni 5.71512 13.1901 3.34157
89 Al 3.78428 11.3798 7.40795
90 Al 5.62305 9.71146 8.61292
91 Al 5.56009 13.0247 5.85902
92 Ni 3.85776 9.35152 4.88476
93 Ni 3.70759 10.8175 9.84331
94 Ni 3.74343 13.9232 7.44033
95 Ni 5.61253 10.4046 6.22704
96 Ni 5.65318 12.3102 8.30885
97 Al 7.69484 2.14831 2.65188
98 Al 9.52948 0.429481 3.82086
99 Al 9.44959 3.63964 1.25766
100 Ni 7.62622 0.0596914 0.0377613
101 Ni 7.54479 1.59019 5.03336
102 Ni 7.63034 4.5232 2.65615
103 Ni 9.56183 1.08086 1.31872
104 Ni 9.51427 2.94279 3.69412
105 Al 7.57285 1.27056 7.48349
106 Al 9.51752 -0.335393 8.8276
107 Al 9.49659 2.92018 6.15345
108 Ni 7.50985 -0.86072 4.8449
109 Ni 7.58506 0.735842 10.0188
110 Ni 7.5429 3.83982 7.63497
111 Ni 9.49088 0.402675 6.22817
112 Ni 9.42513 2.26993 8.76615
113 Al 7.59468 6.96585 2.65711
114 Al 9.57176 5.413 3.99701
115 Al 9.48655 8.66473 1.20486
116 Ni 7.64628 4.96642 0.181978
117 Ni 7.71302 6.58689 5.20218
118 Ni 7.54633 9.54305 2.35062
119 Ni 9.45078 6.04288 1.45269
120 Ni 9.53691 8.06389 3.61254
121 Al 7.58289 6.32307 7.60157
122 Al 9.36857 4.71454 8.96633
123 Al 9.54924 8.03053 6.12537
124 Ni 7.54415 4.06448 5.0768
125 Ni 7.50578 5.77231 9.99994
126 Ni 7.6369 8.99848 7.46016
127 Ni 9.48545 5.42613 6.53143
128 Ni 9.56845 7.11045 8.66246
129 Al 7.55033 12.0009 2.35509
130 Al 9.47142 10.4772 3.78624
131 Al 9.51969 13.7268 1.11236
132 Ni 7.61737 9.92975 -0.154493
133 Ni 7.45294 11.7302 4.8023
134 Ni 7.71374 14.6627 2.50229
135 Ni 9.59122 11.1389 1.29221
136 Ni 9.47604 13.09 3.48099
137 Al 7.5256 11.3566 7.40771
138 Al 9.52693 9.65937 8.72929
139 Al 9.48001 12.93 5.93414
140 Ni 7.52128 9.19727 4.85881
141 Ni 7.56705 10.8206 9.73756
142 Ni 7.59783 13.9598 7.41354
143 Ni 9.41947 10.4802 6.21484
144 Ni 9.47246 12.2799 8.44575
ITEM: TIMESTEP
13800
ITEM: NUMBER OF ATOMS
144
ITEM: BOX BOUNDS xy xz yz pp pp pp
-1.0763066324742233e-01 1.1577977358945542e+01 8.5362560723314065e-02
-1.6623329064669738e+00 1.5016716059020137e+01 -1.0075863372655331e-02
9.3851834176641447e-03 9.8933329973223874e+00 -1.6561152706642333e+00
ITEM: ATOMS id element xu yu zu
1 Al -0.184091 1.95655 2.53042
2 Al 1.87474 0.428501 3.8434
3 Al 1.79795 3.58179 1.14324
4 Ni -0.0702924 0.0436173 -0.216734
5 Ni -0.107756 1.68471 5.1218
6 Ni -0.0764529 4.40597 2.64085
7 Ni 1.88475 1.07894 1.42331
8 Ni 1.82758 3.06994 3.62417
9 Al -0.164026 1.15449 7.57598
10 Al 1.87675 -0.464751 8.80211
11 Al 1.8133 2.94407 6.05707
12 Ni -0.0569492 -0.795096 4.8389
13 Ni -0.109516 0.724154 10.0166
14 Ni -0.0673357 3.64697 7.51283
15 Ni 1.91856 0.477068 6.35083
16 Ni 1.65457 2.06794 8.57722
17 Al -0.0158299 7.02607 2.64277
18 Al 1.78671 5.38886 4.00616
19 Al 1.87866 8.69044 1.11838
20 Ni -0.152717 4.97184 0.147094
21 Ni -0.0139777 6.79453 5.1159
22 Ni -0.0417243 9.42692 2.59289
23 Ni 1.87488 6.0058 1.52986
24 Ni 1.89248 7.9096 3.54769
25 Al -0.0884316 6.19905 7.41795
26 Al 1.75001 4.62576 8.84414
27 Al 1.76874 7.86239 6.04018
28 Ni -0.181361 4.25964 5.12643
29 Ni -0.0833733 5.78927 10.0012
30 Ni -0.103979 8.86269 7.36523
31 Ni 1.80487 5.39126 6.39111
32 Ni 1.80377 7.13299 8.51232
33 Al -0.084304 12.0285 2.34284
34 Al 1.91486 10.5782 3.64854
35 Al 1.87522 13.7518 0.998524
36 Ni -0.00112098 9.98151 0.0701113
37 Ni -0.124218 11.7562 4.73872
38 Ni -0.099817 14.5893 2.46044
39 Ni 1.98884 11.1554 1.08165
40 Ni 1.82157 12.9915 3.61304
41 Al -0.11682 11.3063 7.23573
42 Al 1.93839 9.60984 8.56869
43 Al 1.81879 13.0713 6.02573
44 Ni -0.0840505 9.294 4.94579
45 Ni 0.00168043 10.8901 9.81408
46 Ni -0.0469047 13.8455 7.30721
47 Ni 1.86435 10.4057 6.13504
48 Ni 1.78207 12.1425 8.30623
49 Al 3.72766 1.97647 2.67026
50 Al 5.72999 0.495707 3.97807
51 Al 5.71966 3.5947 1.29731
52 Ni 3.80451 -0.102544 -0.0229824
53 Ni 3.73828 1.74336 5.19312
54 Ni 3.86004 4.50615 2.6829
55 Ni 5.67875 1.04668 1.29578
56 Ni 5.69223 2.99536 3.70499
57 Al 3.641 1.35014 7.50607
58 Al 5.61506 -0.315966 8.83269
59 Al 5.74803 2.97581 6.18903
60 Ni 3.77602 -0.766561 4.80476
61 Ni 3.67578 0.709454 9.99975
62 Ni 3.7794 3.80738 7.67543
63 Ni 5.65777 0.423105 6.34778
64 Ni 5.5897 2.16183 8.76137
65 Al 3.70003 6.94632 2.47112
66 Al 5.79439 5.40954 3.9598
67 Al 5.62541 8.67111 1.08725
68 Ni 3.73385 4.88693 0.193138
69 Ni 3.89193 6.65954 4.89309
70 Ni 3.82283 9.64962 2.50167
71 Ni 5.80525 6.15308 1.45371
72 Ni 5.69874 8.00452 3.62762
73 Al 3.83477 6.21042 7.50529
74 Al 5.73746 4.63256 8.90421
75 Al 5.63607 7.91736 5.99709
76 Ni 3.81658 4.21472 5.14867
77 Ni 3.78581 5.73342 9.80929
78 Ni 3.9516 8.80524 7.35114
79 Ni 5.8172 5.46474 6.45966
80 Ni 5.75336 7.25927 8.52682
81 Al 3.6884 12.1648 2.31074
82 Al 5.72377 10.4472 3.88634
83 Al 5.71414 13.6135 1.10811
84 Ni 3.84729 10.0602 -0.0977919
85 Ni 3.90468 11.8759 4.91652
86 Ni 3.77319 14.6603 2.40408
87 Ni 5.66584 11.2059 1.34486
88 Ni 5.78576 12.9802 3.56316
89 Al 3.79222 11.1973 7.38094
90 Al 5.8459 9.62325 8.59852
91 Al 5.78913 12.9926 5.96352
92 Ni 3.82577 9.17088 5.01
93 Ni 3.82742 10.8319 9.82411
94 Ni 3.80991 13.7066 7.29716
95 Ni 5.82262 10.4976 6.21701
96 Ni 5.70878 12.2277 8.46646
97 Al 7.59194 2.08694 2.66602
98 Al 9.57633 0.427407 3.99331
99 Al 9.4547 3.72458 1.16099
100 Ni 7.5729 -0.101689 -0.148005
101 Ni 7.59031 1.78618 5.0819
102 Ni 7.68024 4.55254 2.66042
103 Ni 9.52712 1.07066 1.41947
104 Ni 9.60506 3.05397 3.68057
105 Al 7.50196 1.34497 7.50976
106 Al 9.47011 -0.364017 8.94331
107 Al 9.6172 2.82157 6.11053
108 Ni 7.6536 -0.647822 4.89964
109 Ni 7.5798 0.898213 10.0383
110 Ni 7.62396 3.83901 7.54811
111 Ni 9.40053 0.315777 6.47684
112 Ni 9.5969 2.09765 8.58151
113 Al 7.65581 7.10197 2.46559
114 Al 9.61421 5.60415 3.87451
115 Al 9.65565 8.75137 1.16822
116 Ni 7.62712 5.01912 0.0900319
117 Ni 7.59226 6.78555 4.85796
118 Ni 7.63579 9.57758 2.41869
119 Ni 9.61798 6.126 1.53544
120 Ni 9.66032 7.97633 3.66134
121 Al 7.68711 6.2523 7.51505
122 Al 9.52533 4.65866 8.95867
123 Al 9.58926 7.90847 6.08758
124 Ni 7.67445 4.31758 5.07118
125 Ni 7.69324 5.93101 9.99288
126 Ni 7.62178 8.8212 7.3298
127 Ni 9.48609 5.26461 6.47386
128 Ni 9.66659 7.32384 8.52692
129 Al 7.65651 11.9893 2.36397
130 Al 9.5918 10.4218 3.75841
131 Al 9.67567 13.7642 1.03344
132 Ni 7.6442 10.0778 0.0356429
133 Ni 7.77445 11.7943 4.81923
134 Ni 7.65431 14.5466 2.34756
135 Ni 9.61758 11.1248 1.32496
136 Ni 9.63713 12.9553 3.44679
137 Al 7.6426 11.3333 7.38609
138 Al 9.56961 9.69272 8.74889
139 Al 9.6864 12.927 5.92255
140 Ni 7.7151 9.27184 4.93043
141 Ni 7.58184 10.8799 9.6968
142 Ni 7.62477 13.8839 7.45394
143 Ni 9.55352 10.3587 6.22234
144 Ni 9.60771 12.135 8.37211
ITEM: TIMESTEP
13900
ITEM: NUMBER OF ATOMS
144
ITEM: BOX BOUNDS xy xz yz pp pp pp
-5.5632393328806096e-02 1.1540830513809583e+01 1.6290864083702856e-02
-1.6261570717069429e+00 1.5008621767174759e+01 7.3847258049614686e-02
1.6864217359803924e-02 9.8858539633802671e+00 -1.6280337277495802e+00
ITEM: ATOMS id element xu yu zu
1 Al -0.152975 2.13914 2.51058
2 Al 1.85831 0.425407 3.83881
3 Al 1.82203 3.73233 1.29939
4 Ni -0.117379 0.00907341 0.121287
5 Ni -0.0196813 1.74194 4.98345
6 Ni -0.109635 4.72703 2.57365
7 Ni 1.76535 1.20522 1.39742
8 Ni 1.90259 2.98149 3.78696
9 Al 0.0186509 1.36816 7.51287
10 Al 1.8133 -0.27857 8.87605
11 Al 1.94892 2.82885 6.23047
12 Ni -0.0840637 -0.741734 5.04522
13 Ni -0.0181101 0.872325 9.89556
14 Ni 0.0108073 3.8084 7.55384
15 Ni 1.94419 0.29351 6.41302
16 Ni 2.05238 2.24212 8.69793
17 Al -0.0286027 7.23877 2.68404
18 Al 1.81237 5.3725 4.19023
19 Al 1.82532 8.69845 1.12202
20 Ni -0.0358886 5.01826 0.11954
21 Ni -0.0682546 6.64219 4.9917
22 Ni -0.0178099 9.64809 2.23893
23 Ni 1.91504 6.22225 1.61003
24 Ni 1.87592 8.05639 3.63782
25 Al 0.0312823 6.36631 7.43223
26 Al 1.89624 4.77804 8.95409
27 Al 1.72694 7.89922 6.112
28 Ni 0.036765 4.13703 5.0728
29 Ni 0.0357199 5.91023 9.99656
30 Ni -0.0213339 8.71491 7.38631
31 Ni 1.95487 5.42386 6.60672
32 Ni 1.88277 7.29169 8.57443
33 Al -0.080479 12.1595 2.23104
34 Al 1.84067 10.5999 3.64803
35 Al 1.89136 13.7189 1.00889
36 Ni -0.140467 10.0747 -0.103607
37 Ni 0.0607321 11.7346 4.80586
38 Ni 0.00161015 14.5269 2.43031
39 Ni 1.9066 11.1241 1.33353
40 Ni 1.8679 13.0764 3.29868
41 Al 0.0699901 11.3119 7.19791
42 Al 1.98042 9.76138 8.76894
43 Al 1.90539 12.9314 5.92594
44 Ni 0.00323681 9.10108 4.8709
45 Ni -0.0286723 10.8947 9.53827
46 Ni 0.0453474 13.6947 7.47148
47 Ni 1.97617 10.38 6.30374
48 Ni 1.95427 12.2648 8.41504
49 Al 3.63789 2.1016 2.54035
50 Al 5.65361 0.466154 3.90512
51 Al 5.62096 3.64747 1.25533
52 Ni 3.68575 0.038202 -0.107864
53 Ni 3.86517 1.65461 4.89429
54 Ni 3.64403 4.69666 2.70251
55 Ni 5.59718 1.2186 1.42465
56 Ni 5.70552 3.06047 3.75137
57 Al 3.80114 1.3432 7.38459
58 Al 5.79324 -0.425535 8.84821
59 Al 5.76325 2.90431 6.20261
60 Ni 3.81854 -0.908789 4.95593
61 Ni 3.8954 0.81319 9.94438
62 Ni 3.81318 3.88061 7.67611
63 Ni 5.75558 0.300302 6.30706
64 Ni 5.82517 2.25002 8.63444
65 Al 3.78739 7.15957 2.63914
66 Al 5.74455 5.5916 3.90556
67 Al 5.81055 8.67994 1.15666
68 Ni 3.74974 5.10617 0.225964
69 Ni 3.76759 6.74831 5.12074
70 Ni 3.83827 9.6055 2.34658
71 Ni 5.77941 6.15825 1.41277
72 Ni 5.81067 8.12967 3.55996
73 Al 3.81785 6.30253 7.61904
74 Al 5.74989 4.62501 8.89323
75 Al 5.64692 7.88063 6.01403
76 Ni 3.78026 4.18944 5.20364
77 Ni 3.95597 5.84869 10.0677
78 Ni 3.74332 8.86892 7.4254
79 Ni 5.65875 5.37331 6.38839
80 Ni 5.73738 7.17937 8.53873
81 Al 3.75997 12.0747 2.23955
82 Al 5.71723 10.513 3.91097
83 Al 5.67275 13.7582 1.02752
84 Ni 3.75971 9.84412 -0.0352777
85 Ni 3.75333 11.6284 4.7545
86 Ni 3.74729 14.5347 2.41871
87 Ni 5.77385 11.1844 1.38266
88 Ni 5.75953 13.0483 3.54346
89 Al 3.86863 11.2833 7.42156
90 Al 5.86445 9.52872 8.77154
91 Al 5.66785 12.8709 5.98091
92 Ni 3.87658 9.08366 4.81209
93 Ni 3.80869 10.8577 9.76883
94 Ni 3.829 13.9049 7.40113
95 Ni 5.69226 10.2858 6.29556
96 Ni 5.83643 12.1733 8.47597
97 Al 7.46617 2.12422 2.57191
98 Al 9.53365 0.479748 3.94514
99 Al 9.45393 3.72577 1.1935
100 Ni 7.5964 -0.0149771 0.0877304
101 Ni 7.56366 1.59929 5.03405
102 Ni 7.5706 4.5639 2.45659
103 Ni 9.52652 1.14493 1.45248
104 Ni 9.40506 2.92865 3.6591
105 Al 7.67524 1.20792 7.37444
106 Al 9.61221 -0.256996 8.83719
107 Al 9.60266 2.96988 6.04541
108 Ni 7.53245 -0.891461 4.9354
109 Ni 7.60469 0.868858 9.90721
110 Ni 7.66879 3.76567 7.45031
111 Ni 9.62296 0.476094 6.30361
112 Ni 9.58847 2.17725 8.58989
113 Al 7.60802 7.11216 2.50238
114 Al 9.43797 5.48116 3.74683
115 Al 9.53391 8.73731 1.07412
116 Ni 7.6648 4.94196 0.0317799
117 Ni 7.71734 6.6614 5.10228
118 Ni 7.74344 9.63076 2.48164
119 Ni 9.50651 6.13217 1.3582
120 Ni 9.4815 8.0954 3.50345
121 Al 7.57594 6.12264 7.39776
122 Al 9.60101 4.76924 8.80499
123 Al 9.60565 8.02102 6.01129
124 Ni 7.53033 4.17779 4.99038
125 Ni 7.69201 5.76616 9.85295
126 Ni 7.71712 8.85301 7.40932
127 Ni 9.62582 5.43117 6.35987
128 Ni 9.42738 7.19234 8.5527
129 Al 7.66437 12.0938 2.52593
130 Al 9.655 10.5529 3.7754
131 Al 9.53728 13.7844 1.07314
132 Ni 7.65471 9.9958 0.0217592
133 Ni 7.59868 11.6393 4.91628
134 Ni 7.65928 14.5919 2.49499
135 Ni 9.45668 11.1605 1.29831
136 Ni 9.69247 13.1262 3.46665
137 Al 7.68922 11.2217 7.44278
138 Al 9.54593 9.68595 8.67764
139 Al 9.6173 12.8939 5.90898
140 Ni 7.66344 9.17832 4.90317
141 Ni 7.70839 10.8744 9.94716
142 Ni 7.70955 13.7048 7.31857
143 Ni 9.59272 10.3902 6.24638
144 Ni 9.62344 12.3129 8.39326
ITEM: TIMESTEP
14000
ITEM: NUMBER OF ATOMS
144
ITEM: BOX BOUNDS xy xz yz pp pp pp
-1.4920840635989724e-01 1.1435923188736069e+01 -1.1604734531340605e-01
-1.6557776888291256e+00 1.5066767332745329e+01 7.7021293421141064e-03
-1.8028564685876880e-02 9.9207467454259586e+00 -1.5995087793011933e+00
ITEM: ATOMS id element xu yu zu
1 Al -0.104586 2.03312 2.49277
2 Al 1.86319 0.468186 3.74203
3 Al 1.81955 3.76005 1.17444
4 Ni -0.0458536 -0.0116419 -0.0190878
5 Ni -0.0843757 1.59023 5.01552
6 Ni -0.0193728 4.60379 2.55225
7 Ni 1.87973 1.1459 1.42187
8 Ni 1.84186 3.05275 3.47983
9 Al -0.12997 1.35521 7.53326
10 Al 1.8233 -0.365137 8.95948
11 Al 1.79178 2.81087 6.00553
12 Ni 0.0140183 -0.971394 4.90252
13 Ni 0.0216202 0.940486 10.0558
14 Ni -0.0210562 3.79935 7.49124
15 Ni 1.77751 0.366873 6.3257
16 Ni 1.74801 2.23558 8.4871
17 Al -0.161563 7.19548 2.49552
18 Al 1.81248 5.43548 3.91754
19 Al 1.68736 8.8334 1.10439
20 Ni -0.0491446 5.02587 0.0776576
21 Ni -0.0919645 6.757 4.93273
22 Ni -0.227447 9.63078 2.52129
23 Ni 1.80018 6.21376 1.3417
24 Ni 1.70767 8.03412 3.52903
25 Al -0.0377533 6.30575 7.29808
26 Al 1.90371 4.68053 8.82986
27 Al 1.72648 7.93479 6.06453
28 Ni -0.105199 4.14149 4.95618
29 Ni -0.148716 5.94934 9.87078
30 Ni -0.124974 8.90273 7.31974
31 Ni 1.75181 5.25428 6.25867
32 Ni 1.79232 7.25414 8.59575
33 Al -0.101666 12.2429 2.59203
34 Al 1.72395 10.523 3.71387
35 Al 1.76471 13.8095 1.23351
36 Ni -0.151478 10.0102 0.0215532
37 Ni -0.154319 11.6826 4.93163
38 Ni -0.186711 14.8349 2.48552
39 Ni 1.71482 11.2853 1.28351
40 Ni 1.8105 13.0149 3.67268
41 Al -0.125127 11.4983 7.44085
42 Al 1.8433 9.86883 8.72373
43 Al 1.78378 12.9766 6.06411
44 Ni -0.200225 9.25662 5.01319
45 Ni -0.130708 10.9656 10.11
46 Ni -0.137314 14.0075 7.35323
47 Ni 1.71481 10.3838 6.25509
48 Ni 1.72457 12.3294 8.50164
49 Al 3.7156 2.08716 2.36368
50 Al 5.60143 0.498858 3.92028
51 Al 5.73323 3.66148 1.06026
52 Ni 3.85178 -0.0150404 0.108771
53 Ni 3.67124 1.65777 5.09772
54 Ni 3.85416 4.51852 2.44871
55 Ni 5.7608 1.14286 1.34054
56 Ni 5.6007 2.9197 3.44864
57 Al 3.66987 1.1552 7.45629
58 Al 5.63431 -0.356405 8.90378
59 Al 5.65775 2.78469 5.95961
60 Ni 3.78582 -0.802509 5.00029
61 Ni 3.71442 0.995571 9.94793
62 Ni 3.71045 3.6425 7.29687
63 Ni 5.65777 0.278137 6.36038
64 Ni 5.63506 2.1952 8.48012
65 Al 3.63949 7.11734 2.6199
66 Al 5.67774 5.39158 3.93524
67 Al 5.58151 8.70211 1.205
68 Ni 3.77533 5.01773 -0.0295018
69 Ni 3.80201 6.52932 5.04151
70 Ni 3.70245 9.63561 2.50122
71 Ni 5.4873 6.22563 1.49971
72 Ni 5.67478 7.89044 3.6658
73 Al 3.65809 6.18852 7.50454
74 Al 5.57254 4.67057 8.96221
75 Al 5.54563 7.85708 6.00829
76 Ni 3.74292 4.08173 4.88049
77 Ni 3.69686 6.03476 10.0142
78 Ni 3.77332 8.77077 7.38255
79 Ni 5.6631 5.16677 6.48653
80 Ni 5.74891 7.2532 8.57919
81 Al 3.62273 12.0632 2.31237
82 Al 5.61378 10.5851 3.92403
83 Al 5.64809 13.7821 1.02105
84 Ni 3.72358 10.1931 0.0170395
85 Ni 3.72376 11.7032 4.98899
86 Ni 3.63783 14.6924 2.53127
87 Ni 5.63542 11.2535 1.28679
88 Ni 5.46107 13.0997 3.54153
89 Al 3.6862 11.256 7.40205
90 Al 5.6585 9.71453 8.73539
91 Al 5.66519 13.0521 5.92011
92 Ni 3.72882 9.21255 4.96532
93 Ni 3.67926 11.1077 9.91877
94 Ni 3.69804 13.8007 7.44544
95 Ni 5.56243 10.4131 6.25713
96 Ni 5.50593 12.3636 8.49512
97 Al 7.56355 2.22712 2.53467
98 Al 9.43744 0.465826 3.81996
99 Al 9.52366 3.79183 1.15634
100 Ni 7.59544 0.0113004 -0.00590741
101 Ni 7.65166 1.69075 4.90295
102 Ni 7.56473 4.59248 2.6339
103 Ni 9.57751 1.21817 1.30636
104 Ni 9.55132 3.09141 3.60055
105 Al 7.62175 1.21211 7.37526
106 Al 9.57535 -0.356155 8.84085
107 Al 9.55145 2.77527 6.05284
108 Ni 7.73454 -0.889978 4.96981
109 Ni 7.65654 0.879943 10.0089
110 Ni 7.48039 3.71698 7.46136
111 Ni 9.51926 0.236639 6.37187
112 Ni 9.50905 2.21778 8.59023
113 Al 7.53547 7.09768 2.44696
114 Al 9.42085 5.49407 3.86429
115 Al 9.36248 8.87548 1.12021
116 Ni 7.48962 5.06548 0.172062
117 Ni 7.48622 6.66475 4.85227
118 Ni 7.41107 9.68486 2.46093
119 Ni 9.44245 6.15055 1.41275
120 Ni 9.42915 8.03764 3.67695
121 Al 7.55263 6.12937 7.35405
122 Al 9.42213 4.76631 8.91348
123 Al 9.43161 7.84813 6.0837
124 Ni 7.61512 4.06621 5.08153
125 Ni 7.52678 5.98094 9.96152
126 Ni 7.50893 8.67292 7.49287
127 Ni 9.46654 5.23089 6.45623
128 Ni 9.54874 7.28179 8.5215
129 Al 7.46552 12.2663 2.39153
130 Al 9.29797 10.5513 3.77329
131 Al 9.41203 13.9387 1.16822
132 Ni 7.47187 10.0482 -0.126539
133 Ni 7.50697 11.7673 4.93828
134 Ni 7.47668 14.779 2.45631
135 Ni 9.43447 11.2845 1.34288
136 Ni 9.37321 12.9922 3.66311
137 Al 7.48727 11.3268 7.4151
138 Al 9.40676 9.66678 8.74029
139 Al 9.43541 12.9077 6.11928
140 Ni 7.46859 9.23988 4.98708
141 Ni 7.48893 10.9187 9.78757
142 Ni 7.44607 13.9309 7.44977
143 Ni 9.40222 10.3535 6.3044
144 Ni 9.38262 12.1552 8.60292
ITEM: TIMESTEP
14100
ITEM: NUMBER OF ATOMS
144
ITEM: BOX BOUNDS xy xz yz pp pp pp
-1.0389211475779009e-01 1.1432691552677793e+01 -3.1112410069440374e-02
-1.4895146659765519e+00 1.5005031050385220e+01 -3.5148150358019430e-02
-5.7465882382929934e-03 9.9084647689783818e+00 -1.4949820388087183e+00
ITEM: ATOMS id element xu yu zu
1 Al -0.0618741 2.0958 2.41275
2 Al 1.79793 0.575293 3.73997
3 Al 1.72666 3.66256 1.09692
4 Ni -0.0615799 0.0761737 -0.0517241
5 Ni -0.0722887 1.76847 4.87902
6 Ni -0.0767423 4.65517 2.37128
7 Ni 1.80289 1.26804 1.28482
8 Ni 1.94572 2.99511 3.5855
9 Al -0.136072 1.3623 7.35363
10 Al 1.78187 -0.228798 8.81421
11 Al 1.83907 2.95714 6.04604
12 Ni -0.105119 -0.828566 5.02755
13 Ni -0.209392 0.993742 9.75415
14 Ni -0.196923 3.79607 7.33387
15 Ni 1.86445 0.356207 6.375
16 Ni 1.82234 2.29339 8.43593
17 Al -0.0734149 7.22935 2.55757
18 Al 1.8353 5.51887 3.74556
19 Al 1.76201 8.80979 1.04423
20 Ni -0.135455 5.00772 -0.0866353
21 Ni 0.0437041 6.63042 4.96115
22 Ni 0.0129373 9.7072 2.57548
23 Ni 1.83915 6.169 1.20281
24 Ni 1.89304 8.08715 3.59829
25 Al -0.129753 6.24637 7.39117
26 Al 1.81801 4.70196 8.70103
27 Al 1.70812 7.99312 6.14773
28 Ni -0.00958802 4.2499 4.94408
29 Ni -0.0169191 6.04612 9.91013
30 Ni -0.101294 8.76396 7.51856
31 Ni 1.89209 5.47494 6.28696
32 Ni 1.85519 7.23476 8.48379
33 Al -0.0728552 12.1004 2.72516
34 Al 1.77164 10.5213 4.09189
35 Al 1.88849 13.7596 1.21484
36 Ni -0.0664066 10.027 0.146656
37 Ni -0.133315 11.7148 5.18673
38 Ni -0.0515105 14.548 2.47548
39 Ni 1.81957 11.2429 1.57975
40 Ni 1.75183 13.1684 3.6423
41 Al -0.0916506 11.283 7.59007
42 Al 1.82436 9.8747 8.96649
43 Al 1.74708 12.8924 6.11465
44 Ni -0.00548344 9.17023 4.99884
45 Ni -0.116474 11.1274 9.99996
46 Ni -0.193513 13.6433 7.49559
47 Ni 1.80458 10.3162 6.53265
48 Ni 1.79765 12.2662 8.63161
49 Al 3.85057 2.19436 2.34983
50 Al 5.62544 0.58945 3.87999
51 Al 5.69514 3.78943 1.16934
52 Ni 3.78178 0.075542 0.0351935
53 Ni 3.87082 1.71552 4.88635
54 Ni 3.64743 4.62051 2.27797
55 Ni 5.68721 1.20741 1.40522
56 Ni 5.83952 3.17279 3.68102
57 Al 3.82727 1.38723 7.3229
58 Al 5.63582 -0.295864 8.85487
59 Al 5.69724 3.04713 6.11811
60 Ni 3.77864 -0.799351 4.98226
61 Ni 3.82655 1.07227 9.89737
62 Ni 3.77178 3.91647 7.36427
63 Ni 5.68434 0.447283 6.37991
64 Ni 5.64106 2.38964 8.59436
65 Al 3.79491 7.1723 2.28174
66 Al 5.58524 5.69068 3.75521
67 Al 5.62836 8.80446 1.13356
68 Ni 3.72045 5.03315 -0.149286
69 Ni 3.68112 6.79541 4.82193
70 Ni 3.6249 9.67992 2.49213
71 Ni 5.7632 6.21345 1.22644
72 Ni 5.5195 8.17767 3.49434
73 Al 3.73774 6.33591 7.34168
74 Al 5.60534 4.83358 8.7431
75 Al 5.56698 7.98723 5.94481
76 Ni 3.78378 4.30184 4.86156
77 Ni 3.65464 5.94899 9.81364
78 Ni 3.65391 8.84449 7.47546
79 Ni 5.67398 5.56813 6.17655
80 Ni 5.48621 7.36768 8.58544
81 Al 3.814 12.1161 2.59763
82 Al 5.63705 10.5443 3.91824
83 Al 5.62746 13.7799 1.13226
84 Ni 3.6692 10.0582 0.0316899
85 Ni 3.69295 11.7526 4.99511
86 Ni 3.79223 14.6429 2.48077
87 Ni 5.53871 11.2758 1.41974
88 Ni 5.74773 13.0087 3.67554
89 Al 3.79128 11.3434 7.48269
90 Al 5.67613 9.76647 8.86711
91 Al 5.63358 12.9929 6.0953
92 Ni 3.7168 9.28018 5.04236
93 Ni 3.73656 10.9604 9.97479
94 Ni 3.7264 13.8783 7.48401
95 Ni 5.60502 10.3589 6.35997
96 Ni 5.6599 12.2976 8.65236
97 Al 7.60984 2.18981 2.39408
98 Al 9.42246 0.608517 3.75235
99 Al 9.49493 3.73497 1.13028
100 Ni 7.57991 0.0397145 0.0146588
101 Ni 7.65272 1.73148 4.99974
102 Ni 7.61471 4.69747 2.43887
103 Ni 9.52576 1.09799 1.36644
104 Ni 9.45452 3.02915 3.61171
105 Al 7.54978 1.32058 7.41101
106 Al 9.42765 -0.144182 8.80021
107 Al 9.42573 2.97166 6.01515
108 Ni 7.43887 -0.807637 5.08625
109 Ni 7.50889 1.09333 9.83998
110 Ni 7.63711 3.98047 7.44453
111 Ni 9.3965 0.439145 6.29155
112 Ni 9.44016 2.29253 8.52541
113 Al 7.56261 7.15218 2.61508
114 Al 9.48251 5.46394 3.82231
115 Al 9.55507 8.79016 1.11194
116 Ni 7.58628 5.0527 -0.0478577
117 Ni 7.57584 6.76369 5.07314
118 Ni 7.71443 9.57257 2.52339
119 Ni 9.45359 6.28741 1.37145
120 Ni 9.53777 8.05541 3.43699
121 Al 7.47818 6.40738 7.42565
122 Al 9.51301 4.92076 8.84861
123 Al 9.66634 7.95583 5.97816
124 Ni 7.5779 4.32195 4.93173
125 Ni 7.50248 6.10689 10.0037
126 Ni 7.52961 9.00915 7.49583
127 Ni 9.42035 5.55767 6.3256
128 Ni 9.37691 7.36163 8.59059
129 Al 7.54231 12.0488 2.4307
130 Al 9.44296 10.5838 3.98049
131 Al 9.52262 13.741 1.1316
132 Ni 7.58898 10.1188 0.112338
133 Ni 7.43624 11.6901 4.95018
134 Ni 7.54037 14.544 2.50706
135 Ni 9.50921 11.1411 1.56956
136 Ni 9.34538 13.1478 3.59155
137 Al 7.58184 11.3808 7.49741
138 Al 9.3318 9.76912 8.93435
139 Al 9.38507 13.032 6.03813
140 Ni 7.57717 9.18926 4.87789
141 Ni 7.44217 11.0899 10.0413
142 Ni 7.52315 13.7903 7.45007
143 Ni 9.53112 10.3949 6.49601
144 Ni 9.39409 12.4402 8.52281
ITEM: TIMESTEP
14200
ITEM: NUMBER OF ATOMS
144
ITEM: BOX BOUNDS xy xz yz pp pp pp
-5.7020830859698002e-02 1.1590919775272338e+01 1.1649499873609434e-01
-1.4818694710012172e+00 1.5035075337305308e+01 2.2343947329082615e-02
3.6883442429331836e-03 9.8990298364971601e+00 -1.4572925569132886e+00
ITEM: ATOMS id element xu yu zu
1 Al -0.0524597 2.10276 2.34319
2 Al 1.72103 0.573183 3.80713
3 Al 1.96746 3.69428 1.14766
4 Ni -0.142663 -0.0978249 0.0890361
5 Ni -0.075954 1.80429 4.87999
6 Ni -0.0660221 4.61869 2.36576
7 Ni 1.86428 1.13674 1.47234
8 Ni 1.72896 3.15116 3.41716
9 Al -0.000194001 1.45861 7.40243
10 Al 1.81297 -0.239649 8.84493
11 Al 1.80358 3.02099 5.98049
12 Ni -0.0649529 -0.65177 4.9531
13 Ni 0.0936835 0.999882 9.91045
14 Ni 0.0923033 3.97545 7.35341
15 Ni 1.97663 0.497668 6.30707
16 Ni 1.82889 2.34475 8.50959
17 Al -0.133903 7.20292 2.43783
18 Al 1.85903 5.70389 3.8118
19 Al 1.90614 8.66583 1.068
20 Ni -0.000165268 5.02916 -0.0620897
21 Ni -0.115866 6.89805 4.86457
22 Ni 0.0121278 9.56186 2.47259
23 Ni 1.9493 6.17615 1.33204
24 Ni 1.87286 8.17031 3.53232
25 Al -0.00504704 6.4059 7.24991
26 Al 1.97382 4.83861 8.81925
27 Al 1.88481 8.14218 6.06106
28 Ni -0.102026 4.27808 4.86388
29 Ni -0.0973532 6.02333 9.81185
30 Ni 0.0427487 8.9826 7.50567
31 Ni 1.81954 5.45289 6.29206
32 Ni 1.88982 7.38748 8.55427
33 Al 0.173771 12.07 2.60499
34 Al 1.89347 10.4812 4.05107
35 Al 1.91683 13.8578 1.20153
36 Ni 0.0191302 9.9174 0.0796891
37 Ni 0.107509 11.9423 5.00953
38 Ni -0.0349746 14.7724 2.53666
39 Ni 2.00125 11.0943 1.45202
40 Ni 1.95803 13.1592 3.72604
41 Al -0.0250291 11.451 7.51279
42 Al 1.99669 9.83723 8.87676
43 Al 1.93033 13.0507 6.11448
44 Ni 0.0201391 9.37029 5.16592
45 Ni 0.0783332 10.9853 10.0567
46 Ni 0.125251 14.0133 7.46634
47 Ni 1.89841 10.6015 6.44934
48 Ni 1.85151 12.423 8.62047
49 Al 3.72903 2.15197 2.46636
50 Al 5.54553 0.459223 3.78451
51 Al 5.61509 3.76441 0.993553
52 Ni 3.67465 -0.0829573 -0.0517041
53 Ni 3.81488 1.77916 4.97651
54 Ni 3.85735 4.70366 2.56404
55 Ni 5.56817 1.15366 1.32575
56 Ni 5.57338 3.02006 3.43063
57 Al 3.88851 1.47643 7.37981
58 Al 5.72988 -0.14491 8.74695
59 Al 5.64403 3.08428 5.93123
60 Ni 3.82844 -0.721503 5.00468
61 Ni 3.71281 0.793339 9.91703
62 Ni 3.78459 4.01028 7.44761
63 Ni 5.7112 0.449347 6.22544
64 Ni 5.75131 2.41324 8.39973
65 Al 3.89747 7.21293 2.48219
66 Al 5.85052 5.55045 3.82116
67 Al 5.80835 8.62919 1.07895
68 Ni 3.82344 5.04685 -0.0395013
69 Ni 3.94506 6.80089 4.89527
70 Ni 3.96122 9.64726 2.60502
71 Ni 5.68982 6.20595 1.33952
72 Ni 5.86626 7.95586 3.62858
73 Al 3.79941 6.43683 7.32325
74 Al 5.79226 4.86747 8.72762
75 Al 5.79285 8.04186 6.10955
76 Ni 3.78598 4.28624 4.93718
77 Ni 3.92641 5.97353 9.71467
78 Ni 3.92218 8.9843 7.60184
79 Ni 5.75644 5.47903 6.26752
80 Ni 5.83015 7.33624 8.44035
81 Al 3.92945 12.1273 2.6177
82 Al 5.79835 10.5606 4.09622
83 Al 5.77102 13.7565 1.12783
84 Ni 3.91658 9.87616 0.109681
85 Ni 3.87824 11.8333 5.20386
86 Ni 3.80087 14.7662 2.54648
87 Ni 5.79072 11.1014 1.59662
88 Ni 5.75572 13.1124 3.68976
89 Al 3.8746 11.4458 7.66833
90 Al 5.80689 9.88602 9.08629
91 Al 5.94734 13.0658 6.08377
92 Ni 3.82293 9.25681 5.01778
93 Ni 3.77428 10.9578 10.1624
94 Ni 3.93251 13.9825 7.4301
95 Ni 5.71816 10.5711 6.54529
96 Ni 5.77507 12.4549 8.62639
97 Al 7.4969 2.14114 2.5131
98 Al 9.49061 0.661363 3.76687
99 Al 9.6102 3.63202 0.931148
100 Ni 7.55131 -0.0651246 0.0359338
101 Ni 7.49522 1.79223 4.89731
102 Ni 7.65593 4.56442 2.29045
103 Ni 9.47524 1.23509 1.38146
104 Ni 9.4964 3.14511 3.31907
105 Al 7.65798 1.42614 7.37287
106 Al 9.61197 -0.28826 8.84064
107 Al 9.50131 2.91537 5.82492
108 Ni 7.71347 -0.762515 4.88309
109 Ni 7.63223 0.998597 9.94132
110 Ni 7.5904 3.92106 7.23819
111 Ni 9.48391 0.43127 6.3969
112 Ni 9.64619 2.42305 8.27202
113 Al 7.79246 7.08682 2.36555
114 Al 9.55114 5.44246 3.7974
115 Al 9.54793 8.767 1.15179
116 Ni 7.65066 4.97242 -0.150575
117 Ni 7.68315 6.75898 4.74909
118 Ni 7.60393 9.67274 2.5328
119 Ni 9.62288 6.08676 1.28542
120 Ni 9.58305 8.11419 3.74783
121 Al 7.75995 6.30415 7.26337
122 Al 9.73876 4.81277 8.67367
123 Al 9.68462 7.98185 6.12786
124 Ni 7.63478 4.30822 4.70146
125 Ni 7.80327 6.00711 9.76472
126 Ni 7.70932 8.91436 7.53047
127 Ni 9.65239 5.39666 6.24515
128 Ni 9.71244 7.40509 8.56604
129 Al 7.73283 12.1798 2.72918
130 Al 9.66005 10.5708 3.86109
131 Al 9.65346 13.7451 1.31094
132 Ni 7.67951 9.96004 0.0321007
133 Ni 7.77091 11.8164 5.1759
134 Ni 7.77444 14.6359 2.50042
135 Ni 9.59255 11.1777 1.46367
136 Ni 9.74891 12.9506 3.74996
137 Al 7.70078 11.4542 7.66913
138 Al 9.4931 9.69952 8.92883
139 Al 9.66412 13.1443 6.25199
140 Ni 7.6363 9.3903 5.07715
141 Ni 7.7259 10.9848 10.0287
142 Ni 7.70204 14.0372 7.44432
143 Ni 9.51541 10.4566 6.47667
144 Ni 9.66077 12.2781 8.73076
ITEM: TIMESTEP
14300
ITEM: NUMBER OF ATOMS
144
ITEM: BOX BOUNDS xy xz yz pp pp pp
-4.9295260069081359e-02 1.1456189604500306e+01 -1.0747790422473204e-02
-1.5346631129460051e+00 1.5032095211584263e+01 2.2582136506239907e-02
-3.1655105696644092e-02 9.9343732864367418e+00 -1.5130663245791260e+00
ITEM: ATOMS id element xu yu zu
1 Al -0.0116737 2.04868 2.38796
2 Al 1.82073 0.402061 3.78634
3 Al 1.77088 3.61701 1.06057
4 Ni 0.0203132 -0.00235727 0.071674
5 Ni 0.00830477 1.78763 4.93237
6 Ni -0.0837991 4.5926 2.43252
7 Ni 1.85108 1.08147 1.21234
8 Ni 1.89047 3.04898 3.56873
9 Al -0.0104816 1.4649 7.52138
10 Al 1.80788 -0.230687 8.78479
11 Al 1.7344 3.10831 6.09819
12 Ni 0.0360584 -0.735688 5.15272
13 Ni -0.131888 0.964606 9.81476
14 Ni -0.0686198 3.92265 7.31501
15 Ni 1.76727 0.522148 6.32037
16 Ni 1.86009 2.35903 8.39304
17 Al -0.131714 7.16699 2.48112
18 Al 1.89172 5.59215 3.72437
19 Al 1.80989 8.754 1.16538
20 Ni -0.103091 4.96651 -0.252175
21 Ni 0.0031682 6.83807 5.01022
22 Ni -0.140046 9.64366 2.60638
23 Ni 1.87048 6.22933 1.33056
24 Ni 1.8341 7.9892 3.61879
25 Al -0.0265315 6.39552 7.42592
26 Al 2.03872 4.8004 8.8442
27 Al 1.87817 8.10427 5.99864
28 Ni -0.000993403 4.32113 4.79641
29 Ni 0.0486636 5.92383 9.96657
30 Ni -0.0800383 8.98592 7.38497
31 Ni 1.96352 5.57804 6.3959
32 Ni 1.97403 7.32421 8.57163
33 Al -0.0939867 12.1459 2.58174
34 Al 1.86756 10.435 3.96084
35 Al 1.8289 13.7054 1.06847
36 Ni -0.10098 10.0077 0.00888158
37 Ni -0.0412582 11.7419 5.01924
38 Ni 0.0787183 14.5608 2.58762
39 Ni 1.77599 11.1404 1.46018
40 Ni 1.73772 13.0056 3.68331
41 Al 0.0194173 11.4638 7.5242
42 Al 1.92346 9.76296 8.93382
43 Al 1.80894 13.0029 6.10241
44 Ni -0.0528601 9.2523 4.92786
45 Ni -0.108862 11.0103 9.93113
46 Ni -0.170044 13.9857 7.55996
47 Ni 1.98279 10.4453 6.35462
48 Ni 1.89991 12.3312 8.6711
49 Al 3.76978 1.98074 2.36269
50 Al 5.54267 0.496437 3.93852
51 Al 5.71248 3.62551 1.06491
52 Ni 3.80435 -0.0965345 0.117576
53 Ni 3.74223 1.81372 4.86605
54 Ni 3.6794 4.58999 2.30681
55 Ni 5.64728 1.01199 1.38906
56 Ni 5.69506 3.10182 3.50707
57 Al 3.70283 1.38202 7.25055
58 Al 5.68878 -0.302941 8.81253
59 Al 5.6433 2.9679 5.98204
60 Ni 3.72878 -0.70941 4.93181
61 Ni 3.81163 1.07821 9.87064
62 Ni 3.84078 3.86907 7.34096
63 Ni 5.62777 0.457435 6.40723
64 Ni 5.57981 2.23444 8.48832
65 Al 3.85917 7.01666 2.57719
66 Al 5.81141 5.62529 3.88748
67 Al 5.65872 8.82805 1.11291
68 Ni 3.75981 4.99085 -0.0829059
69 Ni 3.74986 6.7699 4.96399
70 Ni 3.74302 9.53523 2.5148
71 Ni 5.64729 6.01309 1.2619
72 Ni 5.70015 8.23255 3.54326
73 Al 3.88979 6.3604 7.55794
74 Al 5.65325 4.73843 8.79587
75 Al 5.71825 7.92339 6.09482
76 Ni 3.80519 4.23122 4.88521
77 Ni 3.79065 6.00843 10.1592
78 Ni 3.79388 8.92868 7.44359
79 Ni 5.68218 5.40278 6.2926
80 Ni 5.76366 7.30287 8.69393
81 Al 3.77885 11.9883 2.43237
82 Al 5.78049 10.5387 3.89943
83 Al 5.79949 13.7051 1.11769
84 Ni 3.76157 10.0956 -0.0128503
85 Ni 3.7663 11.7945 5.03544
86 Ni 3.78181 14.4771 2.46894
87 Ni 5.78265 11.1881 1.44767
88 Ni 5.64778 13.0854 3.73484
89 Al 3.81582 11.3696 7.53595
90 Al 5.74269 9.83146 8.98756
91 Al 5.69301 13.0348 6.16827
92 Ni 3.83707 9.35294 4.99145
93 Ni 3.90841 11.0212 9.97968
94 Ni 3.7442 13.982 7.60666
95 Ni 5.76353 10.4223 6.48472
96 Ni 5.73715 12.2911 8.66512
97 Al 7.63473 2.08915 2.40836
98 Al 9.63052 0.552846 3.74746
99 Al 9.48028 3.63237 1.15866
100 Ni 7.59833 0.00887548 0.0241065
101 Ni 7.71261 1.76891 4.83941
102 Ni 7.5358 4.55782 2.41488
103 Ni 9.62535 1.01455 1.31756
104 Ni 9.47187 3.07816 3.59755
105 Al 7.56953 1.37261 7.21576
106 Al 9.48212 -0.280353 8.82224
107 Al 9.6723 3.05458 5.99207
108 Ni 7.49019 -0.700599 5.13044
109 Ni 7.53872 0.885823 9.69359
110 Ni 7.58597 3.88646 7.30363
111 Ni 9.542 0.51823 6.3086
112 Ni 9.49133 2.17774 8.53348
113 Al 7.59177 7.11595 2.43291
114 Al 9.44739 5.46997 3.87407
115 Al 9.51526 8.64272 0.960198
116 Ni 7.50739 4.90746 -0.218758
117 Ni 7.61842 6.76539 5.02089
118 Ni 7.60711 9.62266 2.54672
119 Ni 9.44997 6.21162 1.13872
120 Ni 9.54218 8.03087 3.4382
121 Al 7.50985 6.24938 7.441
122 Al 9.6051 4.71585 8.67469
123 Al 9.64964 8.01829 6.00996
124 Ni 7.61648 4.25824 4.90807
125 Ni 7.4684 5.91166 9.93641
126 Ni 7.63717 8.88986 7.55476
127 Ni 9.45229 5.60071 6.25191
128 Ni 9.4183 7.29118 8.52671
129 Al 7.61911 12.1225 2.66039
130 Al 9.49782 10.6548 3.9371
131 Al 9.4791 13.6948 1.12357
132 Ni 7.62141 9.98413 0.0614482
133 Ni 7.50548 11.827 5.11028
134 Ni 7.48926 14.6955 2.50655
135 Ni 9.48422 11.1287 1.52989
136 Ni 9.43837 13.2619 3.55255
137 Al 7.60602 11.3429 7.64388
138 Al 9.33993 9.68706 8.98669
139 Al 9.52074 13.0948 6.14743
140 Ni 7.61021 9.27313 5.06634
141 Ni 7.57772 10.9914 10.0603
142 Ni 7.62677 13.8622 7.5323
143 Ni 9.58513 10.5685 6.42966
144 Ni 9.53296 12.4347 8.58878
ITEM: TIMESTEP
14400
ITEM: NUMBER OF ATOMS
144
ITEM: BOX BOUNDS xy xz yz pp pp pp
-1.7629401777314968e-01 1.1438182330486832e+01 -1.1119942542587512e-01
-1.6005039676212922e+00 1.5025360332177996e+01 -2.1972260207915529e-02
1.0985561200852700e-02 9.8917326195392334e+00 -1.5856420586606621e+00
ITEM: ATOMS id element xu yu zu
1 Al -0.107009 2.0235 2.49712
2 Al 1.77435 0.379737 3.91634
3 Al 1.81424 3.61001 1.06657
4 Ni -0.0830565 -0.0511232 -0.141959
5 Ni -0.116992 1.67852 4.90563
6 Ni -0.0349703 4.51915 2.42104
7 Ni 1.79384 1.1418 1.49889
8 Ni 1.92295 3.0184 3.41411
9 Al -0.121929 1.44123 7.50098
10 Al 1.82271 -0.306338 8.87167
11 Al 1.77973 2.81507 6.0124
12 Ni -0.103102 -0.90627 4.69238
13 Ni -0.073804 0.858265 9.96556
14 Ni -0.210596 3.86902 7.5295
15 Ni 1.84601 0.325105 6.38622
16 Ni 1.80346 2.25578 8.46935
17 Al -0.0708946 7.20554 2.52952
18 Al 1.78686 5.49224 3.73702
19 Al 1.78759 8.65559 1.16937
20 Ni -0.169351 5.00084 0.0505822
21 Ni -0.0694928 6.6214 4.94789
22 Ni -0.11037 9.53852 2.4065
23 Ni 1.7969 6.07281 1.34919
24 Ni 1.77212 8.07363 3.64012
25 Al -0.0724744 6.32582 7.35661
26 Al 1.79636 4.74458 8.78766
27 Al 1.78048 7.96007 5.95993
28 Ni -0.151824 4.05827 5.04029
29 Ni -0.300516 5.95839 9.94203
30 Ni -0.0549342 8.81466 7.53463
31 Ni 1.74064 5.31752 6.29252
32 Ni 1.75334 7.28053 8.60257
33 Al -0.124887 12.2362 2.61273
34 Al 1.73211 10.5304 3.91488
35 Al 1.73137 13.892 1.08776
36 Ni -0.0788287 10.0156 -0.0131029
37 Ni -0.198435 11.6893 5.0562
38 Ni -0.295057 14.6406 2.33672
39 Ni 1.73438 11.2118 1.40243
40 Ni 1.92166 13.0809 3.53473
41 Al -0.145849 11.4579 7.54987
42 Al 1.79935 9.6429 8.82478
43 Al 1.67015 12.904 5.90672
44 Ni -0.0835524 9.19211 4.96715
45 Ni -0.0551539 10.9499 10.0652
46 Ni -0.121986 13.8689 7.31523
47 Ni 1.62806 10.3961 6.37701
48 Ni 1.79359 12.3336 8.59216
49 Al 3.81164 2.00763 2.44822
50 Al 5.73166 0.42631 3.82817
51 Al 5.63481 3.86442 1.00602
52 Ni 3.76613 -0.0392358 0.0384147
53 Ni 3.86701 1.61127 4.92051
54 Ni 3.72148 4.53892 2.31537
55 Ni 5.76935 1.2967 1.37649
56 Ni 5.79123 3.01136 3.55018
57 Al 3.68972 1.27344 7.42722
58 Al 5.71549 -0.311336 8.8239
59 Al 5.60031 2.9716 6.05568
60 Ni 3.77111 -0.827044 5.05808
61 Ni 3.71406 1.01219 9.88468
62 Ni 3.68055 3.78951 7.30067
63 Ni 5.63213 0.312997 6.28384
64 Ni 5.74772 2.32532 8.46779
65 Al 3.63495 7.0318 2.51642
66 Al 5.63769 5.42141 3.86609
67 Al 5.59194 8.78141 1.12637
68 Ni 3.70182 4.99219 -0.120419
69 Ni 3.70832 6.76372 5.04239
70 Ni 3.67181 9.57857 2.46908
71 Ni 5.65255 6.24079 1.49683
72 Ni 5.50997 7.91442 3.68014
73 Al 3.63188 6.19421 7.43323
74 Al 5.59885 4.81259 8.89185
75 Al 5.61996 7.94801 6.15477
76 Ni 3.74358 4.27984 4.92317
77 Ni 3.64008 5.94315 9.77224
78 Ni 3.60473 8.79844 7.4729
79 Ni 5.62352 5.4738 6.32055
80 Ni 5.46286 7.25522 8.59199
81 Al 3.64565 12.1112 2.39876
82 Al 5.57939 10.395 3.68267
83 Al 5.61563 13.853 1.10256
84 Ni 3.62133 10.0421 0.0618671
85 Ni 3.59035 11.6771 4.94495
86 Ni 3.74148 14.7021 2.63089
87 Ni 5.48183 11.1609 1.24173
88 Ni 5.66831 13.1439 3.54891
89 Al 3.60379 11.2441 7.4536
90 Al 5.55192 9.84378 8.81647
91 Al 5.62443 12.858 5.94704
92 Ni 3.57945 9.21839 4.99473
93 Ni 3.56231 10.9537 9.91568
94 Ni 3.65505 13.784 7.42854
95 Ni 5.5149 10.4228 6.20275
96 Ni 5.56486 12.2816 8.55695
97 Al 7.63836 2.22726 2.59846
98 Al 9.57853 0.404694 3.85739
99 Al 9.53909 3.665 1.09963
100 Ni 7.60518 -0.102862 0.10002
101 Ni 7.53091 1.7911 4.99124
102 Ni 7.6267 4.65992 2.55715
103 Ni 9.43513 1.23007 1.40275
104 Ni 9.59344 3.10871 3.52692
105 Al 7.54349 1.16746 7.34862
106 Al 9.52832 -0.358683 8.75649
107 Al 9.44266 3.01166 6.02359
108 Ni 7.61271 -0.829129 5.02767
109 Ni 7.57626 0.963182 10.0131
110 Ni 7.43365 3.81427 7.59529
111 Ni 9.46219 0.310427 6.35948
112 Ni 9.3405 2.47662 8.43299
113 Al 7.54878 7.13401 2.60781
114 Al 9.44651 5.43954 4.0861
115 Al 9.41589 8.64175 1.21235
116 Ni 7.55546 5.14388 0.243419
117 Ni 7.48711 6.74145 5.00253
118 Ni 7.51494 9.60522 2.47787
119 Ni 9.47315 6.14394 1.64769
120 Ni 9.47724 8.05015 3.70579
121 Al 7.48252 6.31929 7.48792
122 Al 9.41411 4.744 8.91725
123 Al 9.53942 7.8582 6.12265
124 Ni 7.53049 4.33786 5.0319
125 Ni 7.53498 6.02482 10.0277
126 Ni 7.49529 8.9087 7.44348
127 Ni 9.41173 5.35664 6.47924
128 Ni 9.44447 7.39658 8.62299
129 Al 7.46069 12.0072 2.44761
130 Al 9.56413 10.5338 3.75014
131 Al 9.35514 13.7536 1.09126
132 Ni 7.50824 10.0308 -0.0243014
133 Ni 7.55052 11.7781 4.82628
134 Ni 7.61641 14.596 2.53866
135 Ni 9.40729 11.2253 1.26733
136 Ni 9.38625 12.8828 3.68605
137 Al 7.37566 11.2777 7.38596
138 Al 9.36123 9.75097 8.79683
139 Al 9.41422 12.9108 6.24857
140 Ni 7.427 9.30007 4.86412
141 Ni 7.52706 10.8995 9.75456
142 Ni 7.42231 13.7942 7.45292
143 Ni 9.44688 10.3232 6.35884
144 Ni 9.35074 12.2403 8.54115
ITEM: TIMESTEP
14500
ITEM: NUMBER OF ATOMS
144
ITEM: BOX BOUNDS xy xz yz pp pp pp
-1.1667367594646740e-01 1.1554616271766736e+01 6.9126567203899425e-02
-1.6992207156129091e+00 1.5024966293532071e+01 -2.6243969731098230e-02
8.4344640343250177e-03 9.8942837167057576e+00 -1.6847528452982090e+00
ITEM: ATOMS id element xu yu zu
1 Al -0.11772 2.12997 2.51239
2 Al 1.8731 0.409341 3.76612
3 Al 1.94686 3.86352 1.25442
4 Ni -0.0684591 0.0219593 -0.012789
5 Ni -0.101945 1.55832 5.04686
6 Ni -0.185632 4.64622 2.65459
7 Ni 1.90722 1.26328 1.2851
8 Ni 1.66756 2.96073 3.79293
9 Al -0.0627462 1.19389 7.42485
10 Al 1.84317 -0.43964 8.78129
11 Al 1.86084 2.7659 6.21922
12 Ni -0.0672164 -0.887782 4.97781
13 Ni -0.120162 0.882359 9.96319
14 Ni -0.0808065 3.5898 7.39841
15 Ni 1.90636 0.28217 6.23065
16 Ni 1.83038 2.0526 8.64234
17 Al -0.0936134 7.20307 2.59708
18 Al 1.72606 5.46892 3.85152
19 Al 1.89666 8.83492 1.14148
20 Ni -0.0333029 5.02496 0.201911
21 Ni -0.190054 6.66308 5.13607
22 Ni -0.00201099 9.63325 2.62544
23 Ni 1.81612 6.26056 1.45879
24 Ni 1.86597 8.00953 3.57878
25 Al -0.0484811 6.18082 7.45782
26 Al 1.83977 4.5608 8.83367
27 Al 1.86895 7.80397 5.91917
28 Ni -0.155221 4.16352 5.06788
29 Ni 0.0835341 5.84427 10.0369
30 Ni -0.213082 8.68532 7.35975
31 Ni 1.78885 5.2224 6.46853
32 Ni 1.77038 7.15565 8.5043
33 Al 0.00778113 12.1517 2.47828
34 Al 1.90052 10.5019 3.96727
35 Al 1.85551 13.6929 0.931835
36 Ni -0.0542439 10.0597 -0.00662785
37 Ni -0.0597493 11.6381 4.86103
38 Ni 0.0971361 14.6539 2.52974
39 Ni 1.97462 11.2037 1.4108
40 Ni 1.78809 13.0702 3.63809
41 Al -0.140075 11.3461 7.25736
42 Al 1.8112 9.54591 8.7582
43 Al 1.86963 12.861 5.965
44 Ni -0.158977 9.11682 4.94193
45 Ni -0.195428 10.9232 9.83408
46 Ni -0.104909 13.6767 7.43805
47 Ni 1.85792 10.3089 6.30651
48 Ni 1.80917 12.1732 8.43155
49 Al 3.63635 2.19843 2.56939
50 Al 5.6132 0.391896 3.85102
51 Al 5.66084 3.7688 1.22594
52 Ni 3.79688 0.0937338 -0.0835424
53 Ni 3.69298 1.62834 5.02518
54 Ni 3.80255 4.74502 2.7148
55 Ni 5.61171 1.09681 1.41832
56 Ni 5.60909 3.00258 3.7163
57 Al 3.70057 1.21726 7.5056
58 Al 5.75244 -0.414092 8.78788
59 Al 5.68638 2.78749 6.22232
60 Ni 3.7901 -0.878817 4.81127
61 Ni 3.80809 0.79361 10.0064
62 Ni 3.73831 3.75736 7.57063
63 Ni 5.77604 0.335805 6.41078
64 Ni 5.59594 2.14309 8.73073
65 Al 3.81353 7.2037 2.51831
66 Al 5.71139 5.47744 3.96225
67 Al 5.68126 8.8041 1.09938
68 Ni 3.83063 5.03655 0.234841
69 Ni 3.7224 6.55492 4.82166
70 Ni 3.80433 9.72752 2.5274
71 Ni 5.68592 6.18908 1.41074
72 Ni 5.75549 8.1442 3.54223
73 Al 3.72385 6.16521 7.47321
74 Al 5.75941 4.67866 8.89646
75 Al 5.65423 7.76243 5.9903
76 Ni 3.77871 4.04002 5.04147
77 Ni 3.74775 5.82661 9.93279
78 Ni 3.69902 8.78968 7.39727
79 Ni 5.70655 5.25368 6.44825
80 Ni 5.62778 7.20326 8.48321
81 Al 3.70391 12.1883 2.51301
82 Al 5.77576 10.4183 3.74808
83 Al 5.67247 13.7365 0.969453
84 Ni 3.82671 9.99121 -0.0286735
85 Ni 3.8439 11.6983 4.87693
86 Ni 3.81994 14.6931 2.37613
87 Ni 5.73813 11.1893 1.38249
88 Ni 5.83979 12.9828 3.46107
89 Al 3.73591 11.2575 7.39128
90 Al 5.73073 9.6908 8.81742
91 Al 5.79906 12.9992 5.9067
92 Ni 3.74142 9.07096 4.92653
93 Ni 3.88031 10.8234 9.80528
94 Ni 3.82975 13.8788 7.38035
95 Ni 5.70198 10.3049 6.36898
96 Ni 5.77707 12.2051 8.36149
97 Al 7.54864 2.09365 2.50685
98 Al 9.67661 0.306955 3.82319
99 Al 9.5321 3.71968 1.26287
100 Ni 7.579 0.139789 -0.0837284
101 Ni 7.68138 1.55984 5.00371
102 Ni 7.57876 4.53158 2.66877
103 Ni 9.70417 1.08642 1.37174
104 Ni 9.42709 2.90668 3.73571
105 Al 7.67268 1.30268 7.50189
106 Al 9.65494 -0.467473 8.69498
107 Al 9.61212 2.86942 6.2156
108 Ni 7.59799 -0.923345 4.7673
109 Ni 7.56608 0.946896 9.88188
110 Ni 7.70697 3.8083 7.4532
111 Ni 9.48245 0.234542 6.30709
112 Ni 9.70528 2.04585 8.69794
113 Al 7.6042 7.02634 2.58716
114 Al 9.48669 5.40151 3.98182
115 Al 9.64597 8.6192 1.16697
116 Ni 7.62029 4.98893 -0.0144001
117 Ni 7.61413 6.55991 5.13783
118 Ni 7.59566 9.54911 2.404
119 Ni 9.51374 6.27186 1.39231
120 Ni 9.53824 7.92057 3.56967
121 Al 7.65858 6.27532 7.53255
122 Al 9.6568 4.50556 8.84539
123 Al 9.53527 7.86308 6.10038
124 Ni 7.63169 4.03148 5.0219
125 Ni 7.5832 5.8904 10.1005
126 Ni 7.56636 8.71024 7.33702
127 Ni 9.58581 5.25594 6.38245
128 Ni 9.61508 7.10919 8.60979
129 Al 7.68219 12.0696 2.35414
130 Al 9.54097 10.4602 3.81634
131 Al 9.51135 13.8611 0.929622
132 Ni 7.59422 10.1272 -0.0416864
133 Ni 7.60424 11.6156 4.82523
134 Ni 7.56561 14.6039 2.31283
135 Ni 9.69863 11.172 1.41419
136 Ni 9.60607 13.1647 3.30602
137 Al 7.60863 11.2629 7.3107
138 Al 9.43646 9.6461 8.81738
139 Al 9.56118 12.8622 5.88381
140 Ni 7.65361 9.04884 4.95731
141 Ni 7.52567 10.9872 9.7189
142 Ni 7.68894 13.8624 7.27265
143 Ni 9.52411 10.3632 6.21945
144 Ni 9.49301 12.2151 8.40738
ITEM: TIMESTEP
14600
ITEM: NUMBER OF ATOMS
144
ITEM: BOX BOUNDS xy xz yz pp pp pp
-7.1405933247523201e-02 1.1682241001721144e+01 1.8936893428680510e-01
-1.7329255659671885e+00 1.4991522007543573e+01 2.6406135839341253e-02
8.3456733639870606e-03 9.8943725073760849e+00 -1.7519019816409793e+00
ITEM: ATOMS id element xu yu zu
1 Al -0.0129266 2.0795 2.60505
2 Al 1.87656 0.446982 3.8865
3 Al 1.8704 3.83599 1.2101
4 Ni -0.150893 0.0758056 -0.0449302
5 Ni -0.00983442 1.66361 5.03474
6 Ni 0.0263944 4.54006 2.61071
7 Ni 1.85325 1.16675 1.51473
8 Ni 2.06175 3.13644 3.73581
9 Al -0.0728219 1.27296 7.54647
10 Al 1.92131 -0.525978 8.83783
11 Al 1.88219 2.81376 6.19679
12 Ni -0.105488 -0.753416 4.8938
13 Ni -0.00604443 0.771992 9.93826
14 Ni 0.0474335 3.68036 7.61674
15 Ni 1.82681 0.253631 6.41699
16 Ni 1.85845 2.13301 8.68602
17 Al 0.00255347 7.16377 2.50141
18 Al 1.99201 5.51528 4.04552
19 Al 1.93392 8.73911 1.14126
20 Ni -0.0120877 5.04723 0.0898686
21 Ni -0.00569336 6.66357 4.85478
22 Ni 0.00289192 9.62828 2.37295
23 Ni 1.93754 6.17612 1.63304
24 Ni 1.88634 8.02186 3.66717
25 Al 0.0577343 6.0867 7.41814
26 Al 1.93751 4.64063 8.91321
27 Al 1.97715 7.73038 6.04323
28 Ni 0.0120168 4.21077 5.07377
29 Ni -0.123891 5.81786 9.92577
30 Ni 0.158326 8.56241 7.49679
31 Ni 2.01271 5.32288 6.52723
32 Ni 2.06375 7.09216 8.61156
33 Al 0.068094 12.0522 2.36482
34 Al 1.94548 10.452 3.75182
35 Al 1.82915 13.704 1.01274
36 Ni 0.049401 10.0407 0.0434251
37 Ni 0.0647797 11.6533 4.69917
38 Ni 0.00856079 14.5505 2.45542
39 Ni 1.9664 11.2357 1.20728
40 Ni 1.9949 13.0025 3.41504
41 Al 0.105785 11.2079 7.03243
42 Al 2.08841 9.46321 8.59616
43 Al 1.93696 12.8161 5.82502
44 Ni 0.144436 9.19465 4.99189
45 Ni 0.18584 10.7285 9.59017
46 Ni 0.0941701 13.5799 7.36145
47 Ni 2.17344 10.193 6.21781
48 Ni 1.91044 12.0105 8.40662
49 Al 3.77234 2.11906 2.51794
50 Al 5.67482 0.397079 3.72886
51 Al 5.60678 3.76094 1.14461
52 Ni 3.66204 -0.00914244 -0.177872
53 Ni 3.86296 1.66623 5.05659
54 Ni 3.72042 4.56067 2.66542
55 Ni 5.60757 1.23883 1.36149
56 Ni 5.82081 2.97366 3.71496
57 Al 3.78194 1.19369 7.51713
58 Al 5.63119 -0.448205 8.82809
59 Al 5.71253 2.81726 6.21726
60 Ni 3.7072 -0.902117 4.77638
61 Ni 3.62918 0.741036 9.9698
62 Ni 3.85485 3.68877 7.66972
63 Ni 5.64797 0.223078 6.25161
64 Ni 5.80844 2.11056 8.64186
65 Al 3.88234 7.15154 2.61176
66 Al 5.75112 5.42539 3.92651
67 Al 5.89977 8.71222 1.20082
68 Ni 3.75428 4.98392 0.195442
69 Ni 3.91026 6.74599 5.12873
70 Ni 3.91258 9.59211 2.41366
71 Ni 5.74933 6.12486 1.51655
72 Ni 5.79506 7.90746 3.6308
73 Al 3.97708 6.12666 7.56413
74 Al 5.82472 4.54159 8.99027
75 Al 5.91222 7.78509 5.99402
76 Ni 3.84241 4.14289 5.2241
77 Ni 3.93077 5.78912 9.94046
78 Ni 4.03143 8.67683 7.37653
79 Ni 5.85207 5.2935 6.41114
80 Ni 5.91411 7.09813 8.63579
81 Al 3.91477 11.9809 2.41538
82 Al 5.82624 10.4224 3.64498
83 Al 5.80797 13.7047 1.02442
84 Ni 3.85222 10.0568 -0.00102071
85 Ni 3.79025 11.6024 4.90209
86 Ni 3.97498 14.5977 2.38636
87 Ni 5.81358 11.2055 1.26793
88 Ni 5.794 13.0654 3.48479
89 Al 3.93596 11.1018 7.42902
90 Al 5.88748 9.62935 8.80494
91 Al 5.89315 12.7996 5.92859
92 Ni 3.98278 9.15513 4.88822
93 Ni 3.85789 10.7967 9.82872
94 Ni 3.95725 13.5377 7.24334
95 Ni 5.84649 10.2207 6.25147
96 Ni 5.90216 12.1504 8.48523
97 Al 7.61981 2.11443 2.6695
98 Al 9.54208 0.3143 3.92726
99 Al 9.70516 3.68594 1.04076
100 Ni 7.60815 -0.0395673 -0.0823988
101 Ni 7.53563 1.59335 5.08334
102 Ni 7.68138 4.45508 2.49731
103 Ni 9.45838 1.19092 1.51132
104 Ni 9.59459 3.07318 3.55193
105 Al 7.63355 0.985261 7.51073
106 Al 9.68229 -0.424564 8.76658
107 Al 9.64189 2.92728 6.16696
108 Ni 7.59007 -0.861504 4.9665
109 Ni 7.5683 0.732751 10.1257
110 Ni 7.63077 3.54421 7.56641
111 Ni 9.5561 0.306138 6.42498
112 Ni 9.5434 2.18133 8.5233
113 Al 7.73564 7.05705 2.46213
114 Al 9.5863 5.49055 3.8967
115 Al 9.61819 8.60262 1.1783
116 Ni 7.67746 5.01264 0.139703
117 Ni 7.76325 6.74081 4.90459
118 Ni 7.7753 9.66025 2.51483
119 Ni 9.66575 6.05677 1.43261
120 Ni 9.67707 8.10346 3.65442
121 Al 7.72416 6.21014 7.33402
122 Al 9.49337 4.52276 8.79957
123 Al 9.71728 7.7717 6.11465
124 Ni 7.71273 4.08198 5.04639
125 Ni 7.77946 5.71871 9.85635
126 Ni 7.74854 8.66075 7.47836
127 Ni 9.52783 5.25268 6.39454
128 Ni 9.55697 7.11811 8.47853
129 Al 7.69919 12.0977 2.5026
130 Al 9.66679 10.4459 3.78949
131 Al 9.75081 13.8403 0.95336
132 Ni 7.74748 9.9817 0.0738676
133 Ni 7.7945 11.6596 4.87407
134 Ni 7.87807 14.5108 2.37917
135 Ni 9.57087 11.2844 1.18666
136 Ni 9.71334 12.8967 3.53364
137 Al 7.83225 11.1788 7.41488
138 Al 9.69163 9.60006 8.67674
139 Al 9.75307 12.8154 5.9627
140 Ni 7.67539 9.19387 4.96683
141 Ni 7.89319 10.6862 9.89728
142 Ni 7.79692 13.5841 7.37202
143 Ni 9.67136 10.1621 6.24364
144 Ni 9.80741 12.0965 8.37425
ITEM: TIMESTEP
14700
ITEM: NUMBER OF ATOMS
144
ITEM: BOX BOUNDS xy xz yz pp pp pp
-2.0933607366955898e-01 1.1470077090212179e+01 -9.8460097292533799e-02
-1.8034036928043591e+00 1.5048948944023618e+01 -3.5858884512305018e-02
2.7236168579944042e-02 9.8754820121601234e+00 -1.7649531719981155e+00
ITEM: ATOMS id element xu yu zu
1 Al -0.231844 2.07172 2.49166
2 Al 1.67866 0.333615 3.87065
3 Al 1.85263 3.65635 1.12195
4 Ni -0.116562 -0.164838 -0.00905003
5 Ni -0.147962 1.65146 5.03687
6 Ni -0.0829618 4.61054 2.54229
7 Ni 1.7 1.0784 1.36334
8 Ni 1.66745 2.82189 3.5485
9 Al -0.232745 1.2571 7.52356
10 Al 1.85709 -0.371295 8.87153
11 Al 1.72257 2.84744 6.02997
12 Ni -0.168982 -0.911491 4.91938
13 Ni -0.295205 0.643627 9.9682
14 Ni -0.193009 3.7069 7.48984
15 Ni 1.76774 0.317266 6.26779
16 Ni 1.75874 2.06425 8.5184
17 Al -0.0546021 7.04556 2.55318
18 Al 1.8572 5.32415 3.9026
19 Al 1.70522 8.61818 1.09687
20 Ni -0.182742 4.83872 0.099261
21 Ni -0.0159016 6.68636 5.11439
22 Ni -0.131132 9.55918 2.4968
23 Ni 1.83733 5.97486 1.3856
24 Ni 1.76163 8.00522 3.56581
25 Al -0.205244 6.14972 7.44403
26 Al 1.75775 4.45877 8.69128
27 Al 1.79249 7.86182 5.9804
28 Ni -0.0862674 4.09097 4.9827
29 Ni -0.133301 5.65293 9.87008
30 Ni -0.223535 8.78651 7.30714
31 Ni 1.78531 5.26174 6.38443
32 Ni 1.68243 7.15507 8.53286
33 Al -0.156199 12.1023 2.46244
34 Al 1.75306 10.5435 3.81261
35 Al 1.7804 13.6761 0.972454
36 Ni -0.10726 9.93029 -0.0504289
37 Ni -0.148946 11.7094 4.89763
38 Ni -0.248161 14.7087 2.39112
39 Ni 1.79853 10.9995 1.3231
40 Ni 1.71049 13.0924 3.4586
41 Al -0.161311 11.4243 7.41638
42 Al 1.6975 9.57094 8.74009
43 Al 1.75496 12.8641 5.91443
44 Ni -0.244612 9.2062 4.89707
45 Ni -0.266947 10.7198 9.8557
46 Ni -0.212057 13.8023 7.37835
47 Ni 1.63067 10.4495 6.14589
48 Ni 1.80962 12.2243 8.38646
49 Al 3.6799 1.89348 2.45447
50 Al 5.64288 0.3248 3.94305
51 Al 5.73018 3.70064 1.17051
52 Ni 3.83134 -0.00287904 0.0857036
53 Ni 3.61994 1.62823 4.99208
54 Ni 3.78489 4.47614 2.4248
55 Ni 5.79098 1.06797 1.47739
56 Ni 5.55862 2.941 3.59702
57 Al 3.70917 1.18897 7.41273
58 Al 5.63675 -0.625629 8.87487
59 Al 5.53963 2.77568 6.02972
60 Ni 3.767 -0.807764 5.05963
61 Ni 3.88885 0.750805 9.95814
62 Ni 3.69565 3.66551 7.30213
63 Ni 5.58144 0.217645 6.46901
64 Ni 5.47408 2.00363 8.60448
65 Al 3.70439 7.01903 2.69854
66 Al 5.60815 5.51849 3.85544
67 Al 5.67474 8.68578 1.1778
68 Ni 3.78067 4.98295 0.00602677
69 Ni 3.76957 6.5787 5.12645
70 Ni 3.65414 9.45257 2.41631
71 Ni 5.71031 6.17756 1.44743
72 Ni 5.70028 8.07416 3.66189
73 Al 3.65656 6.11289 7.66868
74 Al 5.62529 4.48301 8.85552
75 Al 5.69003 7.88409 5.9746
76 Ni 3.69273 4.19401 4.89362
77 Ni 3.61283 5.68731 10.1478
78 Ni 3.59201 8.64247 7.37826
79 Ni 5.55667 5.2311 6.43731
80 Ni 5.62668 7.06139 8.45205
81 Al 3.72108 12.0032 2.40067
82 Al 5.61677 10.4397 3.76909
83 Al 5.54638 13.6689 1.1573
84 Ni 3.73235 9.9328 -0.0342157
85 Ni 3.74256 11.7435 4.76443
86 Ni 3.61065 14.5482 2.58714
87 Ni 5.56913 11.0571 1.48712
88 Ni 5.61898 12.9806 3.56991
89 Al 3.61704 11.1129 7.22772
90 Al 5.55261 9.50789 8.74464
91 Al 5.55098 12.9812 6.10884
92 Ni 3.65847 9.12209 4.96323
93 Ni 3.73242 10.7509 9.79714
94 Ni 3.55633 13.8302 7.54586
95 Ni 5.5881 10.3272 6.32424
96 Ni 5.44684 12.0181 8.45621
97 Al 7.70294 2.21056 2.60492
98 Al 9.51663 0.364771 3.91697
99 Al 9.48391 3.79349 1.18194
100 Ni 7.5857 -0.0756597 0.169927
101 Ni 7.50517 1.76937 4.97901
102 Ni 7.58413 4.73233 2.63497
103 Ni 9.54604 1.06881 1.35247
104 Ni 9.5566 3.01464 3.7988
105 Al 7.54479 1.15574 7.40145
106 Al 9.51576 -0.558559 8.73856
107 Al 9.43889 2.84347 6.32779
108 Ni 7.58367 -0.854624 4.96094
109 Ni 7.53848 0.659826 9.84183
110 Ni 7.56429 3.74312 7.40953
111 Ni 9.47864 0.15432 6.32158
112 Ni 9.39918 1.99328 8.67854
113 Al 7.52496 7.14761 2.5415
114 Al 9.5653 5.49389 3.93658
115 Al 9.54628 8.59602 1.17592
116 Ni 7.51781 5.03124 0.0812666
117 Ni 7.58671 6.5701 5.03272
118 Ni 7.51283 9.51829 2.50572
119 Ni 9.46005 6.21547 1.43263
120 Ni 9.43067 7.99407 3.53805
121 Al 7.62026 6.14671 7.46041
122 Al 9.37519 4.43906 8.88042
123 Al 9.42664 7.87666 6.08549
124 Ni 7.47081 4.2198 5.03506
125 Ni 7.48289 5.75974 9.98775
126 Ni 7.5998 8.6988 7.4327
127 Ni 9.57998 5.27759 6.32771
128 Ni 9.50751 7.02361 8.5485
129 Al 7.55752 12.1058 2.42256
130 Al 9.43375 10.5343 3.88955
131 Al 9.3531 13.7628 1.10033
132 Ni 7.5547 10.0631 -0.0346413
133 Ni 7.48039 11.7498 4.93225
134 Ni 7.45014 14.6958 2.65081
135 Ni 9.48327 11.0461 1.46552
136 Ni 9.44444 13.221 3.52676
137 Al 7.53149 11.2702 7.32201
138 Al 9.35337 9.58021 8.81124
139 Al 9.49259 12.8109 5.99553
140 Ni 7.62195 9.16713 4.93318
141 Ni 7.40384 10.7788 9.67596
142 Ni 7.42219 13.7444 7.3956
143 Ni 9.47404 10.4161 6.31444
144 Ni 9.39062 12.0494 8.46275
ITEM: TIMESTEP
14800
ITEM: NUMBER OF ATOMS
144
ITEM: BOX BOUNDS xy xz yz pp pp pp
-2.3759864429689198e-01 1.1475203848918802e+01 -1.2914818867669062e-01
-1.6710367846742689e+00 1.4999321403495873e+01 -2.8306605048847935e-02
-9.5165273525301686e-03 9.9122347080926048e+00 -1.6822138043957688e+00
ITEM: ATOMS id element xu yu zu
1 Al -0.115808 1.94814 2.47966
2 Al 1.81066 0.429813 3.97675
3 Al 1.72656 3.73828 1.12519
4 Ni -0.061632 -0.0871576 -0.0297034
5 Ni -0.137315 1.68477 4.89969
6 Ni -0.216158 4.49846 2.44656
7 Ni 1.85131 1.07735 1.44843
8 Ni 1.8293 3.14009 3.60731
9 Al -0.142465 1.32066 7.44298
10 Al 1.84055 -0.402326 8.7778
11 Al 1.78592 2.88313 6.02595
12 Ni -0.0755379 -0.858268 4.92984
13 Ni -0.145643 0.737715 9.8219
14 Ni -0.0575094 3.77996 7.29013
15 Ni 1.83262 0.406152 6.41553
16 Ni 1.73507 2.14137 8.5169
17 Al -0.151615 7.08251 2.42586
18 Al 1.74837 5.45234 3.84737
19 Al 1.79559 8.76707 1.12648
20 Ni -0.0658456 5.00604 0.0194892
21 Ni -0.244659 6.63633 4.83718
22 Ni -0.171948 9.57754 2.49228
23 Ni 1.70398 6.19635 1.39259
24 Ni 1.78819 7.92534 3.59974
25 Al -0.340095 6.28639 7.3957
26 Al 1.72617 4.60785 8.68203
27 Al 1.63737 7.89595 6.1263
28 Ni -0.169555 4.18634 4.9523
29 Ni -0.149705 5.84527 9.97239
30 Ni -0.233479 8.83771 7.54048
31 Ni 1.71946 5.38806 6.22107
32 Ni 1.78733 7.13501 8.6008
33 Al -0.194218 12.0527 2.74755
34 Al 1.67952 10.4525 3.94471
35 Al 1.77346 13.7233 1.22705
36 Ni -0.198494 9.93755 -0.0157638
37 Ni -0.23457 11.6828 5.17045
38 Ni -0.271375 14.455 2.49238
39 Ni 1.70874 11.1922 1.43503
40 Ni 1.80268 12.8876 3.85882
41 Al -0.284517 11.3425 7.74533
42 Al 1.66759 9.60655 8.95772
43 Al 1.63065 12.787 6.25198
44 Ni -0.0946975 9.14031 4.98909
45 Ni -0.208335 10.8106 10.1122
46 Ni -0.277444 13.7445 7.40985
47 Ni 1.64611 10.3532 6.53197
48 Ni 1.7758 12.1124 8.70824
49 Al 3.74287 2.07232 2.4677
50 Al 5.70288 0.433968 3.87044
51 Al 5.54437 3.65767 0.969448
52 Ni 3.73734 -0.014015 0.16911
53 Ni 3.77183 1.62915 4.94567
54 Ni 3.66111 4.5531 2.33732
55 Ni 5.54231 1.11385 1.3168
56 Ni 5.63327 3.07754 3.57086
57 Al 3.84378 1.33579 7.4789
58 Al 5.61134 -0.210957 8.89177
59 Al 5.57433 2.95067 5.96712
60 Ni 3.77253 -0.832515 5.01935
61 Ni 3.53305 0.722965 9.8518
62 Ni 3.66985 3.80233 7.42891
63 Ni 5.70404 0.420792 6.33253
64 Ni 5.74063 2.2543 8.44811
65 Al 3.59753 7.03627 2.40272
66 Al 5.54665 5.54805 3.79605
67 Al 5.62113 8.7288 1.27837
68 Ni 3.70457 4.89693 -0.0941327
69 Ni 3.5117 6.73009 4.85667
70 Ni 3.71141 9.65995 2.56467
71 Ni 5.55803 6.10989 1.38967
72 Ni 5.47548 7.95522 3.61644
73 Al 3.67788 6.33815 7.29975
74 Al 5.66194 4.57844 8.86003
75 Al 5.60019 7.90085 5.94709
76 Ni 3.63827 4.1861 4.8947
77 Ni 3.74808 5.82508 9.71269
78 Ni 3.61259 8.885 7.49319
79 Ni 5.58579 5.4035 6.2955
80 Ni 5.57218 7.14832 8.64734
81 Al 3.77361 12.0494 2.44156
82 Al 5.60946 10.4978 3.7168
83 Al 5.51106 13.7055 1.05172
84 Ni 3.65169 10.0274 0.0754479
85 Ni 3.5919 11.6296 5.10268
86 Ni 3.69951 14.5644 2.55297
87 Ni 5.63506 11.2697 1.17551
88 Ni 5.53191 13.1001 3.57611
89 Al 3.77967 11.3446 7.4509
90 Al 5.55095 9.67153 8.68004
91 Al 5.61954 12.9459 6.10969
92 Ni 3.59257 9.20314 4.97988
93 Ni 3.60554 10.7957 9.87082
94 Ni 3.75008 13.7871 7.52716
95 Ni 5.56221 10.2948 6.28648
96 Ni 5.64211 12.2934 8.56377
97 Al 7.55386 2.00237 2.54675
98 Al 9.51179 0.191678 3.85435
99 Al 9.55624 3.64976 1.05032
100 Ni 7.53264 0.0117298 -0.0842943
101 Ni 7.6889 1.54919 4.97913
102 Ni 7.48479 4.52148 2.4903
103 Ni 9.49216 1.11243 1.42156
104 Ni 9.38612 3.04862 3.41346
105 Al 7.64322 1.22946 7.41903
106 Al 9.54022 -0.306564 8.86076
107 Al 9.45352 2.96728 6.11283
108 Ni 7.54803 -0.849836 5.00998
109 Ni 7.52999 0.8809 9.94967
110 Ni 7.60935 3.82128 7.472
111 Ni 9.54139 0.499556 6.28062
112 Ni 9.59953 2.2611 8.52254
113 Al 7.51773 7.17252 2.38499
114 Al 9.36328 5.50971 3.8719
115 Al 9.4918 8.64624 1.11195
116 Ni 7.65688 4.95074 0.015153
117 Ni 7.40593 6.75629 4.94328
118 Ni 7.50639 9.60704 2.49077
119 Ni 9.41904 6.04514 1.35163
120 Ni 9.54523 7.99941 3.58492
121 Al 7.47436 6.22146 7.50989
122 Al 9.49723 4.62575 8.86941
123 Al 9.32951 7.93299 6.07318
124 Ni 7.64857 4.12355 4.98131
125 Ni 7.57734 5.71053 9.88413
126 Ni 7.46769 8.7403 7.40853
127 Ni 9.40561 5.32525 6.35154
128 Ni 9.39823 7.23629 8.44327
129 Al 7.47736 12.1102 2.47036
130 Al 9.43605 10.4511 3.89477
131 Al 9.40828 13.7077 1.14381
132 Ni 7.51577 9.93973 -0.0661131
133 Ni 7.49499 11.6124 4.90768
134 Ni 7.49392 14.5088 2.40524
135 Ni 9.46883 11.2805 1.32791
136 Ni 9.34589 12.87 3.66003
137 Al 7.47257 11.2582 7.43045
138 Al 9.25191 9.63631 8.85671
139 Al 9.45719 12.9408 6.0959
140 Ni 7.45522 9.17062 4.92686
141 Ni 7.4871 10.7537 10.0214
142 Ni 7.42634 13.7911 7.51338
143 Ni 9.41881 10.3019 6.3806
144 Ni 9.24943 12.269 8.55747
ITEM: TIMESTEP
14900
ITEM: NUMBER OF ATOMS
144
ITEM: BOX BOUNDS xy xz yz pp pp pp
-4.0278728247685969e-02 1.1626393055407158e+01 1.2996280119719159e-01
-1.5912081429439018e+00 1.5040689141111217e+01 6.1091527614832497e-02
1.3762954667153160e-02 9.8889552260729126e+00 -1.5610174250500524e+00
ITEM: ATOMS id element xu yu zu
1 Al 0.0265432 2.08685 2.34409
2 Al 1.97968 0.555532 3.90774
3 Al 1.96795 3.79385 1.09856
4 Ni -0.0628499 0.0447609 0.0964203
5 Ni 0.0776414 1.56207 4.91645
6 Ni 0.0576019 4.68242 2.29666
7 Ni 1.95015 1.16722 1.29081
8 Ni 1.92527 2.99996 3.56425
9 Al 0.0842317 1.30108 7.36949
10 Al 1.9955 -0.243182 8.7554
11 Al 1.85701 2.9922 6.09192
12 Ni -0.0482879 -0.832954 5.04936
13 Ni 0.163651 1.04013 9.80241
14 Ni -0.0749138 3.83708 7.43881
15 Ni 1.99277 0.304321 6.24918
16 Ni 1.98728 2.33718 8.46816
17 Al -0.0483552 7.1343 2.37584
18 Al 1.97436 5.52888 3.93044
19 Al 1.88534 8.73925 0.967421
20 Ni -0.0795118 5.05866 -0.066956
21 Ni 0.0659903 6.68691 4.89204
22 Ni -0.0443748 9.53395 2.52738
23 Ni 1.93008 6.23273 1.31629
24 Ni 1.81334 8.13588 3.47547
25 Al -0.0565771 6.25607 7.34635
26 Al 1.88211 4.75361 8.6231
27 Al 1.91044 7.95391 5.97133
28 Ni 0.00856187 4.22396 4.89376
29 Ni -0.035746 6.00131 9.78807
30 Ni 0.088573 8.76523 7.47795
31 Ni 1.95535 5.34428 6.22981
32 Ni 1.97161 7.3575 8.42467
33 Al -0.0151017 12.0839 2.61521
34 Al 1.90733 10.5567 4.00684
35 Al 2.00699 13.8741 1.11143
36 Ni 0.0175314 10.1537 0.180182
37 Ni 0.103261 11.729 5.07838
38 Ni 0.121611 14.7022 2.59194
39 Ni 1.9667 11.0787 1.62798
40 Ni 1.93838 13.1432 3.57998
41 Al 0.134834 11.1913 7.59416
42 Al 2.04865 9.79426 9.11574
43 Al 1.92226 12.7902 6.0399
44 Ni -0.0296693 9.22251 5.03281
45 Ni 0.0966103 10.9753 10.0255
46 Ni 0.168035 13.7445 7.53732
47 Ni 2.1061 10.3407 6.47054
48 Ni 1.90186 12.2191 8.6379
49 Al 3.83483 2.14639 2.45359
50 Al 5.69911 0.35129 3.85922
51 Al 5.61067 3.76234 1.16892
52 Ni 3.75353 -0.103141 -0.0594344
53 Ni 3.89025 1.7662 4.97479
54 Ni 3.81538 4.7449 2.62374
55 Ni 5.64807 1.19623 1.361
56 Ni 5.799 2.93503 3.58249
57 Al 3.86249 1.25081 7.39699
58 Al 5.76661 -0.329441 8.81707
59 Al 5.71916 2.94194 6.07379
60 Ni 3.86571 -0.813505 4.91219
61 Ni 3.96653 0.936175 9.92013
62 Ni 3.91433 3.89215 7.43622
63 Ni 5.83754 0.318865 6.27428
64 Ni 5.70223 2.26268 8.63262
65 Al 3.78566 7.09268 2.47296
66 Al 5.77028 5.48047 3.73854
67 Al 5.72031 8.68704 1.08009
68 Ni 3.78832 5.09797 0.0458079
69 Ni 4.01897 6.70882 4.80333
70 Ni 3.7756 9.56277 2.57525
71 Ni 5.76078 6.22632 1.1946
72 Ni 5.82732 8.0975 3.47483
73 Al 3.88014 6.36766 7.25319
74 Al 5.79736 4.8266 8.63535
75 Al 5.8836 7.97836 5.93522
76 Ni 3.86164 4.10146 5.00218
77 Ni 3.77119 5.96307 9.84097
78 Ni 3.89439 8.80633 7.59017
79 Ni 5.87905 5.43704 6.24063
80 Ni 5.75667 7.3987 8.34371
81 Al 3.86627 12.1488 2.66417
82 Al 5.81417 10.4096 3.9864
83 Al 5.81067 13.8056 1.21123
84 Ni 3.8252 10.0116 0.114904
85 Ni 3.91364 11.7085 5.054
86 Ni 3.85436 14.7375 2.42895
87 Ni 5.67356 11.011 1.77732
88 Ni 5.92237 12.9851 3.67879
89 Al 3.93708 11.3894 7.64904
90 Al 5.80549 9.76684 9.04942
91 Al 5.9022 13.0124 6.21294
92 Ni 3.92644 9.20308 5.03913
93 Ni 3.9546 10.9033 10.2507
94 Ni 3.89608 13.872 7.37147
95 Ni 5.73681 10.4549 6.52487
96 Ni 5.83539 12.3092 8.62733
97 Al 7.6371 1.9981 2.44091
98 Al 9.52762 0.447094 3.86013
99 Al 9.51986 3.78452 0.930898
100 Ni 7.74242 0.0681886 0.143491
101 Ni 7.53421 1.75649 4.82073
102 Ni 7.69766 4.47069 2.27333
103 Ni 9.5739 1.22666 1.40385
104 Ni 9.61739 2.91529 3.50122
105 Al 7.62633 1.3722 7.33497
106 Al 9.58878 -0.135478 8.92346
107 Al 9.52042 2.96388 5.95944
108 Ni 7.69857 -0.77507 4.89377
109 Ni 7.62992 1.02912 9.81423
110 Ni 7.73879 3.94832 7.28316
111 Ni 9.50356 0.199144 6.34679
112 Ni 9.66126 2.30816 8.37108
113 Al 7.64128 6.99654 2.32232
114 Al 9.55632 5.41238 3.75091
115 Al 9.59597 8.73827 1.087
116 Ni 7.56122 5.08929 -0.190861
117 Ni 7.71676 6.68281 4.87748
118 Ni 7.65743 9.55603 2.47094
119 Ni 9.54055 6.15668 1.29136
120 Ni 9.42365 7.94301 3.50945
121 Al 7.71368 6.42041 7.42084
122 Al 9.41908 4.79588 8.78978
123 Al 9.49643 8.01903 6.02138
124 Ni 7.60678 4.20942 4.77615
125 Ni 7.64518 6.06803 9.80287
126 Ni 7.72479 8.95131 7.4639
127 Ni 9.60135 5.48859 6.21008
128 Ni 9.60107 7.34763 8.55308
129 Al 7.74427 12.116 2.50214
130 Al 9.54058 10.4921 4.02649
131 Al 9.7239 13.7208 1.40252
132 Ni 7.67703 10.2083 0.103862
133 Ni 7.70315 11.7017 5.09952
134 Ni 7.72935 14.6037 2.57202
135 Ni 9.62003 11.0756 1.61616
136 Ni 9.70715 13.0316 3.67733
137 Al 7.71742 11.3855 7.6106
138 Al 9.58374 9.70323 8.96814
139 Al 9.77399 12.863 6.15095
140 Ni 7.65286 9.1071 5.05937
141 Ni 7.83834 11.1546 9.93474
142 Ni 7.82658 13.942 7.4331
143 Ni 9.62592 10.3541 6.49913
144 Ni 9.78121 12.2564 8.62393
ITEM: TIMESTEP
15000
ITEM: NUMBER OF ATOMS
144
ITEM: BOX BOUNDS xy xz yz pp pp pp
-5.2354689393729892e-02 1.1573007795541535e+01 1.1336096782380796e-01
-1.4543496252578436e+00 1.5018980414499291e+01 1.2232139976558618e-02
-2.9284709065767522e-02 9.9320028898058226e+00 -1.4458676339759207e+00
ITEM: ATOMS id element xu yu zu
1 Al -0.0651892 2.15228 2.39777
2 Al 1.80653 0.590705 3.84896
3 Al 1.81179 3.76549 0.967302
4 Ni 0.050207 0.103141 0.0814288
5 Ni -0.0953006 1.81109 4.86434
6 Ni -0.0452272 4.60393 2.4628
7 Ni 1.87213 1.24594 1.39262
8 Ni 1.85324 3.14709 3.51045
9 Al 0.00919859 1.51355 7.50081
10 Al 1.85147 -0.125903 8.8485
11 Al 1.99369 3.04303 5.98112
12 Ni -0.104537 -0.74316 4.96795
13 Ni -0.0828452 1.05265 9.95203
14 Ni 0.134349 3.85765 7.23235
15 Ni 1.86872 0.446771 6.31479
16 Ni 1.84142 2.32718 8.47824
17 Al -0.0304937 7.23276 2.34002
18 Al 1.9266 5.5714 3.83922
19 Al 1.96559 8.83704 1.10429
20 Ni 0.062397 5.00399 -0.139127
21 Ni -0.0411521 6.74363 4.93144
22 Ni 0.0693534 9.74375 2.55157
23 Ni 1.89642 6.18102 1.31083
24 Ni 1.98159 7.97092 3.60035
25 Al -0.0310037 6.35528 7.37684
26 Al 1.8928 4.7853 8.76223
27 Al 1.88348 7.97385 6.16552
28 Ni 0.00294969 4.26821 4.8242
29 Ni 0.056475 6.08432 9.86824
30 Ni -0.0119813 8.96825 7.4206
31 Ni 1.92837 5.40486 6.30497
32 Ni 1.8999 7.27297 8.5939
33 Al -0.0720642 12.2805 2.49742
34 Al 1.91713 10.6004 3.89841
35 Al 2.00359 13.8379 1.15021
36 Ni -0.00455168 9.96147 0.00271284
37 Ni -0.0767125 11.7265 4.89744
38 Ni 0.00487476 14.7346 2.49275
39 Ni 1.95748 11.2824 1.35497
40 Ni 1.82345 13.0234 3.6726
41 Al 0.0572751 11.5865 7.42662
42 Al 1.89844 9.91127 8.90519
43 Al 1.93254 12.9972 6.07907
44 Ni 0.0864137 9.23564 5.0614
45 Ni 0.0701343 11.1482 9.93067
46 Ni 0.033144 14.0301 7.39257
47 Ni 1.85968 10.4319 6.3502
48 Ni 1.9977 12.4584 8.60153
49 Al 3.81601 2.08394 2.33626
50 Al 5.81951 0.577878 3.90718
51 Al 5.71649 3.69798 0.89712
52 Ni 3.78434 0.102723 -0.0512889
53 Ni 3.73142 1.58289 4.839
54 Ni 3.86518 4.62051 2.28007
55 Ni 5.79967 1.13134 1.3174
56 Ni 5.66303 3.15808 3.47871
57 Al 3.65237 1.37138 7.46908
58 Al 5.59623 -0.143167 8.73801
59 Al 5.60273 2.93629 5.89561
60 Ni 3.69096 -0.838688 4.88248
61 Ni 3.7658 1.10201 9.84327
62 Ni 3.71534 3.91398 7.32855
63 Ni 5.55999 0.470124 6.29271
64 Ni 5.71498 2.421 8.36807
65 Al 3.7942 7.12669 2.46652
66 Al 5.62315 5.53222 3.85808
67 Al 5.7637 8.78968 1.17704
68 Ni 3.88062 4.98985 -0.106487
69 Ni 3.73557 6.69066 4.93966
70 Ni 3.87709 9.71496 2.51894
71 Ni 5.74061 6.2328 1.35905
72 Ni 5.68965 8.04269 3.62418
73 Al 3.83303 6.41517 7.46657
74 Al 5.83452 4.82207 8.75104
75 Al 5.83636 7.99324 6.05482
76 Ni 3.79034 4.33466 4.87158
77 Ni 3.89376 6.10484 9.85968
78 Ni 3.84188 8.91926 7.45006
79 Ni 5.64571 5.43462 6.22667
80 Ni 5.75258 7.40007 8.60844
81 Al 3.78161 12.1525 2.68661
82 Al 5.73448 10.4366 4.02905
83 Al 5.82516 13.7338 1.26281
84 Ni 3.74776 10.1013 -0.0379241
85 Ni 3.87881 11.71 5.33453
86 Ni 3.90046 14.5461 2.44548
87 Ni 5.76801 11.3453 1.43325
88 Ni 5.80805 13.0796 3.78568
89 Al 3.88469 11.4084 7.66103
90 Al 5.71695 9.74338 9.01872
91 Al 5.81619 12.9388 6.28623
92 Ni 3.82083 9.21594 4.96849
93 Ni 3.84554 11.1951 10.0578
94 Ni 3.88994 13.9285 7.44772
95 Ni 5.89332 10.3707 6.62423
96 Ni 5.83702 12.3447 8.72041
97 Al 7.54323 2.21959 2.52477
98 Al 9.485 0.555494 3.78399
99 Al 9.50927 3.87148 1.02784
100 Ni 7.46636 0.0572379 0.0467344
101 Ni 7.66251 1.72412 5.03578
102 Ni 7.67161 4.7606 2.40396
103 Ni 9.65628 1.24588 1.32675
104 Ni 9.54017 3.16819 3.4964
105 Al 7.52915 1.25151 7.38484
106 Al 9.43211 -0.119354 8.92849
107 Al 9.49122 2.94316 6.06783
108 Ni 7.50402 -0.802304 5.14423
109 Ni 7.66658 1.03316 9.99068
110 Ni 7.59052 3.8247 7.36232
111 Ni 9.56457 0.539969 6.35899
112 Ni 9.47703 2.31213 8.57169
113 Al 7.73213 7.15658 2.38835
114 Al 9.58419 5.61364 3.74345
115 Al 9.62094 8.84036 1.09636
116 Ni 7.71837 5.14516 -0.0633711
117 Ni 7.7015 6.7796 4.823
118 Ni 7.62542 9.5839 2.66873
119 Ni 9.60906 6.23543 1.17455
120 Ni 9.61765 8.13282 3.63341
121 Al 7.61647 6.39756 7.32371
122 Al 9.50799 4.85319 8.66605
123 Al 9.47595 8.0645 6.04456
124 Ni 7.68374 4.22331 4.85317
125 Ni 7.74593 6.12568 9.84483
126 Ni 7.68226 8.88974 7.65725
127 Ni 9.6064 5.32046 6.14805
128 Ni 9.62182 7.39672 8.54379
129 Al 7.67947 12.0525 2.72363
130 Al 9.61456 10.5468 3.89997
131 Al 9.60723 13.7754 1.19486
132 Ni 7.63625 10.0285 0.167011
133 Ni 7.76019 11.8109 5.15082
134 Ni 7.76174 14.6476 2.54307
135 Ni 9.59746 11.3149 1.3471
136 Ni 9.53553 13.1521 3.64132
137 Al 7.76861 11.3067 7.77948
138 Al 9.6662 9.82194 8.8871
139 Al 9.67702 13.1364 6.0732
140 Ni 7.77518 9.28619 5.14862
141 Ni 7.71941 11.0747 10.2485
142 Ni 7.69057 13.8436 7.51254
143 Ni 9.60487 10.4747 6.3922
144 Ni 9.68517 12.4009 8.5413
