LAMMPS data file via write_data, version 22 Jul 2025, timestep = 15000, units = metal

128 atoms
2 atom types

-0.013789838070172422 9.644795660326487 xlo xhi
0.010715917696398236 13.189152295596 ylo yhi
-0.0313229024679087 14.884800662279554 zlo zhi
0.00698542095555853 0.08561667371832406 -0.0004766792887793724 xy xz yz

Masses

1 26.98153849305915
2 58.69339998490145

Atoms # atomic/kk

1 1 4.426302555385533 13.110019659824184 1.8586645078948594 0 -1 0
2 1 1.6631901976313415 1.120189764190044 3.2937547417523256 0 0 0
3 1 1.787813664486191 1.2309114308735978 0.32450212610745155 0 0 0
4 1 4.162877499732189 2.1199083728049866 3.967179159951679 0 0 0
5 1 0.6875694317258096 4.4553683815746545 3.393428214616025 0 0 0
6 1 3.0834540234302463 5.530757211083239 6.9824361286868015 0 0 0
7 1 0.6799894833837608 4.485405596236022 0.46266557536779973 0 0 0
8 1 3.0556596447470783 5.326683978699295 4.043165669797585 0 0 0
9 1 4.1655351369877165 2.2291429656738666 6.999839079479045 0 0 0
10 1 2.867102882328647 3.247449989625574 1.8938221708509149 0 0 0
11 1 0.4454316104543001 6.662126357886826 5.45406504461703 0 0 0
12 1 2.0548218606282136 3.152715924167316 5.515660664117781 0 0 0
13 2 2.1054190403292843 5.786997437933833 1.7197569884491541 0 0 0
14 2 0.3451707915611541 2.4946726614163497 1.8938021625237182 0 0 0
15 2 2.580586135342758 0.8406207799108478 5.530726449618455 0 0 0
16 2 4.601980608623852 4.23939863785422 5.600215050039497 0 0 0
17 1 4.598422793074784 0.06509507241794035 9.24486160635744 0 0 0
18 1 1.8138358477954455 1.0505573424020727 10.735929457782316 0 0 0
19 1 1.8405585141846812 1.0700901731214882 7.908592445358073 0 0 0
20 1 4.26795520217461 2.1686406741164763 11.673647457769228 0 0 0
21 1 0.6552700686936244 4.462034578334991 10.611579851705951 0 0 0
22 1 3.103896572327444 5.524980209431922 14.393215885013117 0 0 0
23 1 0.7234573996563611 4.409731449315757 7.873152363015211 0 0 0
24 1 3.155523728764372 5.420692485209484 11.595204728895762 0 0 0
25 1 4.184747835400615 2.2028473984346415 14.520191976769592 0 0 0
26 1 2.8966091448244247 3.3013590404250106 9.403721509572406 0 0 0
27 1 0.4883395390552231 6.639388705534287 12.925145090182841 0 0 0
28 1 1.980686222695484 3.315116320804166 13.103442156687697 0 0 0
29 2 2.1496831825516702 5.780336691098394 9.287546618313154 0 0 0
30 2 0.36648012822971704 2.49907671140258 9.23593866901393 0 0 0
31 2 2.825480134561584 0.8591706280279767 12.996577903657133 0 0 0
32 2 4.611451864632374 4.113450625007581 13.042197127315053 0 0 0
33 1 4.477761329168588 6.601519419515017 1.8340434330657485 0 0 0
34 1 1.8125677697077687 7.627936061447737 3.2522976447933023 0 0 0
35 1 1.715485119545067 7.668762569495332 0.31259455630009086 0 0 0
36 1 4.206902982111893 8.748170349986522 4.0473366351123685 0 0 0
37 1 0.5556898518293155 10.98797472650813 3.082796872113178 0 0 0
38 1 3.1685919038505226 12.04742232281489 7.0276043682548135 0 0 0
39 1 0.69137821420319 10.99923731182667 0.32999929331167954 0 0 0
40 1 3.002905152833166 11.974537044397158 4.034450447121453 0 0 0
41 1 4.222089928348603 8.998805103951442 6.828681248884393 0 0 0
42 1 2.896450821581072 9.996162590121909 1.7078077308907962 0 0 0
43 1 0.3316759725633199 13.091745296999122 5.525028580849164 0 0 0
44 1 2.0557325753453783 9.886191822028787 5.35862379544474 0 0 0
45 2 2.101004337117547 12.390500644525963 1.713234166534066 0 0 0
46 2 0.1094830143067813 8.903802270170802 1.9146355375750306 0 0 0
47 2 2.646525312686188 7.45844815503323 5.518274957026487 0 0 0
48 2 4.560539706289579 10.850445115995054 5.382382684677347 0 0 0
49 1 4.518836873596472 6.728213046742872 9.298119179384546 0 0 0
50 1 1.801475266838966 7.703423423536253 10.685538033641667 0 0 0
51 1 1.7663017058081418 7.765502244105159 7.714589389423159 0 0 0
52 1 4.214371671068959 8.873904372411936 11.533310757119619 0 0 0
53 1 0.6878632928843075 11.094618568231262 10.762018124776215 0 0 0
54 1 3.151660168307494 12.150409700876997 14.48501091355557 0 0 0
55 1 0.6044813343508212 10.976175578983595 7.68036857364782 0 0 0
56 1 3.1274210516159613 12.011153693853903 11.495161299822602 0 0 0
57 1 4.1630533242530605 8.899510991874195 14.480765154125937 0 0 0
58 1 2.912482226096785 9.862182671811583 9.206182747281844 0 0 0
59 1 0.5951525785959711 13.138642069368355 13.03881048512811 0 0 0
60 1 2.0882058509804833 9.836887387467883 13.008053955309286 0 0 0
61 2 2.11880571464505 12.209003742548157 9.16864843010124 0 0 0
62 2 0.30476392321764045 9.17403460019569 9.281022581115689 0 0 0
63 2 2.8432563083275086 7.505078950275309 12.98696178061548 0 0 0
64 2 4.567010108841528 10.809937971533236 13.023578780639639 0 0 0
65 1 9.241382396997354 0.19233924390587012 1.7630381331271616 0 0 0
66 1 6.538094164173323 1.0697835901678279 3.3643846557869215 0 0 0
67 1 6.585306021178621 1.1914064727207112 0.3164792865983252 0 0 0
68 1 8.98223594250883 2.270834923327743 4.166795399481287 0 0 0
69 1 5.50804956015924 4.428997120666836 3.339672693750869 0 0 0
70 1 7.915639458640234 5.586678260985367 6.932098231993558 0 0 0
71 1 5.395756173341262 4.4380514305429974 0.424079986183992 0 0 0
72 1 7.854957726951956 5.481130943570852 4.240404597273194 0 0 0
73 1 9.201171817255938 2.101834209337444 6.98676203117479 0 0 0
74 1 7.706520463061218 3.395358143490553 1.768614129104466 0 0 0
75 1 5.101415752493335 6.573502092650339 5.478293950830302 0 0 0
76 1 6.913676682229012 3.160435167610296 5.654483815841703 0 0 0
77 2 6.970915405676311 5.6365464239772916 1.8960364864376484 0 0 0
78 2 5.017182543551978 2.3124280807782456 1.845804410477494 0 0 0
79 2 7.576181385725461 0.7827948329949042 5.501701876964239 0 0 0
80 2 9.44650291179291 4.232326467603211 5.618113599362176 0 0 0
81 1 9.30864049714334 0.20054569482689855 9.343359199771786 0 0 0
82 1 6.6305702605266985 1.153044743655099 10.785650793118084 0 0 0
83 1 6.687982014631162 1.3105015324701013 7.730612802154865 0 0 0
84 1 9.08820911300983 2.3083938850349544 11.497527758535949 0 0 0
85 1 5.516208896743294 4.388687607231387 10.721798381014647 0 0 0
86 1 8.053357011249238 5.519429375279158 14.447924785068341 0 0 0
87 1 5.5609803156014195 4.370795004621425 7.822911028354789 0 0 0
88 1 8.000093846414572 5.60303228392279 11.4810877230891 0 0 0
89 1 9.211188217601459 2.272685040435775 14.417332142996242 0 0 0
90 1 7.8107194954740224 3.4086324050630976 9.320900149873129 0 0 0
91 1 5.334356699041162 6.526985989115069 13.151994030571245 0 0 0
92 1 6.9035103887371365 3.2697339892470185 12.946371009906617 0 0 0
93 2 7.099569568548437 5.813009362547626 9.199085832529917 0 0 0
94 2 5.082792450482385 2.4273571089581156 9.343010071042908 0 0 0
95 2 7.747896285471303 0.8671785745681452 12.921351256331608 0 0 0
96 2 9.46614417828779 4.153160621896233 12.947529357199677 0 0 0
97 1 9.2155429540281 6.523485737941918 1.881020169345411 0 0 0
98 1 6.557125862004691 7.662546567557042 3.290485624175528 0 0 0
99 1 6.497831149327779 7.647376185976659 0.4020946769742718 0 0 0
100 1 8.939331975515328 8.796677017449799 4.168021274506728 0 0 0
101 1 5.6232526781783925 10.945931202915162 3.176098040359906 0 0 0
102 1 7.801217949136816 11.977109871267219 7.042684614446386 0 0 0
103 1 5.478636778755024 11.12523296779771 0.3854255294673157 0 0 0
104 1 7.977335794653996 11.981203781811109 4.032810936890972 0 0 0
105 1 8.917322401892822 8.831213253150038 6.999058685093147 0 0 0
106 1 7.711024900913086 9.966282896207026 1.6846921860677257 0 0 0
107 1 5.2741654401224904 0.058219808575398026 5.558762760305945 0 1 0
108 1 6.750979668026368 9.835443197235882 5.448439564435287 0 0 0
109 2 6.953236707476818 12.385873202504131 1.7617742451660006 0 0 0
110 2 5.347169564125583 9.043558804302489 1.8680229647774016 0 0 0
111 2 7.508118514403015 7.5114638848334145 5.584166617635587 0 0 0
112 2 9.447138703296284 10.673659182796838 5.561643010351576 0 0 0
113 1 9.261425583521147 6.735186845244583 9.278224569601448 0 0 0
114 1 6.5923760022712985 7.697269558563633 10.710650203512316 0 0 0
115 1 6.4564810071156025 7.834970554494778 7.694796599306922 0 0 0
116 1 9.078699733703482 8.780627746018654 11.57760591259716 0 0 0
117 1 5.579920618842156 11.099091654079768 10.784445338439042 0 0 0
118 1 8.039678498238011 12.140853213427393 14.502558109277306 0 0 0
119 1 5.564879928740614 11.0142673516241 7.749972725341703 0 0 0
120 1 8.115628162859997 12.184785539862565 11.52834397673394 0 0 0
121 1 9.074203456648602 8.785520817209981 14.452813331141108 0 0 0
122 1 7.754164546995228 9.974689686422009 9.265772546792448 0 0 0
123 1 5.335973778580147 13.183404671051731 13.01714208071482 0 0 0
124 1 6.944957392115408 9.988311850432849 12.99112093909228 0 0 0
125 2 7.149316134255598 12.27096999399653 9.298989428869238 0 0 0
126 2 5.20177293078591 9.103392360743221 9.360042130817146 0 0 0
127 2 7.490074968835694 7.557872959964401 13.024393703450581 0 0 0
128 2 9.417189105657044 10.741659798807301 13.010184651851715 0 0 0

Velocities

1 -4.053829296481917 -2.8710042383223757 2.0498021707733525
2 2.9085111388029095 0.7904802245424853 3.055235048447353
3 7.786226011691685 -2.980942155668498 2.0549694696654575
4 -0.8733313124347656 -2.447869598272876 2.258755313580654
5 -4.920853670283693 -2.932773510130714 -4.222451806807591
6 2.28036667900055 4.759588488839982 4.126036108841697
7 -3.2586837909432256 2.1088211933410665 -2.272305819111218
8 1.037889183298822 2.5151826333443696 3.2774604819845385
9 -2.154275209191076 2.153771529149408 0.013845546821667823
10 -4.028313199126247 1.514418521040387 -1.6563749950420155
11 -4.443614741295128 5.050671320309693 -1.943973503251694
12 -1.5031546583515047 -3.304754406840163 0.37080856604475837
13 -0.14029120042522053 -3.0292510570622944 -1.7376357186095344
14 -1.3589564390233544 -4.987094012548662 -0.004807372226531604
15 -1.7999196754822793 1.2929431160097757 -0.2953091184322715
16 -4.592776804448308 -1.5148688977001379 -2.422603805746792
17 6.113210438727098 -1.0800121356965091 -2.430556777031608
18 2.2961946198557346 -3.3843899621447484 -2.9701984596906024
19 -0.1433712715274863 -0.11791737617100685 0.8898096552808454
20 5.204804519436273 -2.6010980408291724 1.7487201210647345
21 4.524264970982148 -2.510069961804068 -4.424569305684401
22 0.434334492153481 2.239540814357638 -5.86234862908741
23 -1.4904695976907383 -1.460219095286856 0.0621082165597755
24 2.661704513786924 2.6957681778758205 0.5335956800605713
25 5.904479716551679 -1.1618073388810937 -5.0042715631218035
26 0.3393944526657269 -4.713550117742374 -1.204732289680075
27 2.532429438242413 -1.3074523418489385 -2.674555644612963
28 4.457926909241109 1.2414359039164722 -3.960317806929782
29 -0.5643866175143329 3.0275800589544524 1.9629509273212773
30 4.163310253670115 2.5172918216775173 -1.5618466124327637
31 -0.44737849506203725 1.2997332226533944 3.824019550669261
32 -1.9942194058224283 3.5060437027700724 -0.6239708803920314
33 1.034474607232326 3.7791535282998763 -3.2654340840878993
34 0.7342282983550016 -2.185259734981758 4.0868841899796875
35 0.6640507675471811 0.7911960818788324 0.18551372047772624
36 -2.5918656339076636 2.3832820441154756 3.1785621611910226
37 0.7408977408083443 -0.5646020254097776 2.946415531109836
38 0.7828181221850435 -2.1005513621100764 -1.3183486281699939
39 -3.3968110897128705 -1.4212817873094987 3.5296532218832377
40 -1.8475066873294443 2.163117275747008 0.16228253570862972
41 -2.878956645454952 0.8931838254837628 3.237573366742774
42 -0.5137589641616365 4.408802119395094 0.542717726374927
43 1.5397033925576928 -2.1746410819698645 -1.5535795919756545
44 3.5483405396353134 7.6858085942968914 3.355107771969477
45 4.9450445336376125 -1.4022111951514376 -1.426832167889048
46 -1.5187803557169985 2.182031263892048 0.8937613444351852
47 0.8731463072259 0.6778752014078177 3.8816717263858767
48 -0.7173108473828901 -0.6962563130697728 1.3719403572432027
49 5.401942678761031 -1.4112143744732297 -2.8979438027755915
50 -4.683525920623673 -2.59518277742695 1.6301525814347164
51 4.761603981269863 -2.3083807046572473 2.2807436609320666
52 0.38499225459422953 -1.7057306579215128 0.1968921555659618
53 -2.406863111449843 -3.277734551724126 2.659740716266693
54 3.761149198311325 -1.1069511252646957 -1.1634352877200922
55 -1.924795884909087 -1.3721454347858522 -5.826806481748839
56 -1.0624765820019664 -1.9068350334660942 -0.7745492527073545
57 -2.1144859014984765 1.8900156777717365 1.361420578067499
58 -3.327163706736388 1.425177206546643 -2.0250302634438127
59 -3.8057629745519757 -1.5652686217779594 1.7674319139002423
60 -2.753151763654435 -2.211592940365196 -5.500099442487992
61 1.9579441372192783 -0.5691726015709293 0.8198194149721395
62 0.18358663869012073 0.4760306894372901 -4.5826280529062515
63 -0.8061286357513564 1.8661280624179128 0.8897991810050812
64 -0.7147222194348792 2.4457888368493337 0.9603256929291406
65 -1.0728209257229557 2.9712090860018865 -4.078047240310359
66 -3.031663247008803 0.025806902530406114 1.1250774382521178
67 2.2148121902001665 3.6844670413414495 -2.720514003690938
68 5.63951860832349 2.365941314297504 1.8431027369682507
69 -1.1771020125779554 0.9314676820699916 -1.1159755524336283
70 2.424877696346995 -2.7023175303193767 1.9940369950303862
71 1.1823161184035782 -1.6127918299701633 0.28069453474091166
72 2.5952764609256405 -3.078127436352363 -3.1199536193312287
73 2.9027732765712693 0.6007163549145872 -2.6267142889973427
74 -2.553776408485952 0.20432664637994197 -0.37554751809889375
75 2.644700569358327 -3.008294691672053 -2.475326963320239
76 2.3894424464921595 0.7746268384583456 7.145390490822847
77 -2.0508275030828984 -0.44994745947028997 -1.5717675007583516
78 2.158066964711353 0.14075777410880724 -1.6870389718398124
79 4.455037345765399 -2.9864044465655137 -0.4360906872411593
80 0.9256867436904759 -3.4401737117424704 5.790391679928916
81 -6.933127921335562 3.085001430479757 -1.8157560660170586
82 6.311027994791747 2.4832154683263874 -2.9003110482121417
83 3.4148166372606577 -1.9937588562539916 -4.683575171762582
84 0.4439850930216336 -0.07333020642186741 1.596498534440378
85 -0.038150005351063776 -0.2497507967197188 0.21790440150859264
86 -6.822410190499914 4.862954515713606 -1.931962708442085
87 -1.8842731209091006 3.6745602274758613 -0.5226597694654395
88 0.09326371925096495 -4.25650227456838 1.1582090039560826
89 0.09757631421680099 -0.955963035867415 -3.547161008021375
90 -3.849531243911137 0.7657601947519688 -0.8951984162933992
91 -4.6017223833975756 0.1496480440623229 -1.778921753259708
92 -2.007160985651543 -4.289981643895158 0.12530393124246025
93 -2.1693492504070413 2.1343681413885385 3.300865124511087
94 2.147898435353267 2.3399424897126524 -0.6639650444242892
95 -2.1662492916482257 -4.0333394615849905 -0.39985989014508666
96 -2.3512139572223907 0.5469392803558214 0.49906749152725993
97 3.686259666836762 -0.3673805828443718 1.567518397808829
98 4.1218318080122796 -4.752865728794494 -0.291417018708738
99 -3.6135249133562524 4.00007616135823 8.347480106955148
100 -2.9264653418249744 -0.5321723722400052 3.0916600701374413
101 5.907929258725775 4.871396117717715 -3.6390501096967744
102 0.3095201321613639 2.3265216201325725 4.433539953981093
103 3.0248273684583786 -0.32032090054510365 -0.33738744690497424
104 1.5346235500885237 -3.7303509607906657 2.213281480985414
105 0.5021107572278447 -3.3521545475385772 4.098145394981631
106 2.9589608365557023 -1.9691788268031425 -1.7321498025777615
107 -3.1204107143568987 -2.9554620404379457 4.543942252487145
108 -0.2372026841701252 -0.18306577985905775 -3.3307351411546233
109 4.104288685103227 1.4779322205031082 -2.2982351741722162
110 -1.9753120445725099 -3.5231719411538 -0.394266564143482
111 -1.1214590460493115 -0.21601618081303034 2.9558447068024836
112 -1.4814580190859015 -1.3096593189048906 -0.586236091407851
113 -1.4056623555861834 -4.26064874312626 0.9085275810012476
114 -1.4399900099477527 2.8416075222021653 1.4617732749760084
115 0.08184742650766119 -0.0066743534552124745 -2.909168249217038
116 -0.5647083606893849 -1.4646284778450616 -3.429732063801616
117 0.2774930091615514 2.824526992243489 0.24612247006498672
118 2.754372921295393 -0.1874154672380483 0.3576498993967223
119 -0.5244090778934885 -3.6667778935705484 -5.775011311368358
120 -5.971304871310245 5.308482993223515 1.0161631914123022
121 -2.5385824092951315 -1.4818731471404138 -0.6697393788467838
122 0.5198011016015037 1.4436467431357087 3.717175180952336
123 -2.9208465147104783 1.4529017958221582 -3.573440045503552
124 -5.149410132436388 2.960723788136282 2.52344857098632
125 0.5956010156632858 3.668986888463647 2.2707293621323594
126 0.5784290940244312 2.5573196236683913 0.39411119304678044
127 2.514402142467766 0.5769410459706589 -0.4652075458027314
128 -4.072094454094085 -1.2975356748951576 -0.5421080843463122
