LAMMPS data file via write_data, version 22 Jul 2025, timestep = 15000, units = metal

144 atoms
2 atom types

-0.05235468939372989 11.447414687741167 xlo xhi
-0.008481991281922951 15.01898041449929 ylo yhi
-0.029284709065767522 9.932002889805823 zlo zhi
0.11336096782380796 0.012232139976558618 -1.4458676339759207 xy xz yz

Masses

1 26.98153849305915
2 58.69339998490145

Atoms # atomic/kk

1 1 11.434580189589408 2.1522807423889585 2.3977652961421794 -1 0 0
2 1 1.8065312733204686 0.5907045051518357 3.8489586653853767 0 0 0
3 1 1.8117941246143867 3.765486911212036 0.9673021766577291 0 0 0
4 2 0.05020695754041361 0.10314114385068869 0.08142877342782297 0 0 0
5 2 11.404468820621243 1.811089370460223 4.864342581762537 -1 0 0
6 2 11.454542212735795 4.6039261949756405 2.462801194240771 -1 0 0
7 2 1.8721328114318185 1.2459405751150632 1.3926167786106136 0 0 0
8 2 1.8532417594363815 3.1470885844676344 3.510447326836848 0 0 0
9 1 0.00919859198332957 1.513546151488527 7.500810435180921 0 0 0
10 1 1.8514667162987009 -0.1259029521894825 8.848495654161663 0 0 0
11 1 1.9936861969464097 3.0430250397289527 5.981117712662767 0 0 0
12 2 11.508593224289612 14.284301972719842 4.967947066473021 -1 -1 0
13 2 11.404692059802645 2.498512818491691 -0.009252644050745567 -1 0 1
14 2 0.1343487806341172 3.857646202581024 7.23235368989904 0 0 0
15 2 1.8687230743304108 0.4467713605267297 6.314789037599479 0 0 0
16 2 1.8414183008601346 2.3271803230577994 8.47824021775205 0 0 0
17 1 11.469275669509734 7.232760337843237 2.3400177873528434 -1 0 0
18 1 1.9266040480383078 5.571397425039762 3.839217004102163 0 0 0
19 1 1.9655878867272945 8.837043569608998 1.1042899437010292 0 0 0
20 2 0.07462913468375126 3.558124784680845 9.822160194655826 0 0 -1
21 2 11.458617279686017 6.743633802247141 4.93143776102722 -1 0 0
22 2 0.06935337792719037 9.74374773662651 2.551573855638847 0 0 0
23 2 1.8964219180814392 6.181024726515182 1.310834517592627 0 0 0
24 2 1.9815934650001923 7.970924252874913 3.600354421477933 0 0 0
25 1 11.468765709515381 6.355276489145068 7.376836237014479 -1 0 0
26 1 1.8928001990019396 4.785303761592065 8.762228238801152 0 0 0
27 1 1.8834793388913138 7.973854985194541 6.165515422338511 0 0 0
28 2 0.0029496893576685043 4.268213006084885 4.824203162716613 0 0 0
29 2 0.056474956815962554 6.084315592928957 9.8682390408668 0 0 0
30 2 11.487788086662995 8.968245741449277 7.4206022344903095 -1 0 0
31 2 1.9283743462435379 5.404856152274875 6.304973868557966 0 0 0
32 2 1.899904140099952 7.27296806758108 8.59389526853205 0 0 0
33 1 11.427705181617107 12.280464783565332 2.4974228300761654 -1 0 0
34 1 1.9171329235906136 10.600404231404088 3.898407681844752 0 0 0
35 1 2.0035899453491854 13.837863989437324 1.1502052727185839 0 0 0
36 2 11.49521770184068 9.961465417858747 0.0027128350396969357 -1 0 0
37 2 11.423056900078759 11.726531146290302 4.897443588201226 -1 0 0
38 2 11.391283168272718 -0.2928830923686925 2.4927503551384396 -1 1 0
39 2 1.9574793980253822 11.28240218369552 1.3549695224998966 0 0 0
40 2 1.823452361046341 13.023406434316762 3.6725972280187817 0 0 0
41 1 0.057275119375468767 11.58645584955233 7.426623247166391 0 0 0
42 1 1.8984352578937045 9.91127339043734 8.905186872432681 0 0 0
43 1 1.9325393255354022 12.99717981549949 6.079068221397072 0 0 0
44 2 0.08641371098440628 9.23564319395927 5.061395695392043 0 0 0
45 2 0.07013433549502927 11.14823292379636 9.930669071465358 0 0 0
46 2 11.419552445707499 -0.9973413952949667 7.392570397539892 -1 1 0
47 2 1.8596753355907107 10.431886186797644 6.35019523244464 0 0 0
48 2 1.997696459406321 12.458393985886651 8.60152828467563 0 0 0
49 1 3.8160089945701037 2.083944856357415 2.3362584799582624 0 0 0
50 1 5.819512602365847 0.5778782453269311 3.9071790793701036 0 0 0
51 1 5.71648908297363 3.6979812886230654 0.8971201535672989 0 0 0
52 2 3.796571985401196 -1.3431450610790279 9.909998654005435 0 0 -1
53 2 3.7314164822977047 1.5828943169589234 4.8389969312635595 0 0 0
54 2 3.865175044552966 4.6205064912974825 2.280070363589984 0 0 0
55 2 5.799672328792501 1.1313377572182066 1.317400314812864 0 0 0
56 2 5.663031716588879 3.1580799563410764 3.4787083731649617 0 0 0
57 1 3.652373969643693 1.371376289924591 7.4690761881468015 0 0 0
58 1 5.596234416119733 -0.14316731178628744 8.738010448107929 0 0 0
59 1 5.6027315649387335 2.936293215194294 5.8956067239651215 0 0 0
60 2 3.8043239682983865 14.188773987840658 4.882477981399686 0 -1 0
61 2 3.765803601752197 1.1020126399198231 9.843270925362724 0 0 0
62 2 3.715340574188872 3.9139812800198 7.3285544407247425 0 0 0
63 2 5.559991167978128 0.4701238543252792 6.2927141250863965 0 0 0
64 2 5.714978475491821 2.4210016776910988 8.368066635094477 0 0 0
65 1 3.7941990181139387 7.126694659577487 2.4665188626652768 0 0 0
66 1 5.623152289449052 5.53221998650172 3.8580811166376887 0 0 0
67 1 5.763695894907811 8.789681547396878 1.1770436148550727 0 0 0
68 2 3.89285002972916 3.5439823205610894 9.854800953451573 0 0 -1
69 2 3.7355748379992058 6.690660400923069 4.939655276593242 0 0 0
70 2 3.8770914203941884 9.714956579502658 2.518942819312319 0 0 0
71 2 5.740607396955309 6.232795328641016 1.3590543684356269 0 0 0
72 2 5.689648737041659 8.042692367665818 3.6241801737040196 0 0 0
73 1 3.8330284738766376 6.415172779673545 7.466567624873722 0 0 0
74 1 5.834521079199598 4.822067781863268 8.75104264636502 0 0 0
75 1 5.83636255951526 7.993238140760885 6.054822065654875 0 0 0
76 2 3.7903440884864166 4.334656980401222 4.871576099545166 0 0 0
77 2 3.8937644848730417 6.104838845581495 9.859677950227589 0 0 0
78 2 3.8418815244567517 8.919260693856348 7.4500588418924005 0 0 0
79 2 5.645710831740467 5.434617994084743 6.226665286440628 0 0 0
80 2 5.752580952395203 7.400070985369936 8.608442846983818 0 0 0
81 1 3.781605375898871 12.152549879881175 2.686607444649271 0 0 0
82 1 5.734478827127644 10.436563444013373 4.0290459441867075 0 0 0
83 1 5.825162066373954 13.733803625605631 1.2628118043904146 0 0 0
84 2 3.7599876013318627 8.655408633297519 9.923363507860682 0 0 -1
85 2 3.8788122437221997 11.710029910828318 5.33453156866229 0 0 0
86 2 3.9004559542574277 14.546064344016411 2.4454835629968383 0 0 0
87 2 5.768006293463774 11.345307742389476 1.4332543304263057 0 0 0
88 2 5.808049386109873 13.079594028551735 3.7856798483845027 0 0 0
89 1 3.8846876398436487 11.40844839397759 7.6610348190565185 0 0 0
90 1 5.716949283607904 9.743377012439122 9.018724408148321 0 0 0
91 1 5.81618949459936 12.938847543679795 6.286231045048457 0 0 0
92 2 3.8208330115562616 9.215940112165875 4.96849219138339 0 0 0
93 2 3.8333064634260867 12.64098898217497 0.09655749751924589 0 0 1
94 2 3.88994342765207 13.928471833996117 7.447718461281101 0 0 0
95 2 5.893318313348242 10.370706897670757 6.624226980406773 0 0 0
96 2 5.83702027961782 12.34468335113825 8.72040568977253 0 0 0
97 1 7.5432314584242866 2.219592679896557 2.5247717772758245 0 0 0
98 1 9.48499753496045 0.5554937851670116 3.7839922108535924 0 0 0
99 1 9.509271014737617 3.8714808453396734 1.027842609804071 0 0 0
100 2 7.466355811424085 0.05723786270973341 0.04673443865125479 0 0 0
101 2 7.662509433358186 1.7241190959113357 5.035783653439897 0 0 0
102 2 7.671610294286647 4.760602776992979 2.4039567036531464 0 0 0
103 2 9.656276460891458 1.2458810628037076 1.3267543673450244 0 0 0
104 2 9.54017091197327 3.168194104926803 3.4963990357209984 0 0 0
105 1 7.529150213221343 1.2515124386679402 7.384838484982405 0 0 0
106 1 9.432112035753288 -0.11935410661118001 8.928492056541831 0 0 0
107 1 9.491215865237411 2.9431599877683414 6.067827340865415 0 0 0
108 2 7.617377161289037 14.225158652602651 5.1442321693073945 0 -1 0
109 2 7.654343204200949 2.4790265160152147 0.0293960312368873 0 0 1
110 2 7.59051863142028 3.8247025297059056 7.362323041909731 0 0 0
111 2 9.564569390266499 0.5399685185844099 6.358985345814566 0 0 0
112 2 9.477034032385287 2.3121281265121234 8.571692438103533 0 0 0
113 1 7.73212964400008 7.156584249021307 2.388351198961529 0 0 0
114 1 9.584185068952852 5.61363820400476 3.743453826332558 0 0 0
115 1 9.620943625355054 8.840360508388141 1.09635730677857 0 0 0
116 2 7.730606402763923 3.6992959747152856 9.897916498541274 0 0 -1
117 2 7.701496484635906 6.779598135248146 4.822996628001375 0 0 0
118 2 7.62542003649621 9.58390181646822 2.66873032274869 0 0 0
119 2 9.6090598911427 6.23543112145569 1.1745494162501153 0 0 0
120 2 9.617654483120695 8.132823229432134 3.6334120799084006 0 0 0
121 1 7.616466242802945 6.397561054041049 7.323713130322018 0 0 0
122 1 9.507993615904844 4.853186696805106 8.666051840314532 0 0 0
123 1 9.475951833550315 8.064504351396295 6.044562694004243 0 0 0
124 2 7.68373601282314 4.223307388378751 4.853171499082814 0 0 0
125 2 7.745929380518216 6.125676670408829 9.844827014363817 0 0 0
126 2 7.682258756975242 8.889743122409222 7.65724833456315 0 0 0
127 2 9.60640219766848 5.320461628023261 6.148049704116608 0 0 0
128 2 9.621823730510314 7.39671593914091 8.543793476203673 0 0 0
129 1 7.679467005674903 12.052456647064215 2.7236298109231507 0 0 0
130 1 9.614557348640727 10.546769430517163 3.8999678921113605 0 0 0
131 1 9.607227819804386 13.775399501239633 1.1948631823808238 0 0 0
132 2 7.6362506941828645 10.028463824224335 0.16701055352427613 0 0 0
133 2 7.7601893863383395 11.810899522554383 5.150821832197729 0 0 0
134 2 7.648376361110674 -0.3798738779293763 2.5430740604814535 0 1 0
135 2 9.597457109008992 11.314861775899402 1.3471012515006546 0 0 0
136 2 9.535531130792393 13.152079849963254 3.6413162124472125 0 0 0
137 1 7.7686085194667545 11.306692637371931 7.779484485619489 0 0 0
138 1 9.666197019216792 9.82193646384168 8.887097820957253 0 0 0
139 1 9.67701672716169 13.136353588837302 6.073201555293758 0 0 0
140 2 7.77517532396298 9.28619379635246 5.148617327752316 0 0 0
141 2 7.707175711490626 12.520604219922529 0.28717389935820303 0 0 1
142 2 7.690574813821781 13.843556075260953 7.512537230346471 0 0 0
143 2 9.604870323781928 10.474729759738732 6.392201122982934 0 0 0
144 2 9.68516530209071 12.400932551735888 8.541296502099469 0 0 0

Velocities

1 1.1409098612556505 -1.6392299383345075 -1.3658474214737129
2 -1.1800473178571596 -1.897376161193796 3.373425791785952
3 0.1489968508657089 4.192301596998799 3.5624281296980116
4 -2.2270730826446665 -0.2882415723976738 -2.096288855640834
5 1.6306540584561544 -1.3364581855054367 1.2965367102749665
6 0.4553935288112941 1.45616041749461 0.974734461784662
7 -2.9159738026512936 -3.951707972875011 3.4400513988776686
8 -1.5153749070904365 -2.368741311162613 0.3165574623743794
9 -0.9140822764778839 0.02278378184934715 0.5377733579260618
10 -4.952062159157964 1.497458500286734 -2.4021936555748304
11 -1.3892004383950085 -0.46280856152443384 -2.0257649434817746
12 -2.356172931522297 2.6466008384668425 -3.5134231238079847
13 -3.046081242117407 0.014173920514104267 -1.2098938596161868
14 -0.09736174897936534 3.7037729011832154 -0.5275813867067453
15 2.527621909507958 2.452851892872236 1.1294403277092857
16 2.8478767469009196 0.3570284037104989 -0.9139498033699206
17 1.3357057303611979 1.6489485190874478 -3.2092946833209957
18 -0.0350933805599398 -2.00149781382053 2.081385888569152
19 1.8534842850644613 1.7998054908419507 -2.582870769570188
20 -3.7207475627215056 -2.172854098834412 1.3868306124521022
21 2.024826417211697 -0.6335113460387258 3.121881738842286
22 1.532601953140632 2.063091151695145 -0.4295582821292614
23 -0.65195604320926 -1.2826276276122135 -1.1688815228808842
24 -1.965062856416185 0.2443790225028046 -0.9102285429501188
25 1.8759156096421565 -3.2312962795608806 1.0716653832665128
26 -2.320148326989524 -0.32553848059362905 -7.8199332025610815
27 -1.3088290155937221 2.7303493569345596 0.9749620368267199
28 -1.502037889211959 1.8108130361404993 -0.6315254373539648
29 1.665619710951583 -0.25750823129204276 3.830796215185565
30 0.11101066402949132 3.0918481080311655 -2.872264424140802
31 -3.779123761155537 -0.2870082886766122 -0.9361440021296166
32 -0.12019900311436281 -1.8733352468192483 -0.04399377081969727
33 6.29675687370283 -0.8975967192211788 1.2876822490756388
34 0.393936861145495 2.3116102299332497 -3.9715875072100526
35 -2.604516290982968 5.558483425651335 -2.997265775514552
36 1.205828740796634 2.3229655702292233 0.6184454460730402
37 0.9992347620193385 -0.9517255738983048 3.8437018708909827
38 -2.612019603445255 -2.7770420466979493 0.030898787817552727
39 -0.47203295818315943 1.5994756006626543 2.7922237575861146
40 -0.5366343001339526 -1.810650431480505 -3.4549645141966847
41 -0.5318715215533696 -1.8413062904123958 6.127601572132029
42 -1.2701181262312047 -2.201772999854296 0.9121439764840289
43 2.838194029565127 -3.6035510115537006 -0.16001592520363803
44 2.8376062506174153 -1.0610915893820783 2.6506823915865274
45 1.8585093036823772 -0.1296507592036674 -4.233409310997761
46 -2.8712468521740546 4.430537864667788 0.8696001001591475
47 -0.1089929695676354 5.337840461428493 -0.9793926067040739
48 -0.0046196986485506925 -4.339222857525953 1.7205448041140385
49 -0.9568517303020335 -2.144778322594742 -2.814664536376551
50 -0.24180203233409592 -2.017004015266523 -0.6571666963884675
51 -0.4170951285167173 0.2347934260288467 -3.4018216569581567
52 -0.3878199310879741 1.1510344241115218 0.37812114796653074
53 1.313647679087264 1.278398100272743 -1.6450159633394121
54 -0.8240114332980644 -0.9578317941647735 -4.327933964639266
55 0.1472445011731124 -1.1667927575589174 -1.6983584397915845
56 -1.3004119943492514 0.993330543646126 0.1036659126693493
57 -1.0364782706246802 -2.0028144074871213 -3.040574597048344
58 0.7190394150233516 0.06465042559516498 2.3179526224312714
59 -5.883150268539532 0.9268688609456334 3.8070168341209256
60 0.4805431129502618 0.29414294452586937 2.5598797668996878
61 -2.1302322252121844 0.928566858741149 0.3126696122981199
62 -1.1388599058183697 2.7603452031707865 -1.8591009875398792
63 -0.07649305669609584 -3.5618886785149964 -0.0210582015626425
64 -0.6774252704483762 -0.6070186490402403 -0.5593107452554353
65 1.1046916822571544 -0.547955969237455 6.931132245019768
66 -1.6064398570863274 6.462574284748158 -1.354735382221499
67 0.28005961263730195 -1.7646272160728271 8.00748965941022
68 3.762533876857041 0.49358116341468083 -2.416859323725013
69 0.7393180961407803 1.8239990239191048 4.0233034759620665
70 0.8142149816095244 3.7983976760894573 -1.0404256282138973
71 3.553321819802786 -2.0099424006325637 0.7973164794037153
72 -1.3462040653360945 1.262611674771844 1.7072479218982812
73 0.4751586488018291 -0.6436301469109441 -1.9985359876844726
74 0.1740949529482192 -1.0012291138391711 2.923905068491454
75 1.5431005532071949 -1.8332074061830705 -3.0628607717144614
76 4.424217047233077 -3.4808222604677064 -1.4565815486757352
77 1.262660873898419 -2.122009313842026 1.3408481891455073
78 0.7440938407814891 -1.839689265824657 0.23574015969508968
79 -2.790854420641979 -1.6392627788777068 1.146050222735085
80 0.05417158248171843 0.16704874529280014 2.015154901394976
81 -4.378067487919479 -3.048848321684746 -4.171391778304316
82 -1.619930102880622 -0.758447953460584 -6.014576014692577
83 1.3602215845104983 1.9131002886332138 -3.6220763293396887
84 2.3386928673146086 1.1312835507483647 -1.1163542215210909
85 -1.3029013998025516 -0.3370810725976638 0.8467098190348927
86 1.1162347365981276 0.7878634128015116 4.099059262780082
87 2.77852513235088 1.9390004875981643 -1.7484315124407188
88 0.7987623261423484 3.4487735000588873 -0.7051798491698579
89 -3.1451391431211766 -1.3927493910766788 -4.947466735998215
90 5.37416360391616 -1.0081270180880249 -0.3167917820265195
91 1.4758003618474806 -1.058000331607378 0.5331729236852442
92 -1.4986289947267986 -2.087895168044268 0.10158096780828837
93 -0.05620245782638859 1.9785949791099138 -4.612934335938419
94 -1.5304408582696496 -0.5054373450731366 4.545422002435363
95 3.1703882320100365 3.743634844569177 -0.9266215924022156
96 1.26354564518549 1.0260852308657975 0.40986203666375526
97 -1.0198773993348373 -2.0853999511197547 2.883186627792088
98 1.9503305007479892 -5.697502100154151 -0.6308480747089145
99 4.302083960871207 2.7119938461144333 -1.1955916247393117
100 0.0069189381588465665 -0.5101673190609575 2.3119298909584494
101 -2.290571073087723 2.985639461540734 -0.8430373255197428
102 -1.2247065872498832 0.47185939910317287 2.8047650552480294
103 -0.1454930659377299 -2.2414638460175107 0.8165609068592737
104 1.6941285041667924 1.0391171018522676 -0.769282022283724
105 0.39348696175463915 -6.365130406201502 -1.5755566926333493
106 3.8750177212298484 -1.4673155316142277 -3.280492567537293
107 0.4248784149048712 5.0234485982294945 5.487808642909076
108 0.23494760468887838 0.840055650688773 -2.9691683081411395
109 -1.9674118271755718 -2.4177899301223698 1.8964504429917555
110 3.8557462913617346 1.617287321203779 2.397962670352645
111 1.8224993787034829 0.42063662535791424 -0.2251767878588477
112 0.9543622280293342 0.8558540885557485 1.5904133446260862
113 1.363228793562683 6.039898960924183 -0.5054119689304021
114 -0.6210788344563056 1.3595902977263559 1.4559959040666448
115 1.6113443563448888 -3.7441794831332054 4.3860123502843384
116 1.4658660047021614 -0.5202988170960747 1.5144298288219435
117 0.38362057841642677 0.9946717673809667 2.7608714795661995
118 1.4575382866944653 1.5598448781387888 1.5530350846153167
119 1.1319943117520506 0.23083814617382345 -0.3844212947140995
120 -2.878753039931779 3.1354914769522195 -1.2900035542886577
121 -1.55307249707364 -3.135406057770224 1.2670273706879052
122 0.8199538412743093 -3.3361578716314373 5.166571268283503
123 -4.175304378542726 0.40282199277442776 2.353498433966687
124 -2.5097906188107033 2.097355542863078 0.9377170820932675
125 2.533134348793124 -5.716941601887507 0.8678772316507994
126 0.1610308078666768 -0.524633812643894 -2.4597637056044084
127 2.7759356488791753 -1.3977371412531925 -0.18805618205420882
128 -1.0037287781166255 -3.1382776768342664 -2.6460956660451806
129 -1.6215314991299676 0.9029512429783569 -1.220654166735963
130 2.067062157125702 1.771669040633177 -2.6435253168490846
131 -3.688230457952023 -1.7302143828945657 -0.550876676542173
132 2.531970050226819 -2.18436503984142 -2.9053668429238497
133 -2.356031716647565 -3.6990693456523402 -2.6307736888867854
134 -1.6350215380013646 0.9006353115614657 2.1771855313787603
135 1.362881364263882 4.87754950509395 -0.6682862289964104
136 0.4214986223340104 -0.15753615498610768 0.9033657472304527
137 1.6320451662234368 -2.11686012911687 -2.0846061609438995
138 -4.122344628505349 -2.687889940961104 -4.049631352030165
139 -3.9259163835829023 -0.8464591853544821 -0.5122652525883399
140 -2.788262027011719 -1.1665235187663665 2.097280682444795
141 -2.469309625791017 -0.05653887684507169 -0.6589814751742331
142 -1.654105808755943 -1.2245801079365612 -3.6046878934204676
143 1.9820190222793792 0.12136483990811812 1.3522397171778042
144 -0.2947222931932355 -1.3387662985620548 -2.4736109073942982
