LAMMPS data file via write_data, version 22 Jul 2025, timestep = 15000, units = metal

128 atoms
2 atom types

-0.02546154299801806 11.60724586282189 xlo xhi
-0.021958702852415968 11.60374302267611 ylo yhi
-0.0011605701970056614 11.58294489002086 zlo zhi
0.01959877590192493 0.020035884234775134 -0.01340941685271056 xy xz yz

Masses

1 26.98153849305915
2 58.69339998490145

Atoms # atomic/kk

1 1 1.4314530006451465 1.4486809176633233 1.4391136210240933 0 0 0
2 2 11.596851115734673 -0.011376635066536557 0.1649526569540729 -1 0 0
3 1 1.522909931133428 1.3547875023133946 4.347815677414191 0 0 0
4 2 0.10834538900110238 -0.006245511524332326 2.83920906545279 0 0 0
5 1 1.3759566348420509 1.4279889039385827 7.3292775919112225 0 0 0
6 2 0.06830129356295331 11.379894911008819 5.771384180419009 0 -1 0
7 1 1.3046742513936178 1.4640395224155203 10.162597855714848 0 0 0
8 2 11.59911030197403 -0.026981494431858058 8.74676593013932 -1 0 0
9 1 1.4106691729699405 4.395824919753028 1.3772862499460061 0 0 0
10 2 11.59659729183176 2.8372557399050673 0.12097675684106488 -1 0 0
11 1 1.413438498021234 4.283513744229586 4.350858575860637 0 0 0
12 2 11.558567461255226 2.9983751569788946 2.8847628373135685 -1 0 0
13 1 1.458636943508715 4.282854969372742 7.310835219663703 0 0 0
14 2 0.03212472392597231 2.9152064897557572 5.785036636713543 0 0 0
15 1 1.3764950877959785 4.333347538399627 10.163972122601875 0 0 0
16 2 11.490190931288044 2.821726341344592 8.742349710283717 -1 0 0
17 1 1.3955324179638335 7.197133554560735 1.4303802227660067 0 0 0
18 2 11.4168557331703 5.755521046564974 11.49859285015564 -1 0 -1
19 1 1.4328903108240814 7.158477754380107 4.294494181075793 0 0 0
20 2 0.02155500412505544 5.697418768044701 2.940788928697602 0 0 0
21 1 1.397295749400809 7.1891746961694185 7.285528459108302 0 0 0
22 2 0.03536695764455715 5.796317249124834 5.90589212242812 0 0 0
23 1 1.4929684788859134 7.2416118743512605 10.16958019981528 0 0 0
24 2 0.05687589584859051 5.741629187048729 8.742548761786798 0 0 0
25 1 1.5103032368323008 10.20533212260275 1.4961647349390577 0 0 0
26 2 0.08308207933274651 8.690180206766296 11.536121232285145 0 0 -1
27 1 1.4032517786989211 10.214217256308478 4.3088628102074455 0 0 0
28 2 11.598233512469696 8.64675236184573 2.7901113285881762 -1 0 0
29 1 1.5410487387995253 10.138996101529377 7.144231133301764 0 0 0
30 2 11.581730299147878 8.655215834228187 5.852633724397141 -1 0 0
31 1 1.4374665876162425 10.11754608915671 10.18613593190169 0 0 0
32 2 0.1773645417755552 8.820569816746827 8.66818274301469 0 0 0
33 1 4.246955065802001 1.4895878111617233 1.4488179996079071 0 0 0
34 2 2.8549853288476563 0.011726185823944552 11.474635368232066 0 0 -1
35 1 4.375617043227499 1.5226147535574954 4.300549642504606 0 0 0
36 2 2.8915501772843633 0.034483158332379533 2.936275445207762 0 0 0
37 1 4.314873230879834 1.5070435238814628 7.185804161179928 0 0 0
38 2 2.973682950791164 11.580957405254892 5.9536468609908155 0 -1 0
39 1 4.396021173968491 1.501979098426038 10.236652633373565 0 0 0
40 2 2.888454287161317 11.57739178085496 8.685215532556779 0 -1 0
41 1 4.450409472429833 4.271369533597249 1.5671692825247763 0 0 0
42 2 2.867697410506986 2.8432509219149793 11.40099233150946 0 0 -1
43 1 4.24483602011103 4.313648140133084 4.364411676664333 0 0 0
44 2 2.7118282533566145 2.9311236070258637 2.8459720425756023 0 0 0
45 1 4.352630456645685 4.379150695496251 7.266096560322541 0 0 0
46 2 2.920771735350457 2.8763497689230597 5.884949704842978 0 0 0
47 1 4.407707392167195 4.23921692071048 10.181144811372667 0 0 0
48 2 2.9798027302435304 2.9200470978107673 8.711912243860256 0 0 0
49 1 4.318443650433912 7.18348218350366 1.4800858589981762 0 0 0
50 2 2.8343969172299857 5.664970824682096 0.09376257827490969 0 0 0
51 1 4.357943866725175 7.290811578840561 4.287069032635207 0 0 0
52 2 2.9946390371702747 5.783717678713039 3.0239648769298055 0 0 0
53 1 4.3756561013280955 7.3270129394023575 7.160029875553455 0 0 0
54 2 2.8766028228611726 5.744293971575557 5.656092108194567 0 0 0
55 1 4.390219739371233 7.158919448870454 10.196066096255011 0 0 0
56 2 2.9336719946674177 5.819009140852899 8.75396960402059 0 0 0
57 1 4.347804094492529 10.268457445058816 1.5161385331550852 0 0 0
58 2 2.9003327539443515 8.695112829429974 11.559258531563389 0 0 -1
59 1 4.34982149567258 10.194020873694075 4.356304927431399 0 0 0
60 2 2.8020349152656308 8.639780620404396 2.8525991860497717 0 0 0
61 1 4.425187321193886 10.167261107365698 7.152434406874797 0 0 0
62 2 2.8960594488311613 8.570544495283674 5.737027327145055 0 0 0
63 1 4.440974669460989 10.198372520595326 10.091287533326414 0 0 0
64 2 2.942546532457514 8.61879502569423 8.631461371109385 0 0 0
65 1 7.348311263293825 1.4750791418126201 1.4757688250089174 0 0 0
66 2 5.892978448790648 0.04860202041071755 0.09093059658782911 0 0 0
67 1 7.332144413488539 1.3460374589275685 4.304174328543757 0 0 0
68 2 5.7374360476318085 0.0778928593138351 2.843485877016893 0 0 0
69 1 7.245247579967882 1.4538543715746233 7.144659619244886 0 0 0
70 2 5.683508776304055 0.022813552214286596 5.828990749168387 0 0 0
71 1 7.2928334459348765 1.4800137275299519 10.196398405956616 0 0 0
72 2 5.800274321946306 0.11163714910707792 8.658920066895094 0 0 0
73 1 7.260374607895652 4.425933735600465 1.4123282434219369 0 0 0
74 2 5.8777311648798545 2.968782251406687 0.04405827680326816 0 0 0
75 1 7.292024692648901 4.338700020381775 4.382672696765133 0 0 0
76 2 5.925218147117689 2.886598908641187 2.8646558334611427 0 0 0
77 1 7.178032374699606 4.406125431984682 7.251303206364757 0 0 0
78 2 5.878780899517037 2.7750127588504445 5.6776688882691735 0 0 0
79 1 7.20414158614447 4.34423346125358 10.091173299715864 0 0 0
80 2 5.881930986489253 2.8381314157428204 8.683596752237987 0 0 0
81 1 7.292662033540849 7.190413300483555 1.541803889643709 0 0 0
82 2 5.807832627183754 5.731223494127144 0.0414752940829157 0 0 0
83 1 7.262118289059081 7.253698525944512 4.363597443805043 0 0 0
84 2 5.826976621788294 5.733861188406475 2.9535597669957867 0 0 0
85 1 7.1936318716687 7.288519224546329 7.123002547313542 0 0 0
86 2 5.76214755774964 5.84643980347559 5.744906799263349 0 0 0
87 1 7.290206952919531 7.211957646969731 10.055238002622238 0 0 0
88 2 5.767924805669417 5.805874833230872 8.644125583413432 0 0 0
89 1 7.350536277474272 10.037827087404334 1.4516363909941632 0 0 0
90 2 5.813733653869515 8.712296587171657 0.16592066686667664 0 0 0
91 1 7.344181857094459 10.172309177003218 4.3514182127125025 0 0 0
92 2 5.926109283174481 8.802259386746684 2.984378813311203 0 0 0
93 1 7.224418996345479 10.26122017126974 7.134383326119382 0 0 0
94 2 5.8188562515675955 8.864689245039276 5.6312410275140685 0 0 0
95 1 7.11701413264379 10.201153986488526 10.073935438998566 0 0 0
96 2 5.755145248711047 8.746817763679541 8.640326889367502 0 0 0
97 1 10.176162842971427 1.4149091300810057 1.5648413751629169 0 0 0
98 2 8.864153114381761 11.507705444399921 11.553531875060651 0 -1 -1
99 1 10.299537102016904 1.4420134870249652 4.277961215405123 0 0 0
100 2 8.71132050599775 11.506499785380768 2.7795801727278393 0 -1 0
101 1 10.181753777522259 1.3773876115517318 7.1641812308085795 0 0 0
102 2 8.714984497401023 0.009718879025739126 5.7669705929765875 0 0 0
103 1 10.122989124311244 1.3292676399825298 10.060002391333208 0 0 0
104 2 8.676911996895646 11.572380789931135 8.566410999972806 0 -1 0
105 1 10.0896132789105 4.280673540356655 1.4656158628421065 0 0 0
106 2 8.711841331025731 2.826541657650225 11.507019195190106 0 0 -1
107 1 10.275783857243821 4.3368247589693185 4.398661510832593 0 0 0
108 2 8.678318570547114 2.8662682098205736 2.9933128909495426 0 0 0
109 1 10.159221834108017 4.413157187978681 7.324371859425857 0 0 0
110 2 8.766207279161014 2.8616831747950013 5.62115624161297 0 0 0
111 1 10.063670608154872 4.240113690050299 10.123844295904773 0 0 0
112 2 8.534658046584639 2.8630433791658048 8.686652296519641 0 0 0
113 1 10.129160315106883 7.261620004454062 1.4743503751774945 0 0 0
114 2 8.790730458609314 5.871863335268594 11.56160111621882 0 0 -1
115 1 10.090979467636698 7.114876005158438 4.3703905131504985 0 0 0
116 2 8.758200420449858 5.670640747978752 2.8641278735772606 0 0 0
117 1 10.175383149811571 7.227243293936414 7.262303184248529 0 0 0
118 2 8.691699232827876 5.678611185488497 5.838781844062385 0 0 0
119 1 10.278980259453501 7.245944064560151 9.988963018443867 0 0 0
120 2 8.663514671378598 5.8104571006142285 8.718137667387518 0 0 0
121 1 10.083800963141444 10.05090184615662 1.4231667030077655 0 0 0
122 2 8.637172094150014 8.624536782213223 11.485949052145854 0 0 -1
123 1 10.213111500898531 10.188228118094855 4.277546134396224 0 0 0
124 2 8.760297566766864 8.7512478964007 3.0522842355039153 0 0 0
125 1 10.173251342877327 10.119512830030795 7.212239636523676 0 0 0
126 2 8.77710446066119 8.737796812072931 5.880925017281486 0 0 0
127 1 10.104832322925688 10.026454396003285 10.156897085666577 0 0 0
128 2 8.770582336413224 8.593017870302782 8.627553891295383 0 0 0

Velocities

1 0.39849680362494005 -1.9555250048031996 -5.886824140490373
2 -1.4588155774392348 3.470303753027101 -0.17094785535620985
3 0.2791036606900588 0.8194220810180981 -1.9864548513007423
4 -2.446309365367129 2.930911036460917 0.7542002124834726
5 0.05227074179872157 -2.7713557506779796 -5.1119508297159655
6 1.4465617856878459 -2.1282786033091785 -1.3907583561685348
7 1.7230274238359558 -3.4144488831588067 -2.292083415213857
8 -0.2884608521935356 -2.151492502204483 -0.1892619581221086
9 3.4035733015932994 -0.6983296603518669 2.1908194489657467
10 0.616545280113355 -0.05675431946640174 4.169661438444947
11 -2.7570955741684884 0.9862322982557479 0.31249582955925215
12 2.0463188830574515 0.8437565538203511 -1.6690276533629305
13 -4.029157941569096 2.8962336804180935 -0.7199000353909862
14 2.1162649244365572 2.3777234036408683 0.7773933759192289
15 -2.7637573075268445 2.2032027052256176 2.682614535901898
16 1.4904129354656341 -2.7317653314722796 -2.838779218132787
17 1.8564498854270093 -2.3704885807646 2.0412481079938845
18 0.38811201261999617 -0.0894611024414204 0.8030868693062555
19 3.479995223566299 6.179272794344313 -0.1530055483677363
20 -2.1984148125439744 -0.7185617790379306 -4.615809177324898
21 -3.3829637297343487 -1.3435756177341012 1.0741499916916883
22 1.4003361768864298 1.8147204043224423 0.668269290148057
23 -4.821742043204811 3.452962272340478 2.615001184540473
24 -2.2936552770102008 -2.8661619633938167 -1.3816587921150938
25 0.33704532592836584 3.167117252959578 1.3447767113954932
26 -0.5240228215062889 -1.3616652304555479 -0.439884121254263
27 4.980496195619959 -1.1898280119935973 4.9078510106828475
28 2.2242437736721 3.274922851300868 2.8581454728284723
29 4.5437315039226105 -3.418013072590383 -0.6601323216516041
30 0.10301725199880805 0.8291944947150566 -1.0692451050642904
31 3.3925300040580892 3.8700476889353936 -6.688806541149854
32 3.239092488903197 1.1530765776012342 3.0258223577924706
33 -2.3524590529994627 -1.2521294732146093 1.3172820835197538
34 -2.954682156324987 -1.7677199804059904 0.7485323061697637
35 -1.1055184126518072 7.171147208541715 -5.078041981716739
36 2.011991332261812 -1.4351340855016173 1.0511085720423583
37 -2.1666146562833846 4.33733505866573 -7.461811893693686
38 -1.1628952519297895 0.20143881300310434 -3.7670612874148386
39 2.82348995650122 -1.5748988497383314 3.707534917548813
40 -1.2752017676893337 3.3533879698995848 1.2858166699364748
41 -6.424767040711339 -4.69041288946336 -0.38263768247750585
42 0.6715253043977163 2.9685776104542536 2.2650004579824903
43 -3.342889706337868 -0.10410856674354257 0.6195822306418378
44 1.0689640759281633 1.8316356702316596 1.0457382403795799
45 4.643512218143147 -3.9448978122570293 0.4710092273924618
46 5.598459063809176 -2.767538444910624 -0.41254408612833793
47 -2.143240560584695 -0.49334368791984584 3.2580739861332937
48 2.9803709800562923 2.985902468171007 1.016239918524103
49 4.0737264417427586 0.5907444011927817 8.08205674057567
50 0.6537330828436972 -2.945163963452378 -0.621416905846851
51 0.4780628885359294 -4.4874932273305355 1.6229858707388858
52 -0.8382964356635829 -2.6683869938539297 6.062733614934882
53 2.7546070889327012 -2.894109976744119 -1.0869098968934443
54 -2.3886853975385445 -0.8364121617385495 2.3934685293184232
55 0.7185337270984372 -1.4958172173330504 -0.7635503148332508
56 0.19102861604579666 1.7673080964006627 1.929023761495507
57 0.018820678600997995 0.035217363748770616 3.844781125755393
58 1.2879542417528613 1.2986957102224883 -0.8022084603539812
59 -8.405944273751684 -3.1434668786595292 -0.7602945668981476
60 -2.4596229752372603 -0.7065035242730178 -0.5284133644143283
61 4.083721055795264 -0.8997990342982778 -0.31864852659804
62 -0.5051684216946164 3.8088562026300625 0.06068818779043828
63 -2.810542021340656 -4.941431054508532 -4.083408022018376
64 -0.7931492577342758 2.0048392880918238 1.5066713709302504
65 -3.4620826731506837 -1.4156203619830623 5.468784386502239
66 2.2456552802685077 0.4405111453113136 0.15763887963806683
67 4.649359710638602 3.443050961175396 2.463884921615265
68 -1.9622921649432672 -0.9682362403124111 0.3627689476414924
69 -4.752686933276625 0.14694876505632054 -5.263369483783034
70 -0.11057759149928208 -1.8631973035712515 1.8072686739707928
71 -0.4426238265592672 -1.3653149399505333 -2.544283642469176
72 -3.685373565543172 -0.7974550071619555 -2.5153205678099884
73 2.9294831199961395 -1.178996741735387 -3.380860626891793
74 -3.3269183425859605 -2.7339879924281782 0.0030212376665931387
75 1.9766519266647766 9.153267338294874 -1.1645234935144313
76 0.22676082241701712 2.3078703340245017 0.689178441515188
77 0.5963375507320929 4.693960518765097 3.787928015067214
78 2.3348497668202683 0.5569849900836212 -1.2860260779698407
79 4.5256764954120525 1.5731220420126955 -2.627972601099994
80 1.4519208406384307 0.10397740351726853 -0.8104506510872825
81 3.8869577926526486 -1.5513804643556333 -2.6098694976811965
82 -3.324411081625524 1.492492123094374 2.1824799398472616
83 -2.488404175309674 2.478766886670931 -5.291147758073947
84 -1.225228684279978 -0.32466580482893326 -2.590576531972916
85 1.4477765587099545 -2.781511115104866 -2.2553983034183784
86 2.0510839306207465 -1.1271608024196291 -0.13010267779130374
87 0.18121702961841438 -1.6259701006930436 1.6135938131246248
88 -0.12613653917146644 -2.2846831947641926 3.015610097601032
89 -0.0799440914975853 -2.5032426810680306 1.0742463862663056
90 -0.19056796363376238 3.7025590753619606 1.5548556763885975
91 5.527113670869722 4.106624700872255 -0.5800788304122912
92 -1.129876278702238 -0.15739588174396835 -1.4692108115823077
93 -4.252341752910703 1.1297016914522524 4.974327918566234
94 0.9322104642170786 0.00151093765621295 0.45269790630505635
95 0.5790004602237072 4.710022952516631 -3.2716205864982753
96 -2.4284026918137855 -1.1806421445067885 3.217479974256012
97 1.1804520056259058 -3.488495820476305 -1.517969779294882
98 1.2809177296264314 -6.316385784018287 0.09847860331758045
99 1.9182726451761918 -5.137086145223793 3.7267737117697575
100 -0.05849305639828565 -0.5304474166571098 -2.5976263822093575
101 0.9226884151106272 5.14243477706601 -3.9050398550761307
102 -0.9292274213948735 -0.27684276446368367 -0.42041314753213227
103 3.672520416635273 4.524330084891267 0.04504275218827797
104 -1.4716069025876162 -2.3538363325279685 -1.66349375631209
105 0.20679726496706796 1.098756300110744 4.48999245371868
106 -3.023121319029799 1.4919629038609132 -1.7119893579376686
107 -0.9314083977167875 2.6785998390553956 -4.104210928247905
108 -1.2341195886450922 0.1527152193824764 2.3044072405702334
109 -2.953440882580922 -4.550924097432368 -1.5984287381409206
110 -7.048849476464436 -3.814497254280767 -1.3783061946396549
111 -4.7718091202924375 3.5718032391690406 -1.0149808847148705
112 0.5195307487281406 -1.4835519868652365 1.1373859903062526
113 5.184275651611887 -1.6117263728173477 0.12101543194129084
114 1.7017127656866093 1.3464863038240873 -4.718064886804982
115 1.8009773717802302 1.3948372585467712 -0.12853390768453302
116 0.5633374430403439 -1.366255451825643 -0.33836967067298246
117 2.020142340999454 0.7005642338244559 4.144216973589803
118 1.846963493626628 -1.7548279758174747 -4.979979296699355
119 -1.0238739135599748 -0.3696075208185237 -5.349475258185788
120 3.1057514578551433 -3.1372433952937517 -1.65152518488838
121 1.2622135666940852 3.3664082065907954 -1.2736385477016914
122 4.386672270872223 -1.499894096942524 2.3000073423839367
123 -2.6319288259985205 -5.864077314832954 3.6859465187490867
124 -2.8637122998420685 2.8025790118809444 -2.342277639196236
125 -1.912395244716117 3.399262362541764 1.626349027125561
126 1.180840052529399 0.8163720652822171 2.134524411906209
127 -4.854983599526675 0.04997419652581119 1.874619977871874
128 -1.0591002277482555 1.3044442265544605 2.236108694288709
