
     Program PWSCF v.7.6 starts on  6Aug2026 at 14:34:29 

     This program is part of the open-source Quantum ESPRESSO suite
     for quantum simulation of materials; please cite
         "P. Giannozzi et al., J. Phys.:Condens. Matter 21 395502 (2009);
         "P. Giannozzi et al., J. Phys.:Condens. Matter 29 465901 (2017);
         "P. Giannozzi et al., J. Chem. Phys. 152 154105 (2020);
          URL http://www.quantum-espresso.org", 
     in publications or presentations arising from this work. More details at
     http://www.quantum-espresso.org/quote

     Parallel version (MPI), running on     4 processors

     MPI processes distributed on     1 nodes
     1227 MiB available memory on the printing compute node when the environment starts

     Reading input from /home/linuxuser/ni_al_dft_work/cloud_static_inputs/diverse_pilot_01/Al3Ni2/iso_m02/Al3Ni2_iso_m02.in

     Current dimensions of program PWSCF are:
     Max number of different atomic species (ntypx) = 10
     Max number of k-points (npk) =  40000
     Max angular momentum in pseudopotentials (lmaxx) =  4
     file Al.pbe-n-kjpaw_psl.1.0.0.UPF: wavefunction(s)  3S 3P renormalized

     IMPORTANT: XC functional enforced from input :
     Exchange-correlation= PBE
                           (   1   4   3   4   0   0   0)
     Any further DFT definition will be discarded
     Please, verify this is what you really want

     Message from routine setup:
     using ibrav=0 with symmetry is DISCOURAGED, use correct ibrav instead

     K-points division:     npool     =       2
     R & G space division:  proc/nbgrp/npool/nimage =       2
     Subspace diagonalization in iterative solution of the eigenvalue problem:
     a serial algorithm will be used


     Parallelization info
     --------------------
     sticks:   dense  smooth     PW     G-vecs:    dense   smooth      PW
     Min        1386     696    198                72026    25484    3860
     Max        1387     697    199                72027    25487    3861
     Sum        2773    1393    397               144053    50971    7721

     Using Slab Decomposition



     bravais-lattice index     =            0
     lattice parameter (alat)  =       7.4909  a.u.
     unit-cell volume          =     441.6906 (a.u.)^3
     number of atoms/cell      =            5
     number of atomic types    =            2
     number of electrons       =        45.00
     number of Kohn-Sham states=           28
     kinetic-energy cutoff     =      90.0000  Ry
     charge density cutoff     =     720.0000  Ry
     scf convergence threshold =      1.0E-10
     mixing beta               =       0.3000
     number of iterations used =            8  plain     mixing
     Exchange-correlation= PBE
                           (   1   4   3   4   0   0   0)

     celldm(1)=   7.490920  celldm(2)=   0.000000  celldm(3)=   0.000000
     celldm(4)=   0.000000  celldm(5)=   0.000000  celldm(6)=   0.000000

     crystal axes: (cart. coord. in units of alat)
               a(1) = (   1.000000   0.000000   0.000000 )  
               a(2) = (  -0.500000   0.866025  -0.000000 )  
               a(3) = (  -0.000000  -0.000000   1.213339 )  

     reciprocal axes: (cart. coord. in units 2 pi/alat)
               b(1) = (  1.000000  0.577351  0.000000 )  
               b(2) = ( -0.000000  1.154701  0.000000 )  
               b(3) = ( -0.000000  0.000000  0.824172 )  


     PseudoPot. # 1 for Al read from file:
     /home/linuxuser/ni_al_dft_work/cloud_static_inputs/pseudo/Al.pbe-n-kjpaw_psl.1.0.0.UPF
     MD5 check sum: cfc449ca30b5f3223ec38ddd88ac046d
     Pseudo is Projector augmented-wave + core cor, Zval =  3.0
     Generated using "atomic" code by A. Dal Corso  v.5.1
     Shape of augmentation charge: PSQ
     Using radial grid of 1135 points,  6 beta functions with: 
                l(1) =   0
                l(2) =   0
                l(3) =   1
                l(4) =   1
                l(5) =   2
                l(6) =   2
     Q(r) pseudized with 0 coefficients 


     PseudoPot. # 2 for Ni read from file:
     /home/linuxuser/ni_al_dft_work/cloud_static_inputs/pseudo/ni_pbe_v1.4.uspp.F.UPF
     MD5 check sum: 1ee80287db30b12d2bc1f57a5b5d6409
     Pseudo is Ultrasoft + core correction, Zval = 18.0
     Generated by new atomic code, or converted to UPF format
     Using radial grid of  865 points,  6 beta functions with: 
                l(1) =   0
                l(2) =   0
                l(3) =   1
                l(4) =   1
                l(5) =   2
                l(6) =   2
     Q(r) pseudized with 10 coefficients,  rinner =    0.980   0.980   0.980
                                                       0.980   0.980

     atomic species   valence    mass     pseudopotential
     Al                3.00    26.98154     Al( 1.00)
     Ni               18.00    58.69340     Ni( 1.00)

     12 Sym. Ops., with inversion, found



   Cartesian axes

     site n.     atom                  positions (alat units)
         1        Al     tau(   1) = (   0.0000000   0.0000000   0.0000000  )
         2        Al     tau(   2) = (  -0.0000007   0.5773504   0.7856499  )
         3        Al     tau(   3) = (   0.5000004   0.2886747   0.4276890  )
         4        Ni     tau(   4) = (  -0.0000007   0.5773504   0.1779233  )
         5        Ni     tau(   5) = (   0.5000004   0.2886747   1.0354157  )

     number of k points=   208  Marzari-Vanderbilt smearing, width (Ry)=  0.0100

     Number of k-points >= 100: set verbosity='high' to print them.

     Dense  grid:   144053 G-vectors     FFT dimensions: (  64,  64,  80)

     Smooth grid:    50971 G-vectors     FFT dimensions: (  45,  45,  60)

     Estimated max dynamical RAM per process >     305.28 MB

     Estimated total dynamical RAM >       1.16 GB

     Check: negative core charge=   -0.000001

     Initial potential from superposition of free atoms

     starting charge      40.9931, renormalised to      45.0000
     Starting wfcs are   38 randomized atomic wfcs
     Checking if some PAW data can be deallocated... 

     total cpu time spent up to now is        6.7 secs

     Self-consistent Calculation

     iteration #  1     ecut=    90.00 Ry     beta= 0.30
     Davidson diagonalization with overlap
     ethr =  1.00E-02,  avg # of iterations =  7.8

     total cpu time spent up to now is       26.4 secs

     total energy              =    -770.83870579 Ry
     estimated scf accuracy    <     112.38421841 Ry

     iteration #  2     ecut=    90.00 Ry     beta= 0.30
     Davidson diagonalization with overlap
     ethr =  1.00E-02,  avg # of iterations =  4.4

     total cpu time spent up to now is       44.4 secs

     total energy              =    -804.77723405 Ry
     estimated scf accuracy    <      34.91390060 Ry

     iteration #  3     ecut=    90.00 Ry     beta= 0.30
     Davidson diagonalization with overlap
     ethr =  1.00E-02,  avg # of iterations =  2.0

     total cpu time spent up to now is       58.1 secs

     total energy              =    -804.80599638 Ry
     estimated scf accuracy    <       7.44367348 Ry

     iteration #  4     ecut=    90.00 Ry     beta= 0.30
     Davidson diagonalization with overlap
     ethr =  1.00E-02,  avg # of iterations =  2.0

     total cpu time spent up to now is       69.8 secs

     total energy              =    -805.73952611 Ry
     estimated scf accuracy    <       0.66758587 Ry

     iteration #  5     ecut=    90.00 Ry     beta= 0.30
     Davidson diagonalization with overlap
     ethr =  1.48E-03,  avg # of iterations =  3.7

     total cpu time spent up to now is       85.0 secs

     total energy              =    -803.77838833 Ry
     estimated scf accuracy    <       7.74769379 Ry

     iteration #  6     ecut=    90.00 Ry     beta= 0.30
     Davidson diagonalization with overlap
     ethr =  1.48E-03,  avg # of iterations =  3.7

     total cpu time spent up to now is      101.1 secs

     total energy              =    -805.30454969 Ry
     estimated scf accuracy    <       1.67983150 Ry

     iteration #  7     ecut=    90.00 Ry     beta= 0.30
     Davidson diagonalization with overlap
     ethr =  1.48E-03,  avg # of iterations =  1.1

     total cpu time spent up to now is      111.5 secs

     total energy              =    -805.20803080 Ry
     estimated scf accuracy    <       0.46559620 Ry

     iteration #  8     ecut=    90.00 Ry     beta= 0.30
     Davidson diagonalization with overlap
     ethr =  1.03E-03,  avg # of iterations =  2.1

     total cpu time spent up to now is      123.5 secs

     total energy              =    -805.28072490 Ry
     estimated scf accuracy    <       0.02620407 Ry

     iteration #  9     ecut=    90.00 Ry     beta= 0.30
     Davidson diagonalization with overlap
     ethr =  5.82E-05,  avg # of iterations =  5.4

     total cpu time spent up to now is      136.1 secs

     total energy              =    -805.27766056 Ry
     estimated scf accuracy    <       0.01144978 Ry

     iteration # 10     ecut=    90.00 Ry     beta= 0.30
     Davidson diagonalization with overlap
     ethr =  2.54E-05,  avg # of iterations =  3.0

     total cpu time spent up to now is      148.8 secs

     total energy              =    -805.28038713 Ry
     estimated scf accuracy    <       0.01700521 Ry

     iteration # 11     ecut=    90.00 Ry     beta= 0.30
     Davidson diagonalization with overlap
     ethr =  2.54E-05,  avg # of iterations =  1.0

     total cpu time spent up to now is      158.9 secs

     total energy              =    -805.28073505 Ry
     estimated scf accuracy    <       0.00439299 Ry

     iteration # 12     ecut=    90.00 Ry     beta= 0.30
     Davidson diagonalization with overlap
     ethr =  9.76E-06,  avg # of iterations =  1.5

     total cpu time spent up to now is      169.5 secs

     total energy              =    -805.28056748 Ry
     estimated scf accuracy    <       0.00182082 Ry

     iteration # 13     ecut=    90.00 Ry     beta= 0.30
     Davidson diagonalization with overlap
     ethr =  4.05E-06,  avg # of iterations =  1.8

     total cpu time spent up to now is      180.2 secs

     total energy              =    -805.28066482 Ry
     estimated scf accuracy    <       0.00014020 Ry

     iteration # 14     ecut=    90.00 Ry     beta= 0.30
     Davidson diagonalization with overlap
     ethr =  3.12E-07,  avg # of iterations =  2.5

     total cpu time spent up to now is      192.1 secs

     total energy              =    -805.28065433 Ry
     estimated scf accuracy    <       0.00010944 Ry

     iteration # 15     ecut=    90.00 Ry     beta= 0.30
     Davidson diagonalization with overlap
     ethr =  2.43E-07,  avg # of iterations =  2.0

     total cpu time spent up to now is      203.0 secs

     total energy              =    -805.28066584 Ry
     estimated scf accuracy    <       0.00000006 Ry

     iteration # 16     ecut=    90.00 Ry     beta= 0.30
     Davidson diagonalization with overlap
     ethr =  1.24E-10,  avg # of iterations =  6.3

     total cpu time spent up to now is      224.5 secs

     total energy              =    -805.28066673 Ry
     estimated scf accuracy    <       0.00000109 Ry

     iteration # 17     ecut=    90.00 Ry     beta= 0.30
     Davidson diagonalization with overlap
     ethr =  1.24E-10,  avg # of iterations =  2.9

     total cpu time spent up to now is      237.3 secs

     total energy              =    -805.28066678 Ry
     estimated scf accuracy    <       0.00000009 Ry

     iteration # 18     ecut=    90.00 Ry     beta= 0.30
     Davidson diagonalization with overlap
     ethr =  1.24E-10,  avg # of iterations =  2.0

     total cpu time spent up to now is      249.3 secs

     total energy              =    -805.28066679 Ry
     estimated scf accuracy    <          5.0E-09 Ry

     iteration # 19     ecut=    90.00 Ry     beta= 0.30
     Davidson diagonalization with overlap
     ethr =  1.12E-11,  avg # of iterations =  2.1

     total cpu time spent up to now is      261.9 secs

     total energy              =    -805.28066679 Ry
     estimated scf accuracy    <          1.1E-09 Ry

     iteration # 20     ecut=    90.00 Ry     beta= 0.30
     Davidson diagonalization with overlap
     ethr =  2.33E-12,  avg # of iterations =  3.9

     total cpu time spent up to now is      276.0 secs

     total energy              =    -805.28066679 Ry
     estimated scf accuracy    <          5.0E-09 Ry

     iteration # 21     ecut=    90.00 Ry     beta= 0.30
     Davidson diagonalization with overlap
     ethr =  2.33E-12,  avg # of iterations =  2.0

     total cpu time spent up to now is      287.2 secs

     total energy              =    -805.28066679 Ry
     estimated scf accuracy    <          6.1E-10 Ry

     iteration # 22     ecut=    90.00 Ry     beta= 0.30
     Davidson diagonalization with overlap
     ethr =  1.36E-12,  avg # of iterations =  2.1

     total cpu time spent up to now is      299.8 secs

     total energy              =    -805.28066679 Ry
     estimated scf accuracy    <          4.9E-10 Ry

     iteration # 23     ecut=    90.00 Ry     beta= 0.30
     Davidson diagonalization with overlap
     ethr =  1.10E-12,  avg # of iterations =  1.0

     total cpu time spent up to now is      310.1 secs

     End of self-consistent calculation

     Number of k-points >= 100: set verbosity='high' to print the bands.

     the Fermi energy is    11.7043 ev

!    total energy              =    -805.28066679 Ry
     estimated scf accuracy    <          8.8E-11 Ry
     smearing contrib. (-TS)   =      -0.00014727 Ry
     internal energy E=F+TS    =    -805.28051952 Ry

     The total energy is F=E-TS. E is the sum of the following terms:
     one-electron contribution =    -616.58930428 Ry
     hartree contribution      =     329.19421516 Ry
     xc contribution           =     -79.28681617 Ry
     ewald contribution        =    -334.51799141 Ry
     one-center paw contrib.   =    -104.08062283 Ry

     convergence has been achieved in  23 iterations

     Forces acting on atoms (cartesian axes, Ry/au):

     atom    1 type  1   force =     0.00000000    0.00000000    0.00000000
     atom    2 type  1   force =    -0.00000000    0.00000000   -0.00370901
     atom    3 type  1   force =     0.00000000    0.00000000    0.00370901
     atom    4 type  2   force =    -0.00000000    0.00000000    0.00255640
     atom    5 type  2   force =     0.00000000   -0.00000000   -0.00255640

     Total force =     0.006371     Total SCF correction =     0.000011


     Computing stress (Cartesian axis) and pressure

          total   stress  (Ry/bohr**3)                   (kbar)     P=       92.20
   0.00061222   0.00000000   0.00000000           90.06        0.00        0.00
   0.00000000   0.00061222   0.00000000            0.00       90.06        0.00
   0.00000000   0.00000000   0.00065577            0.00        0.00       96.47


     Writing all to output data dir /home/linuxuser/ni_al_dft_work/cloud_static_inputs/diverse_pilot_01/Al3Ni2/iso_m02/tmp/Al3Ni2_iso_m02.save/ :
     XML data file, charge density, pseudopotentials, collected wavefunctions

     init_run     :      6.17s CPU      6.57s WALL (       1 calls)
     electrons    :    289.42s CPU    303.43s WALL (       1 calls)
     forces       :      1.11s CPU      1.23s WALL (       1 calls)
     stress       :      5.07s CPU      5.40s WALL (       1 calls)

     Called by init_run:
     wfcinit      :      5.17s CPU      5.39s WALL (       1 calls)
     potinit      :      0.42s CPU      0.48s WALL (       1 calls)
     hinit0       :      0.39s CPU      0.41s WALL (       1 calls)

     Called by electrons:
     c_bands      :    239.69s CPU    246.76s WALL (      23 calls)
     sum_band     :     40.13s CPU     43.75s WALL (      23 calls)
     v_of_rho     :      1.08s CPU      1.33s WALL (      24 calls)
     newd         :      2.98s CPU      5.42s WALL (      24 calls)
     PAW_pot      :      5.75s CPU      6.51s WALL (      24 calls)
     mix_rho      :      0.12s CPU      0.12s WALL (      23 calls)

     Called by c_bands:
     init_us_2    :      4.78s CPU      4.83s WALL (    5096 calls)
     cegterg      :    216.00s CPU    222.99s WALL (    2392 calls)

     Called by *egterg:
     cdiaghg      :      5.21s CPU      5.25s WALL (    9276 calls)
     h_psi        :    178.67s CPU    185.53s WALL (    9380 calls)
     s_psi        :      8.96s CPU      9.01s WALL (    9380 calls)
     g_psi        :      1.12s CPU      1.13s WALL (    6884 calls)

     Called by h_psi:
     h_psi:calbec :     11.28s CPU     11.58s WALL (    9380 calls)
     vloc_psi     :    157.56s CPU    164.02s WALL (    9380 calls)
     add_vuspsi   :      9.28s CPU      9.33s WALL (    9380 calls)

     General routines
     calbec       :     17.67s CPU     18.12s WALL (   13540 calls)
     fft          :      0.68s CPU      0.79s WALL (     335 calls)
     ffts         :      0.12s CPU      0.13s WALL (      47 calls)
     fftw         :    172.71s CPU    179.75s WALL (  423734 calls)
     interpolate  :      0.15s CPU      0.15s WALL (      24 calls)

     Parallel routines

     PWSCF        :   5m 2.00s CPU   5m17.14s WALL


   This run was terminated on:  14:39:46   6Aug2026            

=------------------------------------------------------------------------------=
   JOB DONE.
=------------------------------------------------------------------------------=
Note: The following floating-point exceptions are signalling: IEEE_UNDERFLOW_FLAG IEEE_DENORMAL
Note: The following floating-point exceptions are signalling: IEEE_UNDERFLOW_FLAG IEEE_DENORMAL
Note: The following floating-point exceptions are signalling: IEEE_UNDERFLOW_FLAG IEEE_DENORMAL
Note: The following floating-point exceptions are signalling: IEEE_UNDERFLOW_FLAG IEEE_DENORMAL
