
     Program PWSCF v.7.6 starts on  6Aug2026 at 15:37:51 

     This program is part of the open-source Quantum ESPRESSO suite
     for quantum simulation of materials; please cite
         "P. Giannozzi et al., J. Phys.:Condens. Matter 21 395502 (2009);
         "P. Giannozzi et al., J. Phys.:Condens. Matter 29 465901 (2017);
         "P. Giannozzi et al., J. Chem. Phys. 152 154105 (2020);
          URL http://www.quantum-espresso.org", 
     in publications or presentations arising from this work. More details at
     http://www.quantum-espresso.org/quote

     Parallel version (MPI), running on     4 processors

     MPI processes distributed on     1 nodes
     1582 MiB available memory on the printing compute node when the environment starts

     Reading input from /home/linuxuser/ni_al_dft_work/cloud_static_inputs/diverse_pilot_01/AlNi3/iso_p02/AlNi3_iso_p02.in

     Current dimensions of program PWSCF are:
     Max number of different atomic species (ntypx) = 10
     Max number of k-points (npk) =  40000
     Max angular momentum in pseudopotentials (lmaxx) =  4
     file Al.pbe-n-kjpaw_psl.1.0.0.UPF: wavefunction(s)  3S 3P renormalized

     IMPORTANT: XC functional enforced from input :
     Exchange-correlation= PBE
                           (   1   4   3   4   0   0   0)
     Any further DFT definition will be discarded
     Please, verify this is what you really want

     Message from routine setup:
     using ibrav=0 with symmetry is DISCOURAGED, use correct ibrav instead

     K-points division:     npool     =       2
     R & G space division:  proc/nbgrp/npool/nimage =       2
     Subspace diagonalization in iterative solution of the eigenvalue problem:
     a serial algorithm will be used


     Parallelization info
     --------------------
     sticks:   dense  smooth     PW     G-vecs:    dense   smooth      PW
     Min        1354     676    200                53070    18762    3014
     Max        1355     677    201                53073    18767    3017
     Sum        2709    1353    401               106143    37529    6031

     Using Slab Decomposition



     bravais-lattice index     =            0
     lattice parameter (alat)  =       6.8760  a.u.
     unit-cell volume          =     325.1112 (a.u.)^3
     number of atoms/cell      =            4
     number of atomic types    =            2
     number of electrons       =        57.00
     number of Kohn-Sham states=           35
     kinetic-energy cutoff     =      90.0000  Ry
     charge density cutoff     =     720.0000  Ry
     scf convergence threshold =      1.0E-10
     mixing beta               =       0.3000
     number of iterations used =            8  plain     mixing
     Exchange-correlation= PBE
                           (   1   4   3   4   0   0   0)

     celldm(1)=   6.875969  celldm(2)=   0.000000  celldm(3)=   0.000000
     celldm(4)=   0.000000  celldm(5)=   0.000000  celldm(6)=   0.000000

     crystal axes: (cart. coord. in units of alat)
               a(1) = (   1.000000   0.000000  -0.000000 )  
               a(2) = (   0.000000   1.000035   0.000000 )  
               a(3) = (   0.000000   0.000000   1.000035 )  

     reciprocal axes: (cart. coord. in units 2 pi/alat)
               b(1) = (  1.000000  0.000000  0.000000 )  
               b(2) = ( -0.000000  0.999965  0.000000 )  
               b(3) = (  0.000000 -0.000000  0.999965 )  


     PseudoPot. # 1 for Al read from file:
     /home/linuxuser/ni_al_dft_work/cloud_static_inputs/pseudo/Al.pbe-n-kjpaw_psl.1.0.0.UPF
     MD5 check sum: cfc449ca30b5f3223ec38ddd88ac046d
     Pseudo is Projector augmented-wave + core cor, Zval =  3.0
     Generated using "atomic" code by A. Dal Corso  v.5.1
     Shape of augmentation charge: PSQ
     Using radial grid of 1135 points,  6 beta functions with: 
                l(1) =   0
                l(2) =   0
                l(3) =   1
                l(4) =   1
                l(5) =   2
                l(6) =   2
     Q(r) pseudized with 0 coefficients 


     PseudoPot. # 2 for Ni read from file:
     /home/linuxuser/ni_al_dft_work/cloud_static_inputs/pseudo/ni_pbe_v1.4.uspp.F.UPF
     MD5 check sum: 1ee80287db30b12d2bc1f57a5b5d6409
     Pseudo is Ultrasoft + core correction, Zval = 18.0
     Generated by new atomic code, or converted to UPF format
     Using radial grid of  865 points,  6 beta functions with: 
                l(1) =   0
                l(2) =   0
                l(3) =   1
                l(4) =   1
                l(5) =   2
                l(6) =   2
     Q(r) pseudized with 10 coefficients,  rinner =    0.980   0.980   0.980
                                                       0.980   0.980

     atomic species   valence    mass     pseudopotential
     Al                3.00    26.98154     Al( 1.00)
     Ni               18.00    58.69340     Ni( 1.00)

     Starting magnetic structure 
     atomic species   magnetization
     Al              0.000
     Ni              0.600

     16 Sym. Ops., with inversion, found



   Cartesian axes

     site n.     atom                  positions (alat units)
         1        Al     tau(   1) = (   0.0000000   0.0000000   0.0000000  )
         2        Ni     tau(   2) = (   0.0000000   0.5000174   0.5000173  )
         3        Ni     tau(   3) = (   0.5000000   0.0000000   0.5000173  )
         4        Ni     tau(   4) = (   0.5000000   0.5000174   0.0000000  )

     number of k points=   288  Marzari-Vanderbilt smearing, width (Ry)=  0.0100

     Number of k-points >= 100: set verbosity='high' to print them.

     Dense  grid:   106143 G-vectors     FFT dimensions: (  60,  60,  60)

     Smooth grid:    37529 G-vectors     FFT dimensions: (  45,  45,  45)

     Estimated max dynamical RAM per process >     502.21 MB

     Estimated total dynamical RAM >       1.91 GB

     Check: negative core charge=   -0.000004
     Generating pointlists ...
     new r_m :   0.2917 (alat units)  2.0056 (a.u.) for type    1
     new r_m :   0.2917 (alat units)  2.0056 (a.u.) for type    2

     Initial potential from superposition of free atoms

     starting charge      50.9977, renormalised to      57.0000
     Starting wfcs are   43 randomized atomic wfcs
     Checking if some PAW data can be deallocated... 

     total cpu time spent up to now is       14.7 secs

     Self-consistent Calculation

     iteration #  1     ecut=    90.00 Ry     beta= 0.30
     Davidson diagonalization with overlap
     ethr =  1.00E-02,  avg # of iterations =  6.3

     total cpu time spent up to now is       65.7 secs

     total energy              =   -1030.76999705 Ry
     estimated scf accuracy    <     154.91865039 Ry

     total magnetization       =     5.25 Bohr mag/cell
     absolute magnetization    =     5.58 Bohr mag/cell

     iteration #  2     ecut=    90.00 Ry     beta= 0.30
     Davidson diagonalization with overlap
     ethr =  1.00E-02,  avg # of iterations =  4.4

     total cpu time spent up to now is      116.2 secs

     total energy              =   -1065.42589109 Ry
     estimated scf accuracy    <      29.82704419 Ry

     total magnetization       =     0.71 Bohr mag/cell
     absolute magnetization    =     2.03 Bohr mag/cell

     iteration #  3     ecut=    90.00 Ry     beta= 0.30
     Davidson diagonalization with overlap
     ethr =  1.00E-02,  avg # of iterations =  2.0

     total cpu time spent up to now is      148.7 secs

     total energy              =   -1068.74972910 Ry
     estimated scf accuracy    <       3.66130670 Ry

     total magnetization       =     4.21 Bohr mag/cell
     absolute magnetization    =     5.72 Bohr mag/cell

     iteration #  4     ecut=    90.00 Ry     beta= 0.30
     Davidson diagonalization with overlap
     ethr =  6.42E-03,  avg # of iterations =  1.7

     total cpu time spent up to now is      176.5 secs

     total energy              =   -1069.31911195 Ry
     estimated scf accuracy    <       0.97381239 Ry

     total magnetization       =     3.02 Bohr mag/cell
     absolute magnetization    =     4.51 Bohr mag/cell

     iteration #  5     ecut=    90.00 Ry     beta= 0.30
     Davidson diagonalization with overlap
     ethr =  1.71E-03,  avg # of iterations =  2.4

     total cpu time spent up to now is      205.6 secs

     total energy              =   -1069.41568844 Ry
     estimated scf accuracy    <       0.24462276 Ry

     total magnetization       =     2.09 Bohr mag/cell
     absolute magnetization    =     3.36 Bohr mag/cell

     iteration #  6     ecut=    90.00 Ry     beta= 0.30
     Davidson diagonalization with overlap
     ethr =  4.29E-04,  avg # of iterations =  1.8

     total cpu time spent up to now is      232.6 secs

     total energy              =   -1069.44718135 Ry
     estimated scf accuracy    <       0.08768699 Ry

     total magnetization       =     1.13 Bohr mag/cell
     absolute magnetization    =     2.19 Bohr mag/cell

     iteration #  7     ecut=    90.00 Ry     beta= 0.30
     Davidson diagonalization with overlap
     ethr =  1.54E-04,  avg # of iterations =  1.6

     total cpu time spent up to now is      259.6 secs

     total energy              =   -1069.44785576 Ry
     estimated scf accuracy    <       0.05727156 Ry

     total magnetization       =     1.03 Bohr mag/cell
     absolute magnetization    =     1.94 Bohr mag/cell

     iteration #  8     ecut=    90.00 Ry     beta= 0.30
     Davidson diagonalization with overlap
     ethr =  1.00E-04,  avg # of iterations =  1.9

     total cpu time spent up to now is      290.9 secs

     total energy              =   -1069.44757337 Ry
     estimated scf accuracy    <       0.02416198 Ry

     total magnetization       =     0.82 Bohr mag/cell
     absolute magnetization    =     1.35 Bohr mag/cell

     iteration #  9     ecut=    90.00 Ry     beta= 0.30
     Davidson diagonalization with overlap
     ethr =  4.24E-05,  avg # of iterations =  2.6

     total cpu time spent up to now is      325.8 secs

     total energy              =   -1069.45869702 Ry
     estimated scf accuracy    <       0.07137451 Ry

     total magnetization       =     0.81 Bohr mag/cell
     absolute magnetization    =     1.38 Bohr mag/cell

     iteration # 10     ecut=    90.00 Ry     beta= 0.30
     Davidson diagonalization with overlap
     ethr =  4.24E-05,  avg # of iterations =  1.3

     total cpu time spent up to now is      352.9 secs

     total energy              =   -1069.45862521 Ry
     estimated scf accuracy    <       0.01452131 Ry

     total magnetization       =     0.84 Bohr mag/cell
     absolute magnetization    =     1.31 Bohr mag/cell

     iteration # 11     ecut=    90.00 Ry     beta= 0.30
     Davidson diagonalization with overlap
     ethr =  2.55E-05,  avg # of iterations =  1.7

     total cpu time spent up to now is      384.1 secs

     total energy              =   -1069.46131732 Ry
     estimated scf accuracy    <       0.00024980 Ry

     total magnetization       =     0.82 Bohr mag/cell
     absolute magnetization    =     1.12 Bohr mag/cell

     iteration # 12     ecut=    90.00 Ry     beta= 0.30
     Davidson diagonalization with overlap
     ethr =  4.38E-07,  avg # of iterations =  3.4

     total cpu time spent up to now is      415.6 secs

     total energy              =   -1069.46138886 Ry
     estimated scf accuracy    <       0.00005031 Ry

     total magnetization       =     0.82 Bohr mag/cell
     absolute magnetization    =     1.09 Bohr mag/cell

     iteration # 13     ecut=    90.00 Ry     beta= 0.30
     Davidson diagonalization with overlap
     ethr =  8.83E-08,  avg # of iterations =  2.1

     total cpu time spent up to now is      446.4 secs

     total energy              =   -1069.46140022 Ry
     estimated scf accuracy    <       0.00002506 Ry

     total magnetization       =     0.82 Bohr mag/cell
     absolute magnetization    =     1.06 Bohr mag/cell

     iteration # 14     ecut=    90.00 Ry     beta= 0.30
     Davidson diagonalization with overlap
     ethr =  4.40E-08,  avg # of iterations =  1.1

     total cpu time spent up to now is      473.0 secs

     total energy              =   -1069.46140234 Ry
     estimated scf accuracy    <       0.00000078 Ry

     total magnetization       =     0.82 Bohr mag/cell
     absolute magnetization    =     1.07 Bohr mag/cell

     iteration # 15     ecut=    90.00 Ry     beta= 0.30
     Davidson diagonalization with overlap
     ethr =  1.37E-09,  avg # of iterations =  2.4

     total cpu time spent up to now is      505.0 secs

     total energy              =   -1069.46140256 Ry
     estimated scf accuracy    <       0.00000053 Ry

     total magnetization       =     0.82 Bohr mag/cell
     absolute magnetization    =     1.06 Bohr mag/cell

     iteration # 16     ecut=    90.00 Ry     beta= 0.30
     Davidson diagonalization with overlap
     ethr =  9.25E-10,  avg # of iterations =  2.0

     total cpu time spent up to now is      535.1 secs

     total energy              =   -1069.46140270 Ry
     estimated scf accuracy    <       0.00000005 Ry

     total magnetization       =     0.82 Bohr mag/cell
     absolute magnetization    =     1.06 Bohr mag/cell

     iteration # 17     ecut=    90.00 Ry     beta= 0.30
     Davidson diagonalization with overlap
     ethr =  7.94E-11,  avg # of iterations =  2.0

     total cpu time spent up to now is      564.2 secs

     total energy              =   -1069.46140270 Ry
     estimated scf accuracy    <       0.00000001 Ry

     total magnetization       =     0.82 Bohr mag/cell
     absolute magnetization    =     1.06 Bohr mag/cell

     iteration # 18     ecut=    90.00 Ry     beta= 0.30
     Davidson diagonalization with overlap
     ethr =  2.33E-11,  avg # of iterations =  2.1

     total cpu time spent up to now is      592.3 secs

     total energy              =   -1069.46140270 Ry
     estimated scf accuracy    <          4.3E-10 Ry

     total magnetization       =     0.82 Bohr mag/cell
     absolute magnetization    =     1.06 Bohr mag/cell

     iteration # 19     ecut=    90.00 Ry     beta= 0.30
     Davidson diagonalization with overlap
     ethr =  7.52E-13,  avg # of iterations =  2.2

     total cpu time spent up to now is      624.1 secs

     total energy              =   -1069.46140270 Ry
     estimated scf accuracy    <          1.3E-10 Ry

     total magnetization       =     0.82 Bohr mag/cell
     absolute magnetization    =     1.06 Bohr mag/cell

     iteration # 20     ecut=    90.00 Ry     beta= 0.30
     Davidson diagonalization with overlap
     ethr =  2.36E-13,  avg # of iterations =  2.0

     Magnetic moment per site  (integrated on atomic sphere of radius R)
     atom   1 (R=0.292)  charge=  1.3215  magn= -0.0218
     atom   2 (R=0.292)  charge= 16.8702  magn=  0.3088
     atom   3 (R=0.292)  charge= 16.8702  magn=  0.3088
     atom   4 (R=0.292)  charge= 16.8702  magn=  0.3088

     total cpu time spent up to now is      652.8 secs

     End of self-consistent calculation

     Number of k-points >= 100: set verbosity='high' to print the bands.

     the Fermi energy is    14.3876 ev

!    total energy              =   -1069.46140271 Ry
     estimated scf accuracy    <          4.7E-11 Ry
     smearing contrib. (-TS)   =       0.00053784 Ry
     internal energy E=F+TS    =   -1069.46194055 Ry

     The total energy is F=E-TS. E is the sum of the following terms:
     one-electron contribution =    -719.03298470 Ry
     hartree contribution      =     390.48764735 Ry
     xc contribution           =    -109.31177000 Ry
     ewald contribution        =    -596.92715053 Ry
     one-center paw contrib.   =     -34.67768267 Ry

     total magnetization       =     0.82 Bohr mag/cell
     absolute magnetization    =     1.06 Bohr mag/cell

     convergence has been achieved in  20 iterations

     Forces acting on atoms (cartesian axes, Ry/au):

     atom    1 type  1   force =     0.00000000    0.00000000    0.00000000
     atom    2 type  2   force =     0.00000000    0.00000000    0.00000000
     atom    3 type  2   force =     0.00000000    0.00000000    0.00000000
     atom    4 type  2   force =     0.00000000    0.00000000    0.00000000

     Total force =     0.000000     Total SCF correction =     0.000000


     Computing stress (Cartesian axis) and pressure

          total   stress  (Ry/bohr**3)                   (kbar)     P=      -94.33
  -0.00064114   0.00000000   0.00000000          -94.32        0.00        0.00
   0.00000000  -0.00064134   0.00000000            0.00      -94.34        0.00
   0.00000000   0.00000000  -0.00064134            0.00        0.00      -94.34


     Writing all to output data dir /home/linuxuser/ni_al_dft_work/cloud_static_inputs/diverse_pilot_01/AlNi3/iso_p02/tmp/AlNi3_iso_p02.save/ :
     XML data file, charge density, pseudopotentials, collected wavefunctions

     init_run     :     13.71s CPU     14.54s WALL (       1 calls)
     electrons    :    613.08s CPU    638.07s WALL (       1 calls)
     forces       :      1.97s CPU      2.10s WALL (       1 calls)
     stress       :      7.83s CPU      8.14s WALL (       1 calls)

     Called by init_run:
     wfcinit      :     12.65s CPU     13.28s WALL (       1 calls)
     potinit      :      0.42s CPU      0.53s WALL (       1 calls)
     hinit0       :      0.45s CPU      0.46s WALL (       1 calls)

     Called by electrons:
     c_bands      :    516.14s CPU    533.59s WALL (      20 calls)
     sum_band     :     87.97s CPU     92.92s WALL (      20 calls)
     v_of_rho     :      1.36s CPU      1.61s WALL (      21 calls)
     newd         :      2.32s CPU      3.89s WALL (      21 calls)
     PAW_pot      :      5.49s CPU      6.40s WALL (      21 calls)
     mix_rho      :      0.14s CPU      0.15s WALL (      20 calls)

     Called by c_bands:
     init_us_2    :      7.85s CPU      7.95s WALL (   12384 calls)
     cegterg      :    474.88s CPU    492.15s WALL (    5760 calls)

     Called by *egterg:
     cdiaghg      :     16.64s CPU     16.75s WALL (   19191 calls)
     h_psi        :    390.25s CPU    407.26s WALL (   19479 calls)
     s_psi        :     14.69s CPU     14.80s WALL (   19479 calls)
     g_psi        :      2.22s CPU      2.24s WALL (   13431 calls)

     Called by h_psi:
     h_psi:calbec :     18.48s CPU     19.17s WALL (   19479 calls)
     vloc_psi     :    355.66s CPU    371.86s WALL (   19479 calls)
     add_vuspsi   :     14.95s CPU     15.06s WALL (   19479 calls)

     General routines
     calbec       :     30.30s CPU     31.32s WALL (   30135 calls)
     fft          :      0.76s CPU      0.84s WALL (     563 calls)
     ffts         :      0.10s CPU      0.10s WALL (      82 calls)
     fftw         :    393.82s CPU    411.62s WALL ( 1205920 calls)
     interpolate  :      0.13s CPU      0.13s WALL (      42 calls)

     Parallel routines

     PWSCF        :  10m37.07s CPU  11m 3.98s WALL


   This run was terminated on:  15:48:55   6Aug2026            

=------------------------------------------------------------------------------=
   JOB DONE.
=------------------------------------------------------------------------------=
Note: The following floating-point exceptions are signalling: IEEE_UNDERFLOW_FLAG IEEE_DENORMAL
Note: The following floating-point exceptions are signalling: IEEE_UNDERFLOW_FLAG IEEE_DENORMAL
Note: The following floating-point exceptions are signalling: IEEE_UNDERFLOW_FLAG IEEE_DENORMAL
Note: The following floating-point exceptions are signalling: IEEE_UNDERFLOW_FLAG IEEE_DENORMAL
