8
Lattice="3.7983533327824874 0.0 0.0 -1.0733650225031326e-12 5.003499474405759 0.0 -1.6198131228271063e-12 -0.7204513498676406 4.951359090369999" Properties=species:S:1:pos:R:3 config_id=Al3Ni5_lammps_0K_primitive source="LAMMPS mliap unified (Kokkos), box/relax tri + minimize, this session" pbc="T T T"
Al      -0.01802340       2.14566578       2.48989136
Al       1.88115327       0.54860502       3.87138843
Al       1.88115327       3.74272654       1.10839428
Ni      -0.01802340       0.00414172       0.01421181
Ni      -0.01802340       1.78544011       4.96557090
Ni      -0.01802340       4.64741552       2.48989136
Ni       1.88115327       1.19150014       1.38684124
Ni       1.88115327       3.09983143       3.59294147
