16
Lattice="4.815502911128163 0.0 0.0 -4.2270668144949015e-11 6.599934106646205 0.0 -7.240562725970059e-11 -3.048346360177095e-11 7.426738879905793" Properties=species:S:1:pos:R:3 config_id=Al3Ni_lammps_0K_primitive source="LAMMPS mliap unified (Kokkos), box/relax tri + minimize, this session" pbc="T T T"
Al       4.41564488       0.05486835       1.83456175
Al       1.75557614       1.14139640       3.28469616
Al       1.75557614       1.14139640       0.38442733
Al       4.16332760       2.18166901       4.09779677
Al       0.66217837       4.44136345       3.28469616
Al       3.06992982       5.48163607       6.99806560
Al       0.66217837       4.44136345       0.38442733
Al       3.06992982       5.48163607       4.09779677
Al       4.16332760       2.18166901       6.99806560
Al       2.81761254       3.35483540       1.83456175
Al       0.40986109       6.56816412       5.54793119
Al       2.00789343       3.26819706       5.54793119
Ni       2.13547316       5.75386465       1.83456175
Ni       0.28228135       2.45389760       1.83456175
Ni       2.69003281       0.86916781       5.54793119
Ni       4.54322461       4.16913487       5.54793119
