(written by ASE)

16 atoms
2 atom types

0.0      4.8155029111281626  xlo xhi
0.0      6.5999341066462049  ylo yhi
0.0       7.426738879905793  zlo zhi
-4.2270668144949015e-11 -7.2405627259700592e-11 -3.0483463601770952e-11  xy xz yz

Masses

1      26.981538493059151 # Al
2      58.693399984901454 # Ni

Atoms # atomic

     1   1      4.4156448817841634    0.054868347584266973       1.834561745446631
     2   1      1.7555761438347124      1.1413963992377323      3.2846961615121049
     3   1      1.7555761438681172      1.1413963992383875     0.38442732937489504
     4   1      4.1633275994693184      2.1816690125663114      4.0977967694341633
     5   1     0.66217836739023495      4.4413634524490391      3.2846961614585886
     6   1      3.0699298229914342      5.4816360657777041      6.9980656015178573
     7   1     0.66217836741165825      4.4413634524495009     0.38442732942882363
     8   1      3.0699298230214938      5.4816360657787442      4.0977967692875801
     9   1      4.1633275994445524      2.1816690125654601      6.9980656013708655
    10   1       2.817612540556536      3.3548354010583012      1.8345617454463328
    11   1     0.40986108508908264      6.5681641174419667      5.5479311854006879
    12   1      2.0078934263167141       3.268197063946904      5.5479311854009872
    13   2      2.1354731582898347       5.753864651958108      1.8345617454232992
    14   2     0.28228135332380133       2.453897598758612      1.8345617454234133
    15   2      2.6900328086415835     0.86916781313899649       5.547931185425794
    16   2      4.5432246136076193      4.1691348661757246      5.5479311854256785
