16
Lattice="4.72899456484 4.2728e-07 0.0 1.45726e-06 6.49057153346 0.0 0.0 0.0 7.23484314" Properties=species:S:1:pos:R:3 pbc="T T T"
Al       4.33187792       0.04872643       1.80871078
Al       1.72182373       1.11197102       3.21767747
Al       1.72182373       1.11197102       0.39974409
Al       4.08632221       2.13331627       4.01716442
Al       0.64267381       4.35725569       3.21767872
Al       3.00717230       5.37860093       6.83509905
Al       0.64267381       4.35725569       0.39974285
Al       3.00717230       5.37860093       4.01716567
Al       4.08632221       2.13331627       6.83510029
Al       2.76161442       3.29401114       1.80871078
Al       0.39711811       6.44184552       5.42613236
Al       1.96738161       3.19656082       5.42613236
Ni       2.09528130       5.64911339       1.80871078
Ni       0.26921691       2.40382696       1.80871078
Ni       2.63371473       0.84145857       5.42613236
Ni       4.45977911       4.08674500       5.42613236
