
     Program PWSCF v.7.6 starts on  6Aug2026 at 19:50: 9 

     This program is part of the open-source Quantum ESPRESSO suite
     for quantum simulation of materials; please cite
         "P. Giannozzi et al., J. Phys.:Condens. Matter 21 395502 (2009);
         "P. Giannozzi et al., J. Phys.:Condens. Matter 29 465901 (2017);
         "P. Giannozzi et al., J. Chem. Phys. 152 154105 (2020);
          URL http://www.quantum-espresso.org", 
     in publications or presentations arising from this work. More details at
     http://www.quantum-espresso.org/quote

     Parallel version (MPI), running on     4 processors

     MPI processes distributed on     1 nodes
     5496 MiB available memory on the printing compute node when the environment starts

     Reading input from /home/linuxuser/ni_al_dft_work/cloud_static_inputs/diverse_pilot_01/Al3Ni/iso_m02/Al3Ni_iso_m02.in

     Current dimensions of program PWSCF are:
     Max number of different atomic species (ntypx) = 10
     Max number of k-points (npk) =  40000
     Max angular momentum in pseudopotentials (lmaxx) =  4
     file Al.pbe-n-kjpaw_psl.1.0.0.UPF: wavefunction(s)  3S 3P renormalized

     IMPORTANT: XC functional enforced from input :
     Exchange-correlation= PBE
                           (   1   4   3   4   0   0   0)
     Any further DFT definition will be discarded
     Please, verify this is what you really want

     Message from routine setup:
     using ibrav=0 with symmetry is DISCOURAGED, use correct ibrav instead

     K-points division:     npool     =       2
     R & G space division:  proc/nbgrp/npool/nimage =       2
     Subspace diagonalization in iterative solution of the eigenvalue problem:
     a serial algorithm will be used


     Parallelization info
     --------------------
     sticks:   dense  smooth     PW     G-vecs:    dense   smooth      PW
     Min        3140    1561    437               244482    86432   12591
     Max        3141    1562    438               244483    86433   12594
     Sum        6281    3123    875               488965   172865   25185

     Using Slab Decomposition



     bravais-lattice index     =            0
     lattice parameter (alat)  =       8.9365  a.u.
     unit-cell volume          =    1498.5715 (a.u.)^3
     number of atoms/cell      =           16
     number of atomic types    =            2
     number of electrons       =       108.00
     number of Kohn-Sham states=           65
     kinetic-energy cutoff     =      90.0000  Ry
     charge density cutoff     =     720.0000  Ry
     scf convergence threshold =      1.0E-10
     mixing beta               =       0.3000
     number of iterations used =            8  plain     mixing
     Exchange-correlation= PBE
                           (   1   4   3   4   0   0   0)

     celldm(1)=   8.936505  celldm(2)=   0.000000  celldm(3)=   0.000000
     celldm(4)=   0.000000  celldm(5)=   0.000000  celldm(6)=   0.000000

     crystal axes: (cart. coord. in units of alat)
               a(1) = (   1.000000   0.000000   0.000000 )  
               a(2) = (   0.000000   1.372506   0.000000 )  
               a(3) = (   0.000000   0.000000   1.529890 )  

     reciprocal axes: (cart. coord. in units 2 pi/alat)
               b(1) = (  1.000000 -0.000000  0.000000 )  
               b(2) = ( -0.000000  0.728594  0.000000 )  
               b(3) = (  0.000000  0.000000  0.653642 )  


     PseudoPot. # 1 for Al read from file:
     /home/linuxuser/ni_al_dft_work/cloud_static_inputs/pseudo/Al.pbe-n-kjpaw_psl.1.0.0.UPF
     MD5 check sum: cfc449ca30b5f3223ec38ddd88ac046d
     Pseudo is Projector augmented-wave + core cor, Zval =  3.0
     Generated using "atomic" code by A. Dal Corso  v.5.1
     Shape of augmentation charge: PSQ
     Using radial grid of 1135 points,  6 beta functions with: 
                l(1) =   0
                l(2) =   0
                l(3) =   1
                l(4) =   1
                l(5) =   2
                l(6) =   2
     Q(r) pseudized with 0 coefficients 


     PseudoPot. # 2 for Ni read from file:
     /home/linuxuser/ni_al_dft_work/cloud_static_inputs/pseudo/ni_pbe_v1.4.uspp.F.UPF
     MD5 check sum: 1ee80287db30b12d2bc1f57a5b5d6409
     Pseudo is Ultrasoft + core correction, Zval = 18.0
     Generated by new atomic code, or converted to UPF format
     Using radial grid of  865 points,  6 beta functions with: 
                l(1) =   0
                l(2) =   0
                l(3) =   1
                l(4) =   1
                l(5) =   2
                l(6) =   2
     Q(r) pseudized with 10 coefficients,  rinner =    0.980   0.980   0.980
                                                       0.980   0.980

     atomic species   valence    mass     pseudopotential
     Al                3.00    26.98154     Al( 1.00)
     Ni               18.00    58.69340     Ni( 1.00)

      8 Sym. Ops., with inversion, found ( 6 have fractional translation)



   Cartesian axes

     site n.     atom                  positions (alat units)
         1        Al     tau(   1) = (   0.9160251   0.0103038   0.3824726  )
         2        Al     tau(   2) = (   0.3640993   0.2351390   0.6804147  )
         3        Al     tau(   3) = (   0.3640993   0.2351390   0.0845305  )
         4        Al     tau(   4) = (   0.8640996   0.4511141   0.8494754  )
         5        Al     tau(   5) = (   0.1359007   0.9213916   0.6804150  )
         6        Al     tau(   6) = (   0.6359010   1.1373667   1.4453599  )
         7        Al     tau(   7) = (   0.1359007   0.9213916   0.0845302  )
         8        Al     tau(   8) = (   0.6359010   1.1373667   0.8494756  )
         9        Al     tau(   9) = (   0.8640996   0.4511141   1.4453601  )
        10        Al     tau(  10) = (   0.5839750   0.6965563   0.3824726  )
        11        Al     tau(  11) = (   0.0839752   1.3622019   1.1474178  )
        12        Al     tau(  12) = (   0.4160253   0.6759494   1.1474178  )
        13        Ni     tau(  13) = (   0.4430712   1.1945697   0.3824726  )
        14        Ni     tau(  14) = (   0.0569290   0.5083167   0.3824726  )
        15        Ni     tau(  15) = (   0.5569291   0.1779360   1.1474178  )
        16        Ni     tau(  16) = (   0.9430713   0.8641890   1.1474178  )

     number of k points=   150  Marzari-Vanderbilt smearing, width (Ry)=  0.0100

     Number of k-points >= 100: set verbosity='high' to print them.

     Dense  grid:   488965 G-vectors     FFT dimensions: (  80, 108, 120)

     Smooth grid:   172865 G-vectors     FFT dimensions: (  54,  80,  90)

     Estimated max dynamical RAM per process >       1.39 GB

     Estimated total dynamical RAM >       5.44 GB

     Initial potential from superposition of free atoms

     starting charge      99.9725, renormalised to     108.0000
     Starting wfcs are  100 randomized atomic wfcs
     Checking if some PAW data can be deallocated... 

     total cpu time spent up to now is       39.8 secs

     Self-consistent Calculation

     iteration #  1     ecut=    90.00 Ry     beta= 0.30
     Davidson diagonalization with overlap
     ethr =  1.00E-02,  avg # of iterations =  7.0

     total cpu time spent up to now is      157.5 secs

     total energy              =   -1773.98436242 Ry
     estimated scf accuracy    <     216.51419133 Ry

     iteration #  2     ecut=    90.00 Ry     beta= 0.30
     Davidson diagonalization with overlap
     ethr =  1.00E-02,  avg # of iterations =  4.9

     total cpu time spent up to now is      270.4 secs

     total energy              =   -1848.15304798 Ry
     estimated scf accuracy    <      90.56933562 Ry

     iteration #  3     ecut=    90.00 Ry     beta= 0.30
     Davidson diagonalization with overlap
     ethr =  1.00E-02,  avg # of iterations =  2.0

     total cpu time spent up to now is      355.6 secs

     total energy              =   -1846.08936624 Ry
     estimated scf accuracy    <      23.48597548 Ry

     iteration #  4     ecut=    90.00 Ry     beta= 0.30
     Davidson diagonalization with overlap
     ethr =  1.00E-02,  avg # of iterations =  2.0

     total cpu time spent up to now is      431.9 secs

     total energy              =   -1848.60860275 Ry
     estimated scf accuracy    <       2.54191807 Ry

     iteration #  5     ecut=    90.00 Ry     beta= 0.30
     Davidson diagonalization with overlap
     ethr =  2.35E-03,  avg # of iterations =  3.6

     total cpu time spent up to now is      522.8 secs

     total energy              =   -1847.29148046 Ry
     estimated scf accuracy    <       7.19533848 Ry

     iteration #  6     ecut=    90.00 Ry     beta= 0.30
     Davidson diagonalization with overlap
     ethr =  2.35E-03,  avg # of iterations =  2.1

     total cpu time spent up to now is      609.7 secs

     total energy              =   -1847.60938514 Ry
     estimated scf accuracy    <       4.70503673 Ry

     iteration #  7     ecut=    90.00 Ry     beta= 0.30
     Davidson diagonalization with overlap
     ethr =  2.35E-03,  avg # of iterations =  1.0

     total cpu time spent up to now is      673.1 secs

     total energy              =   -1847.47221643 Ry
     estimated scf accuracy    <       1.49293121 Ry

     iteration #  8     ecut=    90.00 Ry     beta= 0.30
     Davidson diagonalization with overlap
     ethr =  1.38E-03,  avg # of iterations =  2.0

     total cpu time spent up to now is      743.6 secs

     total energy              =   -1847.61788841 Ry
     estimated scf accuracy    <       0.03253421 Ry

     iteration #  9     ecut=    90.00 Ry     beta= 0.30
     Davidson diagonalization with overlap
     c_bands:  1 eigenvalues not converged
     c_bands:  1 eigenvalues not converged
     c_bands:  1 eigenvalues not converged
     c_bands:  1 eigenvalues not converged
     ethr =  3.01E-05,  avg # of iterations = 11.3

     total cpu time spent up to now is      888.2 secs

     total energy              =   -1847.56841051 Ry
     estimated scf accuracy    <       1.33640968 Ry

     iteration # 10     ecut=    90.00 Ry     beta= 0.30
     Davidson diagonalization with overlap
     ethr =  3.01E-05,  avg # of iterations =  3.5

     total cpu time spent up to now is      985.5 secs

     total energy              =   -1847.57809175 Ry
     estimated scf accuracy    <       0.21251996 Ry

     iteration # 11     ecut=    90.00 Ry     beta= 0.30
     Davidson diagonalization with overlap
     c_bands:  1 eigenvalues not converged
     ethr =  3.01E-05,  avg # of iterations =  3.6

     total cpu time spent up to now is     1071.4 secs

     total energy              =   -1847.59767228 Ry
     estimated scf accuracy    <       0.00062588 Ry

     iteration # 12     ecut=    90.00 Ry     beta= 0.30
     Davidson diagonalization with overlap
     c_bands:  1 eigenvalues not converged
     c_bands:  1 eigenvalues not converged
     c_bands:  1 eigenvalues not converged
     c_bands:  1 eigenvalues not converged
     c_bands:  1 eigenvalues not converged
     ethr =  5.80E-07,  avg # of iterations =  9.6

     total cpu time spent up to now is     1200.6 secs

     total energy              =   -1847.59808819 Ry
     estimated scf accuracy    <       0.00071902 Ry

     iteration # 13     ecut=    90.00 Ry     beta= 0.30
     Davidson diagonalization with overlap
     ethr =  5.80E-07,  avg # of iterations =  2.3

     total cpu time spent up to now is     1274.9 secs

     total energy              =   -1847.59822548 Ry
     estimated scf accuracy    <       0.00018322 Ry

     iteration # 14     ecut=    90.00 Ry     beta= 0.30
     Davidson diagonalization with overlap
     ethr =  1.70E-07,  avg # of iterations =  2.3

     total cpu time spent up to now is     1351.6 secs

     total energy              =   -1847.59805313 Ry
     estimated scf accuracy    <       0.00136522 Ry

     iteration # 15     ecut=    90.00 Ry     beta= 0.30
     Davidson diagonalization with overlap
     ethr =  1.70E-07,  avg # of iterations =  2.1

     total cpu time spent up to now is     1427.7 secs

     total energy              =   -1847.59811576 Ry
     estimated scf accuracy    <       0.00008042 Ry

     iteration # 16     ecut=    90.00 Ry     beta= 0.30
     Davidson diagonalization with overlap
     ethr =  7.45E-08,  avg # of iterations =  2.0

     total cpu time spent up to now is     1500.3 secs

     total energy              =   -1847.59812587 Ry
     estimated scf accuracy    <       0.00000011 Ry

     iteration # 17     ecut=    90.00 Ry     beta= 0.30
     Davidson diagonalization with overlap
     ethr =  1.05E-10,  avg # of iterations =  6.3

     total cpu time spent up to now is     1638.7 secs

     total energy              =   -1847.59812686 Ry
     estimated scf accuracy    <       0.00000255 Ry

     iteration # 18     ecut=    90.00 Ry     beta= 0.30
     Davidson diagonalization with overlap
     ethr =  1.05E-10,  avg # of iterations =  4.0

     total cpu time spent up to now is     1732.8 secs

     total energy              =   -1847.59812696 Ry
     estimated scf accuracy    <       0.00000016 Ry

     iteration # 19     ecut=    90.00 Ry     beta= 0.30
     Davidson diagonalization with overlap
     ethr =  1.05E-10,  avg # of iterations =  2.0

     total cpu time spent up to now is     1806.0 secs

     total energy              =   -1847.59812698 Ry
     estimated scf accuracy    <          2.7E-09 Ry

     iteration # 20     ecut=    90.00 Ry     beta= 0.30
     Davidson diagonalization with overlap
     ethr =  2.52E-12,  avg # of iterations =  4.2

     total cpu time spent up to now is     1907.6 secs

     total energy              =   -1847.59812698 Ry
     estimated scf accuracy    <       0.00000001 Ry

     iteration # 21     ecut=    90.00 Ry     beta= 0.30
     Davidson diagonalization with overlap
     ethr =  2.52E-12,  avg # of iterations =  2.6

     total cpu time spent up to now is     1986.3 secs

     total energy              =   -1847.59812698 Ry
     estimated scf accuracy    <          2.3E-10 Ry

     iteration # 22     ecut=    90.00 Ry     beta= 0.30
     Davidson diagonalization with overlap
     ethr =  2.16E-13,  avg # of iterations =  4.0

     total cpu time spent up to now is     2082.0 secs

     total energy              =   -1847.59812698 Ry
     estimated scf accuracy    <          3.8E-10 Ry

     iteration # 23     ecut=    90.00 Ry     beta= 0.30
     Davidson diagonalization with overlap
     ethr =  2.16E-13,  avg # of iterations =  1.0

     total cpu time spent up to now is     2145.3 secs

     total energy              =   -1847.59812698 Ry
     estimated scf accuracy    <          1.4E-10 Ry

     iteration # 24     ecut=    90.00 Ry     beta= 0.30
     Davidson diagonalization with overlap
     ethr =  1.32E-13,  avg # of iterations =  2.0

     total cpu time spent up to now is     2220.2 secs

     End of self-consistent calculation

     Number of k-points >= 100: set verbosity='high' to print the bands.

     the Fermi energy is    10.6458 ev

!    total energy              =   -1847.59812698 Ry
     estimated scf accuracy    <          2.4E-11 Ry
     smearing contrib. (-TS)   =       0.00031915 Ry
     internal energy E=F+TS    =   -1847.59844612 Ry

     The total energy is F=E-TS. E is the sum of the following terms:
     one-electron contribution =   -1289.75237866 Ry
     hartree contribution      =     693.46986358 Ry
     xc contribution           =    -174.31207101 Ry
     ewald contribution        =    -660.73531907 Ry
     one-center paw contrib.   =    -416.26854096 Ry

     convergence has been achieved in  24 iterations

     Forces acting on atoms (cartesian axes, Ry/au):

     atom    1 type  1   force =    -0.00048943    0.00089850   -0.00000000
     atom    2 type  1   force =     0.00065220    0.00138236    0.00021749
     atom    3 type  1   force =     0.00065220    0.00138236   -0.00021749
     atom    4 type  1   force =     0.00065220   -0.00138236   -0.00021749
     atom    5 type  1   force =    -0.00065220    0.00138236    0.00021749
     atom    6 type  1   force =    -0.00065220   -0.00138236    0.00021749
     atom    7 type  1   force =    -0.00065220    0.00138236   -0.00021749
     atom    8 type  1   force =    -0.00065220   -0.00138236   -0.00021749
     atom    9 type  1   force =     0.00065220   -0.00138236    0.00021749
     atom   10 type  1   force =     0.00048943    0.00089850    0.00000000
     atom   11 type  1   force =     0.00048943   -0.00089850   -0.00000000
     atom   12 type  1   force =    -0.00048943   -0.00089850    0.00000000
     atom   13 type  2   force =     0.00045115    0.00084253    0.00000000
     atom   14 type  2   force =    -0.00045115    0.00084253    0.00000000
     atom   15 type  2   force =    -0.00045115   -0.00084253    0.00000000
     atom   16 type  2   force =     0.00045115   -0.00084253    0.00000000

     Total force =     0.005187     Total SCF correction =     0.000001


     Computing stress (Cartesian axis) and pressure

          total   stress  (Ry/bohr**3)                   (kbar)     P=       78.98
   0.00052102  -0.00000000   0.00000000           76.65       -0.00        0.00
  -0.00000000   0.00053576   0.00000000           -0.00       78.81        0.00
   0.00000000   0.00000000   0.00055385            0.00        0.00       81.47


     Writing all to output data dir /home/linuxuser/ni_al_dft_work/cloud_static_inputs/diverse_pilot_01/Al3Ni/iso_m02/tmp/Al3Ni_iso_m02.save/ :
     XML data file, charge density, pseudopotentials, collected wavefunctions

     init_run     :     38.01s CPU     39.70s WALL (       1 calls)
     electrons    :   2079.82s CPU   2180.41s WALL (       1 calls)
     forces       :     13.83s CPU     14.35s WALL (       1 calls)
     stress       :     51.00s CPU     54.04s WALL (       1 calls)

     Called by init_run:
     wfcinit      :     35.87s CPU     36.94s WALL (       1 calls)
     potinit      :      0.86s CPU      1.06s WALL (       1 calls)
     hinit0       :      0.58s CPU      0.62s WALL (       1 calls)

     Called by electrons:
     c_bands      :   1829.53s CPU   1908.24s WALL (      24 calls)
     sum_band     :    223.96s CPU    237.46s WALL (      24 calls)
     v_of_rho     :      3.62s CPU      4.08s WALL (      25 calls)
     newd         :     10.58s CPU     18.89s WALL (      25 calls)
     PAW_pot      :     12.35s CPU     12.46s WALL (      25 calls)
     mix_rho      :      0.42s CPU      0.44s WALL (      24 calls)

     Called by c_bands:
     init_us_2    :     32.34s CPU     32.40s WALL (    3825 calls)
     cegterg      :   1685.43s CPU   1763.73s WALL (    1800 calls)

     Called by *egterg:
     cdiaghg      :     26.19s CPU     26.25s WALL (    8346 calls)
     h_psi        :   1147.25s CPU   1200.15s WALL (    8421 calls)
     s_psi        :    183.30s CPU    183.49s WALL (    8421 calls)
     g_psi        :      7.53s CPU      7.56s WALL (    6546 calls)

     Called by h_psi:
     h_psi:calbec :    193.43s CPU    194.46s WALL (    8421 calls)
     vloc_psi     :    763.55s CPU    798.13s WALL (    8421 calls)
     add_vuspsi   :    184.16s CPU    184.25s WALL (    8421 calls)

     General routines
     calbec       :    300.24s CPU    301.74s WALL (   11496 calls)
     fft          :      2.01s CPU      2.33s WALL (     348 calls)
     ffts         :      0.29s CPU      0.29s WALL (      49 calls)
     fftw         :    805.41s CPU    840.40s WALL (  798258 calls)
     interpolate  :      0.37s CPU      0.39s WALL (      25 calls)

     Parallel routines

     PWSCF        :  36m23.17s CPU  38m10.42s WALL


   This run was terminated on:  20:28:19   6Aug2026            

=------------------------------------------------------------------------------=
   JOB DONE.
=------------------------------------------------------------------------------=
Note: The following floating-point exceptions are signalling: IEEE_UNDERFLOW_FLAG IEEE_DENORMAL
Note: The following floating-point exceptions are signalling: IEEE_UNDERFLOW_FLAG IEEE_DENORMAL
Note: The following floating-point exceptions are signalling: IEEE_UNDERFLOW_FLAG IEEE_DENORMAL
Note: The following floating-point exceptions are signalling: IEEE_UNDERFLOW_FLAG IEEE_DENORMAL
