2
Lattice="2.8361278940568466 0.0 -0.0 -0.0 2.8361278940568466 -0.0 0.0 -0.0 2.8361278940568466" Properties=species:S:1:pos:R:3:forces:R:3 config_id=AlNi_iso_m02 phase=AlNi config_type=iso_m02 source=QE_7.6_PBE energy=-5209.264458355565 stress="-0.0689940358365476 -0.0 -0.0 -0.0 -0.0689940358365476 -0.0 -0.0 -0.0 -0.0689940358365476" pbc="T T T"
Al       1.41806395       1.41806395       1.41806395       0.00000000       0.00000000       0.00000000
Ni       0.00000000       0.00000000       0.00000000       0.00000000       0.00000000       0.00000000
2
Lattice="2.9518885834474338 0.0 -0.0 -0.0 2.9518885834474338 -0.0 0.0 -0.0 2.9518885834474338" Properties=species:S:1:pos:R:3:forces:R:3 config_id=AlNi_iso_p02 phase=AlNi config_type=iso_p02 source=QE_7.6_PBE energy=-5209.271144464695 stress="0.05184836053031304 -0.0 -0.0 -0.0 0.05184836053031304 -0.0 -0.0 -0.0 0.05184836053031304" pbc="T T T"
Al       1.47594429       1.47594429       1.47594429       0.00000000       0.00000000       0.00000000
Ni       0.00000000       0.00000000       0.00000000       0.00000000       0.00000000       0.00000000
2
Lattice="2.89400823875214 0.0 -0.0 -0.0 2.89400823875214 -0.0 0.0 -0.0 2.89400823875214" Properties=species:S:1:pos:R:3:forces:R:3 config_id=AlNi_rattle_003 phase=AlNi config_type=rattle_003 source=QE_7.6_PBE energy=-5209.280878520931 stress="-0.005211462623872088 0.001115561502467334 0.0008189965927579109 0.001115561502467334 -0.003290676892874835 -0.004294223166287836 0.0008189965927579109 -0.004294223166287836 -0.004211588980919885" pbc="T T T"
Al       1.45467932       1.40579952       1.41709570      -0.09073140       0.47654471       0.34958416
Ni       2.88633304       0.04120460       0.02990842       0.09073140      -0.47654471      -0.34958416
2
Lattice="2.89400823875214 0.0 0.0 0.0434101235812821 2.89400823875214 0.0 0.0 0.0 2.89400823875214" Properties=species:S:1:pos:R:3:forces:R:3 config_id=AlNi_shear015_rattle002 phase=AlNi config_type=shear015_rattle002 source=QE_7.6_PBE energy=-5209.299853971299 stress="-0.0016462566040526168 0.009837140689246925 0.0006188382326444304 0.009837140689246925 -0.0015112874346182976 0.0010880167740113503 0.0006188382326444304 0.0010880167740113503 -0.0017068550066557807" pbc="T T T"
Al       1.48204882       1.46907932       1.43244523      -0.13579153      -0.24293274       0.16786913
Ni       2.92407872       2.87193303       0.01455889       0.13579153       0.24293274      -0.16786913
5
Lattice="3.9640241335997097 0.0 0.0 -1.9820120667998549 3.432944000300689 -0.0 -0.0 -0.0 4.809705078237738" Properties=species:S:1:pos:R:3:forces:R:3 config_id=Al3Ni2_iso_m02 phase=Al3Ni2 config_type=iso_m02 source=QE_7.6_PBE energy=-10956.400671770292 stress="-0.056211445517740835 -0.0 -0.0 -0.0 -0.056211445517740835 -0.0 -0.0 -0.0 -0.06021002193193444" pbc="T T T"
Al       0.00000000       0.00000000       0.00000000       0.00000000       0.00000000       0.00000000
Al      -0.00000277       2.28863092       3.11433516      -0.00000000       0.00000000      -0.09536247
Al       1.98201365       1.14431348       1.69536952       0.00000000       0.00000000       0.09536247
Ni      -0.00000277       2.28863092       0.70529226      -0.00000000       0.00000000       0.06572768
Ni       1.98201365       1.14431348       4.10441282       0.00000000      -0.00000000      -0.06572768
5
Lattice="4.125821123408222 0.0 0.0 -2.062910561704111 3.5730642383996054 -0.0 -0.0 -0.0 5.006019676055008" Properties=species:S:1:pos:R:3:forces:R:3 config_id=Al3Ni2_iso_p02 phase=Al3Ni2 config_type=iso_p02 source=QE_7.6_PBE energy=-10956.41587776371 stress="0.04239592788183468 0.0 0.0 0.0 0.04239592788183468 0.0 0.0 0.0 0.045471755892752846" pbc="T T T"
Al       0.00000000       0.00000000       0.00000000      -0.00000000       0.00000000       0.00000000
Al      -0.00000289       2.38204448       3.24145095       0.00000000       0.00000000       0.07051379
Al       2.06291221       1.19102018       1.76456831      -0.00000000       0.00000000      -0.07051379
Ni      -0.00000289       2.38204448       0.73407971      -0.00000000      -0.00000000      -0.05275724
Ni       2.06291221       1.19102018       4.27193997       0.00000000      -0.00000000       0.05275724
5
Lattice="4.044922628503966 0.0 0.0 -2.022461314251983 3.5030041193501473 -0.0 -0.0 -0.0 4.907862377146373" Properties=species:S:1:pos:R:3:forces:R:3 config_id=Al3Ni2_rattle_003 phase=Al3Ni2 config_type=rattle_003 source=QE_7.6_PBE energy=-10956.48157842554 stress="-0.0011183159753129321 -0.0013643822161863851 0.00043979749768053737 -0.0013643822161863851 0.002915150428258259 0.0006647461134044031 0.00043979749768053737 0.0006647461134044031 -0.0033981013338531705" pbc="T T T"
Al       2.02344463       3.49420520       4.88634582       0.03816520       0.08090876       0.09372031
Al      -0.02426630       2.32622691       3.18934585       0.18239843       0.08224316       0.06540604
Al       2.02504076       1.19389410       1.71369053      -0.02968364      -0.19465076       0.11333706
Ni       0.01174929       2.33096595       0.77654667      -0.07797333       0.05844426      -0.61606589
Ni       2.03141232       1.16372181       4.15765786      -0.11290665      -0.02694542       0.34360248
5
Lattice="4.044922628503966 0.0 0.0 -1.9699177693077163 3.5030041193501473 0.0 0.0 0.0 4.907862377146373" Properties=species:S:1:pos:R:3:forces:R:3 config_id=Al3Ni2_shear015_rattle002 phase=Al3Ni2 config_type=shear015_rattle002 source=QE_7.6_PBE energy=-10956.47934015316 stress="0.0013405101181911995 0.009030998303101808 -0.0016251389789030295 0.009030998303101808 -0.001904258893923663 -0.0010595538879401673 -0.0016251389789030295 -0.0010595538879401673 -0.0026470484046200193" pbc="T T T"
Al      -0.00557593       0.01172219       0.01210767       0.04439267      -0.25082191      -0.04685758
Al       0.05198818       2.35638303       3.20205095      -0.12850039      -0.11720528      -0.29618800
Al       2.04004742       1.17018803       1.73326189       0.01499236      -0.03282656      -0.18687703
Ni       0.00697426       2.30073541       0.72231801       0.21357254       0.32426136       0.03685522
Ni       2.05657700       1.16698081       4.14598623      -0.14445717       0.07659265       0.49306740
4
Lattice="3.495915562621792 0.0 -0.0 0.0 3.4960379196664837 0.0 0.0 0.0 3.4960379196664837" Properties=species:S:1:pos:R:3:forces:R:3 config_id=AlNi3_iso_m02 phase=AlNi3 config_type=iso_m02 source=QE_7.6_PBE energy=-14550.746648508584 stress="-0.07939584345914219 -0.0 -0.0 -0.0 -0.079371971361147 -0.0 -0.0 -0.0 -0.079371971361147" pbc="T T T"
Al       0.00000000       0.00000000       0.00000000       0.00000000       0.00000000       0.00000000
Ni       0.00000000       1.74801861       1.74801826       0.00000000       0.00000000       0.00000000
Ni       1.74795778       0.00000000       1.74801826       0.00000000       0.00000000       0.00000000
Ni       1.74795778       1.74801861       0.00000000       0.00000000       0.00000000       0.00000000
4
Lattice="3.6386060801454914 0.0 -0.0 0.0 3.6387334313582964 0.0 0.0 0.0 3.6387334313582964" Properties=species:S:1:pos:R:3:forces:R:3 config_id=AlNi3_iso_p02 phase=AlNi3 config_type=iso_p02 source=QE_7.6_PBE energy=-14550.762379273538 stress="0.05886675734089765 -0.0 -0.0 -0.0 0.05888512049320164 -0.0 -0.0 -0.0 0.05888512049320164" pbc="T T T"
Al       0.00000000       0.00000000       0.00000000       0.00000000       0.00000000       0.00000000
Ni       0.00000000       1.81936635       1.81936599       0.00000000       0.00000000       0.00000000
Ni       1.81930304       0.00000000       1.81936599       0.00000000       0.00000000       0.00000000
Ni       1.81930304       1.81936635       0.00000000       0.00000000       0.00000000       0.00000000
4
Lattice="3.5672608213836416 0.0 -0.0 0.0 3.5673856755123903 0.0 0.0 0.0 3.5673856755123903" Properties=species:S:1:pos:R:3:forces:R:3 config_id=AlNi3_rattle_003 phase=AlNi3 config_type=rattle_003 source=QE_7.6_PBE energy=-14550.816738366631 stress="-0.0025074884471097026 -0.00048570537844050995 0.0001083425985935353 -0.00048570537844050995 -0.002376191908136181 0.0010898530892417492 0.0001083425985935353 0.0010898530892417492 -0.002513915550416099" pbc="T T T"
Al       0.01582473       0.03575965       3.54666310      -0.17973142      -0.47462333       0.28484326
Ni       3.56598160       1.75521040       1.80738551      -0.05966245       0.44281004      -0.32977535
Ni       1.77732100       0.01276223       1.78990915       0.11050293      -0.33482037      -0.17284704
Ni       1.77539432       1.76365304       3.55819534       0.12889094       0.36663365       0.21777912
4
Lattice="3.5672608213836416 0.0 0.0 0.05351247958157601 3.5673856755123903 0.0 0.0 0.0 3.5673856755123903" Properties=species:S:1:pos:R:3:forces:R:3 config_id=AlNi3_shear015_rattle002 phase=AlNi3 config_type=shear015_rattle002 source=QE_7.6_PBE energy=-14550.80912053972 stress="-0.002769163367441546 0.013781545804143768 0.0002148488819566717 0.013781545804143768 -0.0026883654973039947 -0.0004205161877613489 0.0002148488819566717 -0.0004205161877613489 -0.002853633868039896" pbc="T T T"
Al       3.56663370       0.03287052       0.02936070       0.00910968      -0.39743521      -0.17101847
Ni       0.02856769       1.74820287       1.79947262      -0.03527708       0.45651814      -0.19392494
Ni       1.75262628       0.00042736       1.77819533       0.29719253      -0.17872921      -0.00701500
Ni       1.84020467       1.78588456       3.52773985      -0.27102538       0.11964603       0.37195841
8
Lattice="3.687060191228383 0.0 0.0 0.0 4.88169718966791 -0.5406668193815388 0.0 -0.013553633262955537 4.911529193675138" Properties=species:S:1:pos:R:3:forces:R:3 config_id=Al3Ni5_iso_m02 phase=Al3Ni5 config_type=iso_m02 source=QE_7.6_PBE energy=-24969.43088902333 stress="-0.07474537513815696 -0.0 -0.0 -0.0 -0.073028420397734 -0.00011936048997592872 -0.0 -0.00011936048997592872 -0.0730017938268932" pbc="T T T"
Al       0.00000000       2.43407215       2.18543008       0.00000000       0.00000000       0.00000000
Al       1.84353010       1.06587380       3.70930128       0.00000000       0.04835294      -0.05385304
Al       1.84353010       3.80227013       0.66155926       0.00000000      -0.04835294       0.05385304
Ni       0.00000000       0.00000000       0.00000000       0.00000000       0.00000000       0.00000000
Ni       0.00000000       2.44084896      -0.27033415       0.00000000       0.00000000       0.00000000
Ni       0.00000000      -0.00677682       2.45576460       0.00000000       0.00000000       0.00000000
Ni       1.84353010       1.34563944       1.20819837       0.00000000      -0.00072788      -0.00082995
Ni       1.84353010       3.52250448       3.16266216       0.00000000       0.00072788       0.00082995
8
Lattice="3.8375528975120465 0.0 0.0 0.0 5.08095073672913 -0.5627349193382689 0.0 -0.014106844451254283 5.112000377222899" Properties=species:S:1:pos:R:3:forces:R:3 config_id=Al3Ni5_iso_p02 phase=Al3Ni5 config_type=iso_p02 source=QE_7.6_PBE energy=-24969.461407950905 stress="0.055514563887804444 -0.0 -0.0 -0.0 0.05431085925427797 0.00014782337604711171 -0.0 0.00014782337604711171 0.054279641895361185" pbc="T T T"
Al       0.00000000       2.53342233       2.27463158       0.00000000       0.00000000       0.00000000
Al       1.91877645       1.10937898       3.86070178       0.00000000      -0.04148141       0.04619244
Al       1.91877645       3.95746530       0.68856176       0.00000000       0.04148141      -0.04619244
Ni       0.00000000       0.00000000       0.00000000       0.00000000       0.00000000       0.00000000
Ni       0.00000000       2.54047575      -0.28136823       0.00000000       0.00000000       0.00000000
Ni       0.00000000      -0.00705342       2.55600019       0.00000000       0.00000000       0.00000000
Ni       1.91877645       1.40056367       1.25751274       0.00000000       0.00803110       0.00704302
Ni       1.91877645       3.66628061       3.29175080       0.00000000      -0.00803110      -0.00704302
8
Lattice="3.762306544370215 0.0 0.0 0.0 4.98132396319852 -0.5517008693599039 0.0 -0.01383023885710491 5.011764785449018" Properties=species:S:1:pos:R:3:forces:R:3 config_id=Al3Ni5_rattle_003 phase=Al3Ni5 config_type=rattle_003 source=QE_7.6_PBE energy=-24969.569102172714 stress="-0.003136426413521327 0.00015149600650790954 -0.0003452272633149938 0.00015149600650790954 -0.0008529684245202907 -0.000827260011294706 -0.0003452272633149938 -0.000827260011294706 -0.0031382627287517262" pbc="T T T"
Al       0.00620254       2.50336503       2.20835167      -0.03303713      -0.27545025       0.07757198
Al       1.90481103       1.05572730       3.78130845      -0.30887974       0.25683032       0.01226236
Al       1.90593860       3.84240831       0.63142114      -0.33117891       0.35269159       0.42572198
Ni       3.73795991       0.04373606       0.03741238       0.32958534      -0.16598322      -0.11674557
Ni       3.74479715       2.51255108       4.71647414       0.24215601      -0.27689007       0.00915184
Ni       3.75194854       4.95581816       1.98587482       0.17089069       0.13928411      -0.19168808
Ni       1.89113542       1.37316702       1.23637068      -0.12588018      -0.05257623       0.04472511
Ni       1.86873917       3.58320420       3.24303488       0.05634418       0.02209400      -0.26099962
8
Lattice="3.762306544370215 0.0 0.0 0.07471940797119246 4.98132396319852 -0.5517008693599039 -0.00020692685994036183 -0.01383023885710491 5.011764785449018" Properties=species:S:1:pos:R:3:forces:R:3 config_id=Al3Ni5_shear015_rattle002 phase=Al3Ni5 config_type=shear015_rattle002 source=QE_7.6_PBE energy=-24969.568178074118 stress="-0.0016728831748934008 0.009453350806093556 0.0006417921730244167 0.009453350806093556 -0.0018684507469308841 0.0006610734829436052 0.0006417921730244167 0.0006610734829436052 -0.00120554094875688" pbc="T T T"
Al       3.77404569       2.46072945       2.22441446       0.33483991       0.18513923       0.03060590
Al       1.88115779       1.12386906       3.78135585       0.16063815      -0.20917338       0.13890745
Al       1.95821773       3.86401448       0.69320047      -0.17440307       0.17781544      -0.08742496
Ni       0.07999228       4.91227059       4.45221499      -0.03885580       0.67011202       0.07114577
Ni       3.79919333       2.49952033       4.71336647       0.00699597      -0.41299193       0.17407217
Ni       0.08501985       4.95786260       1.96238523      -0.06986510       0.10438010      -0.06831652
Ni       1.90787468       1.39012599       1.24491187      -0.09544861      -0.29675416      -0.20358226
Ni       1.93628762       3.62907838       3.22846045      -0.12390120      -0.21852783      -0.05540702
16
Lattice="4.728994768337464 0.0 0.0 0.0 6.490573693511779 0.0 0.0 0.0 7.2348418061318025" Properties=species:S:1:pos:R:3:forces:R:3 config_id=Al3Ni_iso_m02 phase=Al3Ni config_type=iso_m02 source=QE_7.6_PBE energy=-25137.850931275556 stress="-0.04783784806712183 0.0 -0.0 0.0 -0.04919121239192583 -0.0 -0.0 -0.0 -0.050852159517821634" pbc="T T T"
Al       4.33187791       0.04872662       1.80871092      -0.01258375       0.02310136      -0.00000000
Al       1.72182368       1.11197110       3.21767756       0.01676873       0.03554190       0.00559189
Al       1.72182368       1.11197110       0.39974429       0.01676873       0.03554190      -0.00559189
Al       4.08632249       2.13331622       4.01716472       0.01676873      -0.03554190      -0.00559189
Al       0.64267370       4.35725606       3.21767898      -0.01676873       0.03554190       0.00559189
Al       3.00717250       5.37860117       6.83509941      -0.01676873      -0.03554190       0.00559189
Al       0.64267370       4.35725606       0.39974287      -0.01676873       0.03554190      -0.00559189
Al       3.00717250       5.37860117       4.01716567      -0.01676873      -0.03554190      -0.00559189
Al       4.08632249       2.13331622       6.83510035       0.01676873      -0.03554190       0.00559189
Al       2.76161472       3.29401110       1.80871092       0.01258375       0.02310136       0.00000000
Al       0.39711828       6.44184566       5.42613277       0.01258375      -0.02310136      -0.00000000
Al       1.96738147       3.19656118       5.42613277      -0.01258375      -0.02310136       0.00000000
Ni       2.09528139       5.64911386       1.80871092       0.01159953       0.02166232       0.00000000
Ni       0.26921694       2.40382701       1.80871092      -0.01159953       0.02166232       0.00000000
Ni       2.63371480       0.84145841       5.42613277      -0.01159953      -0.02166232       0.00000000
Ni       4.45977924       4.08674526       5.42613277       0.01159953      -0.02166232       0.00000000
16
Lattice="4.92201480097046 0.0 0.0 0.0 6.755494846420762 0.0 0.0 0.0 7.530141223856696" Properties=species:S:1:pos:R:3:forces:R:3 config_id=Al3Ni_iso_p02 phase=Al3Ni config_type=iso_p02 source=QE_7.6_PBE energy=-25137.891685084887 stress="0.036009223510507296 -0.0 -0.0 -0.0 0.03739105072138247 -0.0 -0.0 -0.0 0.03842214172325145" pbc="T T T"
Al       4.50868910       0.05071546       1.88253580       0.00883045      -0.01882922       0.00000000
Al       1.79210214       1.15735764       3.34901122      -0.01718011      -0.02311370      -0.00683451
Al       1.79210214       1.15735764       0.41606037      -0.01718011      -0.02311370       0.00683451
Al       4.25311102       2.22039028       4.18113049      -0.01718011       0.02311370       0.00683451
Al       0.66890526       4.53510309       3.34901270       0.01718011      -0.02311370      -0.00683451
Al       3.12991413       5.59813573       7.11408282       0.01718011       0.02311370      -0.00683451
Al       0.66890526       4.53510309       0.41605890       0.01718011      -0.02311370       0.00683451
Al       3.12991413       5.59813573       4.18113148       0.01718011       0.02311370       0.00683451
Al       4.25311102       2.22039028       7.11408380      -0.01718011       0.02311370      -0.00683451
Al       2.87433359       3.42846042       1.88253580      -0.00883045      -0.01882896       0.00000000
Al       0.41332718       6.70477791       5.64760739      -0.00883045       0.01882922       0.00000000
Al       2.04768268       3.32703295       5.64760739       0.00883045       0.01882896       0.00000000
Ni       2.18080300       5.87968974       1.88253580      -0.00690367      -0.01875851      -0.00000000
Ni       0.28020538       2.50194232       1.88253580       0.00690367      -0.01875851       0.00000000
Ni       2.74121327       0.87580363       5.64760739       0.00690367       0.01875851      -0.00000000
Ni       4.64181090       4.25355105       5.64760739      -0.00690367       0.01875851       0.00000000
16
Lattice="4.8255045200653575 0.0 0.0 0.0 6.623033906816824 0.0 0.0 0.0 7.38249111020279" Properties=species:S:1:pos:R:3:forces:R:3 config_id=Al3Ni_rattle_003 phase=Al3Ni config_type=rattle_003 source=QE_7.6_PBE energy=-25138.049826355193 stress="0.00013221469658872105 0.0012606304056688473 0.00025524781702544757 0.0012606304056688473 -0.002835270715735907 -0.0005123319492812941 0.00025524781702544757 -0.0005123319492812941 -0.0013102109168896176" pbc="T T T"
Al       4.43548070       0.04476814       1.83546027      -0.19585070       0.01405288      -0.01739737
Al       1.71472276       1.14160242       3.33296970       0.24411133       0.05262303      -0.18080717
Al       1.72342797       1.10595352       0.44161908       0.45516316       0.12289745      -0.36208769
Al       4.16164587       2.18697800       4.09145119      -0.10704377      -0.03571082      -0.11735518
Al       0.63666452       4.49077568       3.29703079       0.17111000      -0.19092086      -0.24222929
Al       3.02448147       5.45746562       6.95687775       0.36503803      -0.02370583       0.00280842
Al       0.66304169       4.40866152       0.40075670      -0.13026417       0.22795349       0.02091464
Al       3.04649494       5.53466742       4.09395176       0.25093118      -0.36063399       0.04437133
Al       4.18093293       2.18285364       6.94166728      -0.05974267      -0.11506972       0.24000040
Al       2.83398840       3.39980776       1.80437147       0.05506814      -0.24845213       0.18485538
Al       0.41372139       6.60309830       5.56028988      -0.19581779      -0.27118556      -0.01863098
Al       2.01062463       3.23564844       5.58240758       0.04629837      -0.02895036      -0.21878725
Ni       2.13553233       5.79012336       1.83531116      -0.01229836      -0.22476661       0.14816856
Ni       0.32757986       2.43987497       1.83224600      -0.49104959       0.30693752       0.17098890
Ni       2.70744727       0.81332962       5.55372092      -0.07806692       0.44475508       0.02610647
Ni       4.58826100       4.14865079       5.49981087      -0.31758652       0.33017618       0.31908033
16
Lattice="4.8255045200653575 0.0 0.0 0.09934748705910558 6.623033906816824 0.0 0.0 0.0 7.38249111020279" Properties=species:S:1:pos:R:3:forces:R:3 config_id=Al3Ni_shear015_rattle002 phase=Al3Ni config_type=shear015_rattle002 source=QE_7.6_PBE energy=-25138.110185558427 stress="0.0014681340267039234 0.00626275309327546 -0.0005582398300412666 0.00626275309327546 -0.0029959482983958107 -0.0008851039410522714 -0.0005582398300412666 -0.0008851039410522714 -0.0006987179451667827" pbc="T T T"
Al       4.43312296       0.03018208       1.86979566      -0.12437789       0.07280953      -0.07994588
Al       1.80910191       1.14591931       3.27190728      -0.09034445       0.06013219       0.13443167
Al       1.76880991       1.13461702       0.42085975       0.07441544      -0.03756947      -0.08485463
Al       4.22220595       2.20933746       4.10223619      -0.14677142      -0.23409817      -0.03627158
Al       0.70436731       4.43273258       3.26205698       0.10516275       0.09205835       0.04644878
Al       3.15816676       5.45493609       6.95094769      -0.13025543       0.21246954       0.26250526
Al       0.72087295       4.42142111       0.38663100       0.10907751       0.16450946       0.14467777
Al       3.11955838       5.47711266       4.11912690       0.06293829       0.03695112      -0.08049070
Al       4.20410934       2.19781271       6.95170674       0.01374435      -0.11028953       0.23498006
Al       2.84729956       3.34834134       1.83055128       0.04113714       0.10994886       0.03266715
Al       0.51093166       6.61321883       5.55218497      -0.06486688      -0.22335842      -0.10590657
Al       2.06877630       3.25132747       5.57000652      -0.10389545       0.07612342      -0.17753879
Ni       2.20414039       5.77579981       1.85201705       0.12486177      -0.19740724      -0.10009382
Ni       0.28992596       2.45218821       1.84321389       0.08459032      -0.07700377      -0.05045661
Ni       2.70893256       0.88388670       5.56512166       0.02365955      -0.24177343      -0.27006045
Ni       4.62849027       4.15542531       5.51157835       0.02092492       0.29649756       0.12990782
2
Lattice="2.89400823875214 0.0 -0.0 -0.0 2.89400823875214 -0.0 0.0 -0.0 2.89400823875214" Properties=species:S:1:pos:R:3:forces:R:3 config_id=AlNi_relaxed phase=AlNi config_type=relaxed source=QE_7.6_PBE energy=-5209.311410373913 stress="-8.630681582874845e-05 -0.0 -0.0 -0.0 -8.630681582874845e-05 -0.0 -0.0 -0.0 -8.630681582874845e-05" pbc="T T T"
Al       1.44700412       1.44700412       1.44700412       0.00000000       0.00000000       0.00000000
Ni       0.00000000       0.00000000       0.00000000       0.00000000       0.00000000       0.00000000
5
Lattice="4.044922628503966 0.0 0.0 -2.022461314251983 3.5030041193501473 -0.0 -0.0 -0.0 4.907862377146373" Properties=species:S:1:pos:R:3:forces:R:3 config_id=Al3Ni2_relaxed phase=Al3Ni2 config_type=relaxed source=QE_7.6_PBE energy=-10956.512625390018 stress="-7.345260921595614e-06 -0.0 0.0 -0.0 -7.345260921595614e-06 0.0 0.0 0.0 -4.6826038375172033e-05" pbc="T T T"
Al       0.00000000       0.00000000       0.00000000       0.00000000      -0.00000000       0.00000000
Al      -0.00000283       2.33533770       3.17789306      -0.00000000      -0.00000000      -0.00204994
Al       2.02246293       1.16766683       1.72996891      -0.00000000      -0.00000000       0.00204994
Ni      -0.00000283       2.33533770       0.71968598       0.00000000       0.00000000      -0.00243509
Ni       2.02246293       1.16766683       4.18817639       0.00000000       0.00000000       0.00243509
4
Lattice="3.5672608213836416 0.0 -0.0 0.0 3.5673856755123903 0.0 0.0 0.0 3.5673856755123903" Properties=species:S:1:pos:R:3:forces:R:3 config_id=AlNi3_relaxed phase=AlNi3 config_type=relaxed source=QE_7.6_PBE energy=-14550.847840706278 stress="-0.00011476970189993147 -0.0 -0.0 -0.0 -9.365207675034407e-05 -0.0 -0.0 -0.0 -9.365207675034407e-05" pbc="T T T"
Al       0.00000000       0.00000000       0.00000000       0.00000000       0.00000000       0.00000000
Ni       0.00000000       1.78369248       1.78369212       0.00000000       0.00000000       0.00000000
Ni       1.78363041       0.00000000       1.78369212       0.00000000       0.00000000       0.00000000
Ni       1.78363041       1.78369248       0.00000000       0.00000000       0.00000000       0.00000000
8
Lattice="3.762306544370215 0.0 0.0 0.0 4.98132396319852 -0.5517008693599039 0.0 -0.01383023885710491 5.011764785449018" Properties=species:S:1:pos:R:3:forces:R:3 config_id=Al3Ni5_relaxed phase=Al3Ni5 config_type=relaxed source=QE_7.6_PBE energy=-24969.625439533414 stress="-0.0003277822686262043 -0.0 -0.0 -0.0 -0.00020933993626547502 -1.9281309919188485e-05 -0.0 -1.9281309919188485e-05 -0.00020474914818947773" pbc="T T T"
Al       0.00000000       2.48374724       2.23003083       0.00000000       0.00000000       0.00000000
Al       1.88115327       1.08762639       3.78500153      -0.00000000      -0.00043632       0.00048800
Al       1.88115327       3.87986771       0.67506051      -0.00000000       0.00043632      -0.00048800
Ni       0.00000000       0.00000000       0.00000000       0.00000000       0.00000000       0.00000000
Ni       0.00000000       2.49066236      -0.27585119       0.00000000       0.00000000       0.00000000
Ni       0.00000000      -0.00691512       2.50588239       0.00000000       0.00000000       0.00000000
Ni       1.88115327       1.37310155       1.23285556       0.00000000       0.00173498       0.00147144
Ni       1.88115327       3.59439255       3.22720648       0.00000000      -0.00173498      -0.00147144
16
Lattice="4.8255045200653575 0.0 0.0 0.0 6.623033906816824 0.0 0.0 0.0 7.38249111020279" Properties=species:S:1:pos:R:3:forces:R:3 config_id=Al3Ni_relaxed phase=Al3Ni config_type=relaxed source=QE_7.6_PBE energy=-25138.175258317573 stress="8.17160277527512e-05 -0.0 -0.0 -0.0 0.00016985915881189857 -0.0 -0.0 -0.0 7.253445160075668e-05" pbc="T T T"
Al       4.42028326       0.04972103       1.84562326       0.00048594      -0.00016069       0.00000000
Al       1.75696282       1.13466431       3.28334421      -0.00245412       0.00241992      -0.00121793
Al       1.75696282       1.13466431       0.40790231      -0.00245412       0.00241992       0.00121793
Al       4.16971653       2.17685313       4.09914738      -0.00245412      -0.00241992       0.00121793
Al       0.65578944       4.44617933       3.28334566       0.00245412       0.00241992      -0.00121793
Al       3.06854315       5.48836815       6.97459073       0.00245412      -0.00241992      -0.00121793
Al       0.65578944       4.44617933       0.40790086       0.00245412       0.00241992       0.00121793
Al       3.06854315       5.48836815       4.09914835       0.00245412      -0.00241992       0.00121793
Al       4.16971653       2.17685313       6.97459170      -0.00245412      -0.00241992      -0.00121793
Al       2.81797400       3.36123557       1.84562326      -0.00048594      -0.00016069       0.00000000
Al       0.40522271       6.57331143       5.53686978      -0.00048594       0.00016069       0.00000000
Al       2.00753197       3.26179689       5.53686978       0.00048594       0.00016069       0.00000000
Ni       2.13804208       5.76440149       1.84562326       0.00047283      -0.00132900       0.00000000
Ni       0.27471115       2.45288453       1.84562326      -0.00047283      -0.00132900       0.00000000
Ni       2.68746389       0.85863097       5.53686978      -0.00047283       0.00132900      -0.00000000
Ni       4.55079482       4.17014793       5.53686978       0.00047283       0.00132900       0.00000000
