(written by ASE)

8 atoms
2 atom types

0.0      3.8227622054103514  xlo xhi
0.0      4.9677483254847772  ylo yhi
0.0      4.8865568461299231  zlo zhi
-1.7616620076383389e-11  -2.561336069146508e-11    -0.89447504977802694  xy xz yz

Masses

1      26.981538493059151 # Al
2      58.693399984901454 # Ni

Atoms # atomic

     1   1   -0.030227831652042764      2.0586539558736301      2.4898913663028868
     2   1      1.8811532710512047     0.42871004712968541       3.848559069097881
     3   1      1.8811532710556718      3.6885978644120576       1.131223663648024
     4   2   -0.030227831630229195     0.02201731784606004    0.046612943350673709
     5   2    -0.03022783166464884      1.6114164308154553      4.9331697893325623
     6   2   -0.030227831660650153      4.5425281186221671       2.489891366442003
     7   2      1.8811532710639658      1.1533015342305248      1.4037732067988591
     8   2      1.8811532710430865      2.9640063773377197      3.5760095259295053
