(written by ASE)

16 atoms
2 atom types

0.0      4.7497090190499849  xlo xhi
0.0      6.6482973709156665  ylo yhi
0.0      7.3967585512692295  zlo zhi
-6.6203101064159102e-11  3.9612225119420144e-12 -6.6873379854815699e-11  xy xz yz

Masses

1      26.981538493059151 # Al
2      58.693399984901454 # Ni

Atoms # atomic

     1   1      4.3730011822783847     0.04890936727838352      1.8420568239315054
     2   1      1.8040762016274037       1.110756279824465      3.2687261822556311
     3   1      1.8040762016265481       1.110756279849983     0.41538746560663886
     4   1      4.1789307112146208      2.1881274891808209      4.1137667411675238
     5   1     0.64657523594862709       4.434904965233426      3.2687261823299409
     6   1      3.0214297455366981      5.5122761745643016      6.9671054578908276
     7   1     0.64657523594651678      4.4349049652589549     0.41538746553232309
     8   1      3.0214297455360932      5.5122761745897879      4.1137667412424674
     9   1      4.1789307112169789      2.1881274891553311      6.9671054579657747
    10   1      2.8273592744636069      3.3730580526877039      1.8420568239315005
    11   1     0.45250476488488112      6.5741230871358134      5.5404360995660999
    12   1      1.9981466726996591      3.2499744017266354      5.5404360995661044
    13   2       2.115685587378247      5.7429334165876575       1.842056823930776
    14   2     0.33496585026102277      2.4187847310432864      1.8420568239307817
    15   2      2.7098203597847177     0.88009903782608878      5.5404360995665849
    16   2      4.4905400969019418      4.2042477233715001      5.5404360995665796
