(written by ASE)

5 atoms
2 atom types

0.0      4.0421904431470557  xlo xhi
0.0      3.5006396104995123  ylo yhi
0.0      4.8772379329727311  zlo zhi
    -2.0210952209717163 -1.7660856142129065e-10 -8.2997227779780171e-12  xy xz yz

Masses

1      26.981538493059151 # Al
2      58.693399984901454 # Ni

Atoms # atomic

     1   1    0.001365607304965782   0.0011824185746438236    0.015312139763665546
     2   1   0.0013656071599973301      2.3349421588983317      3.1744845986995665
     3   1      2.0224608294528612       1.168062288740749      1.7333776137561181
     4   2   0.0013656079959969926      2.3349421589102368     0.73737546894229034
     5   2      2.0224608286123114      1.1680622887303851      4.1704867435103132
