16
Lattice="4.749709019049985 0.0 0.0 -6.62031010641591e-11 6.6482973709156665 0.0 3.961222511942014e-12 -6.68733798548157e-11 7.3967585512692295" Properties=species:S:1:pos:R:3 config_id=Al3Ni_lammps_0K_zeroshot_primitive phase=Al3Ni source="LAMMPS mliap unified (Kokkos), box/relax tri + minimize, MACE-MATPES-PBE-0 ZERO-SHOT foundation checkpoint, PRIMITIVE cell, directly atom-count-comparable to the dft/ entry for this phase" pbc="T T T"
Al       4.37300118       0.04890937       1.84205682
Al       1.80407620       1.11075628       3.26872618
Al       1.80407620       1.11075628       0.41538747
Al       4.17893071       2.18812749       4.11376674
Al       0.64657524       4.43490497       3.26872618
Al       3.02142975       5.51227617       6.96710546
Al       0.64657524       4.43490497       0.41538747
Al       3.02142975       5.51227617       4.11376674
Al       4.17893071       2.18812749       6.96710546
Al       2.82735927       3.37305805       1.84205682
Al       0.45250476       6.57412309       5.54043610
Al       1.99814667       3.24997440       5.54043610
Ni       2.11568559       5.74293342       1.84205682
Ni       0.33496585       2.41878473       1.84205682
Ni       2.70982036       0.88009904       5.54043610
Ni       4.49054010       4.20424772       5.54043610
