(written by ASE)

4 atoms
2 atom types

0.0      3.5628775600473888  xlo xhi
0.0      3.5628775591873705  ylo yhi
0.0      3.5628775591873709  zlo zhi
-1.2799968511593585e-16  1.3259888294755987e-16 -6.4145251545085522e-17  xy xz yz

Masses

1      26.981538493059151 # Al
2      58.693399984901454 # Ni

Atoms # atomic

     1   1   0.0021916303226977379   0.0022538795400828741      0.0022536997973568
     2   2   0.0021916303225004443      1.7836926591255586      1.7836924793745712
     3   2      1.7836304103463763   0.0022538794380144844      1.7836924793745728
     4   2       1.783630410346376      1.7836926591255593    0.002253699592579826
