
     Program PWSCF v.7.6 starts on  6Aug2026 at 14:21:14 

     This program is part of the open-source Quantum ESPRESSO suite
     for quantum simulation of materials; please cite
         "P. Giannozzi et al., J. Phys.:Condens. Matter 21 395502 (2009);
         "P. Giannozzi et al., J. Phys.:Condens. Matter 29 465901 (2017);
         "P. Giannozzi et al., J. Chem. Phys. 152 154105 (2020);
          URL http://www.quantum-espresso.org", 
     in publications or presentations arising from this work. More details at
     http://www.quantum-espresso.org/quote

     Parallel version (MPI), running on     4 processors

     MPI processes distributed on     1 nodes
     1855 MiB available memory on the printing compute node when the environment starts

     Reading input from /home/linuxuser/ni_al_dft_work/cloud_static_inputs/diverse_pilot_01/AlNi/iso_p02/AlNi_iso_p02.in

     Current dimensions of program PWSCF are:
     Max number of different atomic species (ntypx) = 10
     Max number of k-points (npk) =  40000
     Max angular momentum in pseudopotentials (lmaxx) =  4
     file Al.pbe-n-kjpaw_psl.1.0.0.UPF: wavefunction(s)  3S 3P renormalized

     IMPORTANT: XC functional enforced from input :
     Exchange-correlation= PBE
                           (   1   4   3   4   0   0   0)
     Any further DFT definition will be discarded
     Please, verify this is what you really want

     Message from routine setup:
     using ibrav=0 with symmetry is DISCOURAGED, use correct ibrav instead

     K-points division:     npool     =       2
     R & G space division:  proc/nbgrp/npool/nimage =       2
     Subspace diagonalization in iterative solution of the eigenvalue problem:
     a serial algorithm will be used


     Parallelization info
     --------------------
     sticks:   dense  smooth     PW     G-vecs:    dense   smooth      PW
     Min         890     442    138                28308    10002    1702
     Max         891     443    139                28311    10003    1705
     Sum        1781     885    277                56619    20005    3407

     Using Slab Decomposition



     bravais-lattice index     =            0
     lattice parameter (alat)  =       5.5783  a.u.
     unit-cell volume          =     173.5787 (a.u.)^3
     number of atoms/cell      =            2
     number of atomic types    =            2
     number of electrons       =        21.00
     number of Kohn-Sham states=           15
     kinetic-energy cutoff     =      90.0000  Ry
     charge density cutoff     =     720.0000  Ry
     scf convergence threshold =      1.0E-10
     mixing beta               =       0.3000
     number of iterations used =            8  plain     mixing
     Exchange-correlation= PBE
                           (   1   4   3   4   0   0   0)

     celldm(1)=   5.578261  celldm(2)=   0.000000  celldm(3)=   0.000000
     celldm(4)=   0.000000  celldm(5)=   0.000000  celldm(6)=   0.000000

     crystal axes: (cart. coord. in units of alat)
               a(1) = (   1.000000   0.000000  -0.000000 )  
               a(2) = (  -0.000000   1.000000  -0.000000 )  
               a(3) = (   0.000000  -0.000000   1.000000 )  

     reciprocal axes: (cart. coord. in units 2 pi/alat)
               b(1) = (  1.000000  0.000000  0.000000 )  
               b(2) = (  0.000000  1.000000  0.000000 )  
               b(3) = (  0.000000  0.000000  1.000000 )  


     PseudoPot. # 1 for Al read from file:
     /home/linuxuser/ni_al_dft_work/cloud_static_inputs/pseudo/Al.pbe-n-kjpaw_psl.1.0.0.UPF
     MD5 check sum: cfc449ca30b5f3223ec38ddd88ac046d
     Pseudo is Projector augmented-wave + core cor, Zval =  3.0
     Generated using "atomic" code by A. Dal Corso  v.5.1
     Shape of augmentation charge: PSQ
     Using radial grid of 1135 points,  6 beta functions with: 
                l(1) =   0
                l(2) =   0
                l(3) =   1
                l(4) =   1
                l(5) =   2
                l(6) =   2
     Q(r) pseudized with 0 coefficients 


     PseudoPot. # 2 for Ni read from file:
     /home/linuxuser/ni_al_dft_work/cloud_static_inputs/pseudo/ni_pbe_v1.4.uspp.F.UPF
     MD5 check sum: 1ee80287db30b12d2bc1f57a5b5d6409
     Pseudo is Ultrasoft + core correction, Zval = 18.0
     Generated by new atomic code, or converted to UPF format
     Using radial grid of  865 points,  6 beta functions with: 
                l(1) =   0
                l(2) =   0
                l(3) =   1
                l(4) =   1
                l(5) =   2
                l(6) =   2
     Q(r) pseudized with 10 coefficients,  rinner =    0.980   0.980   0.980
                                                       0.980   0.980

     atomic species   valence    mass     pseudopotential
     Al                3.00    26.98154     Al( 1.00)
     Ni               18.00    58.69340     Ni( 1.00)

     48 Sym. Ops., with inversion, found



   Cartesian axes

     site n.     atom                  positions (alat units)
         1        Al     tau(   1) = (   0.5000000   0.5000000   0.5000000  )
         2        Ni     tau(   2) = (   0.0000000   0.0000000   0.0000000  )

     number of k points=   165  Marzari-Vanderbilt smearing, width (Ry)=  0.0100

     Number of k-points >= 100: set verbosity='high' to print them.

     Dense  grid:    56619 G-vectors     FFT dimensions: (  48,  48,  48)

     Smooth grid:    20005 G-vectors     FFT dimensions: (  36,  36,  36)

     Estimated max dynamical RAM per process >      88.86 MB

     Estimated total dynamical RAM >     341.61 MB

     Check: negative core charge=   -0.000002

     Initial potential from superposition of free atoms

     starting charge      18.9977, renormalised to      21.0000
     Starting wfcs are   17 randomized atomic wfcs
     Checking if some PAW data can be deallocated... 

     total cpu time spent up to now is        1.6 secs

     Self-consistent Calculation

     iteration #  1     ecut=    90.00 Ry     beta= 0.30
     Davidson diagonalization with overlap
     ethr =  1.00E-02,  avg # of iterations =  6.2

     total cpu time spent up to now is        4.7 secs

     total energy              =    -366.89733865 Ry
     estimated scf accuracy    <      56.02752912 Ry

     iteration #  2     ecut=    90.00 Ry     beta= 0.30
     Davidson diagonalization with overlap
     ethr =  1.00E-02,  avg # of iterations =  3.1

     total cpu time spent up to now is        7.2 secs

     total energy              =    -382.51308913 Ry
     estimated scf accuracy    <      13.23898154 Ry

     iteration #  3     ecut=    90.00 Ry     beta= 0.30
     Davidson diagonalization with overlap
     ethr =  1.00E-02,  avg # of iterations =  2.0

     total cpu time spent up to now is        9.1 secs

     total energy              =    -382.96637498 Ry
     estimated scf accuracy    <       2.36209225 Ry

     iteration #  4     ecut=    90.00 Ry     beta= 0.30
     Davidson diagonalization with overlap
     ethr =  1.00E-02,  avg # of iterations =  1.0

     total cpu time spent up to now is       10.7 secs

     total energy              =    -383.35357445 Ry
     estimated scf accuracy    <       0.75658516 Ry

     iteration #  5     ecut=    90.00 Ry     beta= 0.30
     Davidson diagonalization with overlap
     ethr =  3.60E-03,  avg # of iterations =  3.1

     total cpu time spent up to now is       13.0 secs

     total energy              =    -382.00006099 Ry
     estimated scf accuracy    <      10.54920907 Ry

     iteration #  6     ecut=    90.00 Ry     beta= 0.30
     Davidson diagonalization with overlap
     ethr =  3.60E-03,  avg # of iterations =  3.0

     total cpu time spent up to now is       15.2 secs

     total energy              =    -382.92269224 Ry
     estimated scf accuracy    <       0.26790694 Ry

     iteration #  7     ecut=    90.00 Ry     beta= 0.30
     Davidson diagonalization with overlap
     ethr =  1.28E-03,  avg # of iterations =  1.1

     total cpu time spent up to now is       16.8 secs

     total energy              =    -382.86714602 Ry
     estimated scf accuracy    <       0.47192661 Ry

     iteration #  8     ecut=    90.00 Ry     beta= 0.30
     Davidson diagonalization with overlap
     ethr =  1.28E-03,  avg # of iterations =  1.0

     total cpu time spent up to now is       18.4 secs

     total energy              =    -382.87314027 Ry
     estimated scf accuracy    <       0.08387472 Ry

     iteration #  9     ecut=    90.00 Ry     beta= 0.30
     Davidson diagonalization with overlap
     ethr =  3.99E-04,  avg # of iterations =  1.1

     total cpu time spent up to now is       20.1 secs

     total energy              =    -382.87188353 Ry
     estimated scf accuracy    <       0.01399973 Ry

     iteration # 10     ecut=    90.00 Ry     beta= 0.30
     Davidson diagonalization with overlap
     ethr =  6.67E-05,  avg # of iterations =  2.1

     total cpu time spent up to now is       21.8 secs

     total energy              =    -382.87431555 Ry
     estimated scf accuracy    <       0.00267731 Ry

     iteration # 11     ecut=    90.00 Ry     beta= 0.30
     Davidson diagonalization with overlap
     ethr =  1.27E-05,  avg # of iterations =  1.8

     total cpu time spent up to now is       23.6 secs

     total energy              =    -382.87436565 Ry
     estimated scf accuracy    <       0.00033493 Ry

     iteration # 12     ecut=    90.00 Ry     beta= 0.30
     Davidson diagonalization with overlap
     ethr =  1.59E-06,  avg # of iterations =  2.4

     total cpu time spent up to now is       25.3 secs

     total energy              =    -382.87440035 Ry
     estimated scf accuracy    <       0.00000437 Ry

     iteration # 13     ecut=    90.00 Ry     beta= 0.30
     Davidson diagonalization with overlap
     ethr =  2.08E-08,  avg # of iterations =  2.5

     total cpu time spent up to now is       27.3 secs

     total energy              =    -382.87440142 Ry
     estimated scf accuracy    <       0.00000353 Ry

     iteration # 14     ecut=    90.00 Ry     beta= 0.30
     Davidson diagonalization with overlap
     ethr =  1.68E-08,  avg # of iterations =  1.0

     total cpu time spent up to now is       28.9 secs

     total energy              =    -382.87440048 Ry
     estimated scf accuracy    <       0.00000342 Ry

     iteration # 15     ecut=    90.00 Ry     beta= 0.30
     Davidson diagonalization with overlap
     ethr =  1.63E-08,  avg # of iterations =  1.0

     total cpu time spent up to now is       30.5 secs

     total energy              =    -382.87440060 Ry
     estimated scf accuracy    <       0.00000021 Ry

     iteration # 16     ecut=    90.00 Ry     beta= 0.30
     Davidson diagonalization with overlap
     ethr =  9.82E-10,  avg # of iterations =  2.1

     total cpu time spent up to now is       32.4 secs

     total energy              =    -382.87440067 Ry
     estimated scf accuracy    <       0.00000028 Ry

     iteration # 17     ecut=    90.00 Ry     beta= 0.30
     Davidson diagonalization with overlap
     ethr =  9.82E-10,  avg # of iterations =  1.0

     total cpu time spent up to now is       34.0 secs

     total energy              =    -382.87440067 Ry
     estimated scf accuracy    <       0.00000006 Ry

     iteration # 18     ecut=    90.00 Ry     beta= 0.30
     Davidson diagonalization with overlap
     ethr =  3.00E-10,  avg # of iterations =  1.1

     total cpu time spent up to now is       35.6 secs

     total energy              =    -382.87440067 Ry
     estimated scf accuracy    <       0.00000002 Ry

     iteration # 19     ecut=    90.00 Ry     beta= 0.30
     Davidson diagonalization with overlap
     ethr =  9.88E-11,  avg # of iterations =  1.0

     total cpu time spent up to now is       37.2 secs

     total energy              =    -382.87440067 Ry
     estimated scf accuracy    <          2.5E-09 Ry

     iteration # 20     ecut=    90.00 Ry     beta= 0.30
     Davidson diagonalization with overlap
     ethr =  1.18E-11,  avg # of iterations =  1.9

     total cpu time spent up to now is       38.9 secs

     End of self-consistent calculation

     Number of k-points >= 100: set verbosity='high' to print the bands.

     the Fermi energy is    12.6295 ev

!    total energy              =    -382.87440067 Ry
     estimated scf accuracy    <          5.2E-12 Ry
     smearing contrib. (-TS)   =       0.00011534 Ry
     internal energy E=F+TS    =    -382.87451601 Ry

     The total energy is F=E-TS. E is the sum of the following terms:
     one-electron contribution =    -270.69165539 Ry
     hartree contribution      =     145.63578948 Ry
     xc contribution           =     -38.24033707 Ry
     ewald contribution        =    -184.90156654 Ry
     one-center paw contrib.   =     -34.67674649 Ry

     convergence has been achieved in  20 iterations

     Forces acting on atoms (cartesian axes, Ry/au):

     atom    1 type  1   force =     0.00000000    0.00000000    0.00000000
     atom    2 type  2   force =     0.00000000    0.00000000    0.00000000

     Total force =     0.000000     Total SCF correction =     0.000000


     Computing stress (Cartesian axis) and pressure

          total   stress  (Ry/bohr**3)                   (kbar)     P=      -83.07
  -0.00056470   0.00000000   0.00000000          -83.07        0.00        0.00
   0.00000000  -0.00056470   0.00000000            0.00      -83.07        0.00
   0.00000000   0.00000000  -0.00056470            0.00        0.00      -83.07


     Writing all to output data dir /home/linuxuser/ni_al_dft_work/cloud_static_inputs/diverse_pilot_01/AlNi/iso_p02/tmp/AlNi_iso_p02.save/ :
     XML data file, charge density, pseudopotentials, collected wavefunctions

     init_run     :      1.28s CPU      1.41s WALL (       1 calls)
     electrons    :     33.47s CPU     37.29s WALL (       1 calls)
     forces       :      0.18s CPU      0.23s WALL (       1 calls)
     stress       :      1.02s CPU      1.16s WALL (       1 calls)

     Called by init_run:
     wfcinit      :      0.56s CPU      0.61s WALL (       1 calls)
     potinit      :      0.23s CPU      0.25s WALL (       1 calls)
     hinit0       :      0.41s CPU      0.42s WALL (       1 calls)

     Called by electrons:
     c_bands      :     25.12s CPU     26.62s WALL (      20 calls)
     sum_band     :      5.62s CPU      6.76s WALL (      20 calls)
     v_of_rho     :      0.32s CPU      0.39s WALL (      21 calls)
     newd         :      1.03s CPU      1.92s WALL (      21 calls)
     PAW_pot      :      1.43s CPU      1.72s WALL (      21 calls)
     mix_rho      :      0.04s CPU      0.04s WALL (      20 calls)

     Called by c_bands:
     init_us_2    :      0.92s CPU      0.96s WALL (    3569 calls)
     cegterg      :     22.14s CPU     23.58s WALL (    1660 calls)

     Called by *egterg:
     cdiaghg      :      0.77s CPU      0.80s WALL (    4985 calls)
     h_psi        :     19.05s CPU     20.40s WALL (    5068 calls)
     s_psi        :      0.52s CPU      0.55s WALL (    5068 calls)
     g_psi        :      0.14s CPU      0.15s WALL (    3325 calls)

     Called by h_psi:
     h_psi:calbec :      0.66s CPU      0.71s WALL (    5068 calls)
     vloc_psi     :     17.78s CPU     19.04s WALL (    5068 calls)
     add_vuspsi   :      0.53s CPU      0.57s WALL (    5068 calls)

     General routines
     calbec       :      1.11s CPU      1.18s WALL (    8139 calls)
     fft          :      0.32s CPU      0.37s WALL (     296 calls)
     ffts         :      0.13s CPU      0.13s WALL (      41 calls)
     fftw         :     19.30s CPU     20.68s WALL (  147602 calls)
     interpolate  :      0.14s CPU      0.14s WALL (      21 calls)

     Parallel routines

     PWSCF        :     36.21s CPU     40.39s WALL


   This run was terminated on:  14:21:55   6Aug2026            

=------------------------------------------------------------------------------=
   JOB DONE.
=------------------------------------------------------------------------------=
Note: The following floating-point exceptions are signalling: IEEE_UNDERFLOW_FLAG IEEE_DENORMAL
Note: The following floating-point exceptions are signalling: IEEE_UNDERFLOW_FLAG IEEE_DENORMAL
Note: The following floating-point exceptions are signalling: IEEE_UNDERFLOW_FLAG IEEE_DENORMAL
Note: The following floating-point exceptions are signalling: IEEE_UNDERFLOW_FLAG IEEE_DENORMAL
