
     Program PWSCF v.7.6 starts on  6Aug2026 at 14:45:32 

     This program is part of the open-source Quantum ESPRESSO suite
     for quantum simulation of materials; please cite
         "P. Giannozzi et al., J. Phys.:Condens. Matter 21 395502 (2009);
         "P. Giannozzi et al., J. Phys.:Condens. Matter 29 465901 (2017);
         "P. Giannozzi et al., J. Chem. Phys. 152 154105 (2020);
          URL http://www.quantum-espresso.org", 
     in publications or presentations arising from this work. More details at
     http://www.quantum-espresso.org/quote

     Parallel version (MPI), running on     4 processors

     MPI processes distributed on     1 nodes
     1323 MiB available memory on the printing compute node when the environment starts

     Reading input from /home/linuxuser/ni_al_dft_work/cloud_static_inputs/diverse_pilot_01/Al3Ni2/rattle_003/Al3Ni2_rattle_003.in

     Current dimensions of program PWSCF are:
     Max number of different atomic species (ntypx) = 10
     Max number of k-points (npk) =  40000
     Max angular momentum in pseudopotentials (lmaxx) =  4
     file Al.pbe-n-kjpaw_psl.1.0.0.UPF: wavefunction(s)  3S 3P renormalized

     IMPORTANT: XC functional enforced from input :
     Exchange-correlation= PBE
                           (   1   4   3   4   0   0   0)
     Any further DFT definition will be discarded
     Please, verify this is what you really want


     K-points division:     npool     =       2
     R & G space division:  proc/nbgrp/npool/nimage =       2
     Subspace diagonalization in iterative solution of the eigenvalue problem:
     a serial algorithm will be used


     Parallelization info
     --------------------
     sticks:   dense  smooth     PW     G-vecs:    dense   smooth      PW
     Min        1452     726    210                76556    27016    4094
     Max        1453     727    211                76559    27017    4095
     Sum        2905    1453    421               153115    54033    8189

     Using Slab Decomposition



     bravais-lattice index     =            0
     lattice parameter (alat)  =       7.6438  a.u.
     unit-cell volume          =     469.2886 (a.u.)^3
     number of atoms/cell      =            5
     number of atomic types    =            2
     number of electrons       =        45.00
     number of Kohn-Sham states=           28
     kinetic-energy cutoff     =      90.0000  Ry
     charge density cutoff     =     720.0000  Ry
     scf convergence threshold =      1.0E-10
     mixing beta               =       0.3000
     number of iterations used =            8  plain     mixing
     Exchange-correlation= PBE
                           (   1   4   3   4   0   0   0)

     celldm(1)=   7.643796  celldm(2)=   0.000000  celldm(3)=   0.000000
     celldm(4)=   0.000000  celldm(5)=   0.000000  celldm(6)=   0.000000

     crystal axes: (cart. coord. in units of alat)
               a(1) = (   1.000000   0.000000   0.000000 )  
               a(2) = (  -0.500000   0.866025  -0.000000 )  
               a(3) = (  -0.000000  -0.000000   1.213339 )  

     reciprocal axes: (cart. coord. in units 2 pi/alat)
               b(1) = (  1.000000  0.577351  0.000000 )  
               b(2) = ( -0.000000  1.154701  0.000000 )  
               b(3) = ( -0.000000  0.000000  0.824172 )  


     PseudoPot. # 1 for Al read from file:
     /home/linuxuser/ni_al_dft_work/cloud_static_inputs/pseudo/Al.pbe-n-kjpaw_psl.1.0.0.UPF
     MD5 check sum: cfc449ca30b5f3223ec38ddd88ac046d
     Pseudo is Projector augmented-wave + core cor, Zval =  3.0
     Generated using "atomic" code by A. Dal Corso  v.5.1
     Shape of augmentation charge: PSQ
     Using radial grid of 1135 points,  6 beta functions with: 
                l(1) =   0
                l(2) =   0
                l(3) =   1
                l(4) =   1
                l(5) =   2
                l(6) =   2
     Q(r) pseudized with 0 coefficients 


     PseudoPot. # 2 for Ni read from file:
     /home/linuxuser/ni_al_dft_work/cloud_static_inputs/pseudo/ni_pbe_v1.4.uspp.F.UPF
     MD5 check sum: 1ee80287db30b12d2bc1f57a5b5d6409
     Pseudo is Ultrasoft + core correction, Zval = 18.0
     Generated by new atomic code, or converted to UPF format
     Using radial grid of  865 points,  6 beta functions with: 
                l(1) =   0
                l(2) =   0
                l(3) =   1
                l(4) =   1
                l(5) =   2
                l(6) =   2
     Q(r) pseudized with 10 coefficients,  rinner =    0.980   0.980   0.980
                                                       0.980   0.980

     atomic species   valence    mass     pseudopotential
     Al                3.00    26.98154     Al( 1.00)
     Ni               18.00    58.69340     Ni( 1.00)

     No symmetry found



   Cartesian axes

     site n.     atom                  positions (alat units)
         1        Al     tau(   1) = (   0.5002431   0.8638497   1.2080196  )
         2        Al     tau(   2) = (  -0.0059992   0.5750980   0.7884813  )
         3        Al     tau(   3) = (   0.5006377   0.2951587   0.4236646  )
         4        Ni     tau(   4) = (   0.0029047   0.5762696   0.1919806  )
         5        Ni     tau(   5) = (   0.5022129   0.2876994   1.0278708  )

     number of k points=   984  Marzari-Vanderbilt smearing, width (Ry)=  0.0100

     Number of k-points >= 100: set verbosity='high' to print them.

     Dense  grid:   153115 G-vectors     FFT dimensions: (  72,  72,  80)

     Smooth grid:    54033 G-vectors     FFT dimensions: (  48,  48,  60)

     Estimated max dynamical RAM per process >     887.24 MB

     Estimated total dynamical RAM >       3.43 GB

     Check: negative core charge=   -0.000001

     Initial potential from superposition of free atoms

     starting charge      40.9931, renormalised to      45.0000
     Starting wfcs are   38 randomized atomic wfcs
     Checking if some PAW data can be deallocated... 

     total cpu time spent up to now is       26.7 secs

     Self-consistent Calculation

     iteration #  1     ecut=    90.00 Ry     beta= 0.30
     Davidson diagonalization with overlap
     ethr =  1.00E-02,  avg # of iterations =  7.8

     total cpu time spent up to now is      119.3 secs

     total energy              =    -770.24912074 Ry
     estimated scf accuracy    <     114.45992550 Ry

     iteration #  2     ecut=    90.00 Ry     beta= 0.30
     Davidson diagonalization with overlap
     ethr =  1.00E-02,  avg # of iterations =  4.4

     total cpu time spent up to now is      199.6 secs

     total energy              =    -804.92854546 Ry
     estimated scf accuracy    <      35.45654480 Ry

     iteration #  3     ecut=    90.00 Ry     beta= 0.30
     Davidson diagonalization with overlap
     ethr =  1.00E-02,  avg # of iterations =  2.0

     total cpu time spent up to now is      260.2 secs

     total energy              =    -804.85744845 Ry
     estimated scf accuracy    <       7.92396740 Ry

     iteration #  4     ecut=    90.00 Ry     beta= 0.30
     Davidson diagonalization with overlap
     ethr =  1.00E-02,  avg # of iterations =  2.0

     total cpu time spent up to now is      311.8 secs

     total energy              =    -805.54083811 Ry
     estimated scf accuracy    <       0.85531451 Ry

     iteration #  5     ecut=    90.00 Ry     beta= 0.30
     Davidson diagonalization with overlap
     ethr =  1.90E-03,  avg # of iterations =  2.4

     total cpu time spent up to now is      363.9 secs

     total energy              =    -804.79363449 Ry
     estimated scf accuracy    <       2.32379700 Ry

     iteration #  6     ecut=    90.00 Ry     beta= 0.30
     Davidson diagonalization with overlap
     ethr =  1.90E-03,  avg # of iterations =  3.5

     total cpu time spent up to now is      423.5 secs

     total energy              =    -805.42640373 Ry
     estimated scf accuracy    <       1.43537424 Ry

     iteration #  7     ecut=    90.00 Ry     beta= 0.30
     Davidson diagonalization with overlap
     ethr =  1.90E-03,  avg # of iterations =  1.0

     total cpu time spent up to now is      469.1 secs

     total energy              =    -805.31499949 Ry
     estimated scf accuracy    <       1.17462982 Ry

     iteration #  8     ecut=    90.00 Ry     beta= 0.30
     Davidson diagonalization with overlap
     ethr =  1.90E-03,  avg # of iterations =  1.0

     total cpu time spent up to now is      514.3 secs

     total energy              =    -805.22674727 Ry
     estimated scf accuracy    <       0.38204871 Ry

     iteration #  9     ecut=    90.00 Ry     beta= 0.30
     Davidson diagonalization with overlap
     ethr =  8.49E-04,  avg # of iterations =  2.2

     total cpu time spent up to now is      567.8 secs

     total energy              =    -805.28503826 Ry
     estimated scf accuracy    <       0.02507912 Ry

     iteration # 10     ecut=    90.00 Ry     beta= 0.30
     Davidson diagonalization with overlap
     ethr =  5.57E-05,  avg # of iterations =  5.3

     total cpu time spent up to now is      623.7 secs

     total energy              =    -805.28673024 Ry
     estimated scf accuracy    <       0.00402702 Ry

     iteration # 11     ecut=    90.00 Ry     beta= 0.30
     Davidson diagonalization with overlap
     ethr =  8.95E-06,  avg # of iterations =  3.8

     total cpu time spent up to now is      676.0 secs

     total energy              =    -805.28649611 Ry
     estimated scf accuracy    <       0.00184221 Ry

     iteration # 12     ecut=    90.00 Ry     beta= 0.30
     Davidson diagonalization with overlap
     ethr =  4.09E-06,  avg # of iterations =  1.9

     total cpu time spent up to now is      724.2 secs

     total energy              =    -805.28654708 Ry
     estimated scf accuracy    <       0.00010647 Ry

     iteration # 13     ecut=    90.00 Ry     beta= 0.30
     Davidson diagonalization with overlap
     ethr =  2.37E-07,  avg # of iterations =  4.4

     total cpu time spent up to now is      798.0 secs

     total energy              =    -805.28624471 Ry
     estimated scf accuracy    <       0.00270832 Ry

     iteration # 14     ecut=    90.00 Ry     beta= 0.30
     Davidson diagonalization with overlap
     ethr =  2.37E-07,  avg # of iterations =  4.1

     total cpu time spent up to now is      870.2 secs

     total energy              =    -805.28658839 Ry
     estimated scf accuracy    <       0.00015699 Ry

     iteration # 15     ecut=    90.00 Ry     beta= 0.30
     Davidson diagonalization with overlap
     ethr =  2.37E-07,  avg # of iterations =  2.0

     total cpu time spent up to now is      922.6 secs

     total energy              =    -805.28661290 Ry
     estimated scf accuracy    <       0.00001430 Ry

     iteration # 16     ecut=    90.00 Ry     beta= 0.30
     Davidson diagonalization with overlap
     ethr =  3.18E-08,  avg # of iterations =  1.0

     total cpu time spent up to now is      967.7 secs

     total energy              =    -805.28661304 Ry
     estimated scf accuracy    <       0.00000266 Ry

     iteration # 17     ecut=    90.00 Ry     beta= 0.30
     Davidson diagonalization with overlap
     ethr =  5.91E-09,  avg # of iterations =  1.9

     total cpu time spent up to now is     1016.1 secs

     total energy              =    -805.28661331 Ry
     estimated scf accuracy    <          7.5E-09 Ry

     iteration # 18     ecut=    90.00 Ry     beta= 0.30
     Davidson diagonalization with overlap
     c_bands:  1 eigenvalues not converged
     ethr =  1.66E-11,  avg # of iterations =  5.1

     total cpu time spent up to now is     1094.6 secs

     total energy              =    -805.28661332 Ry
     estimated scf accuracy    <       0.00000003 Ry

     iteration # 19     ecut=    90.00 Ry     beta= 0.30
     Davidson diagonalization with overlap
     ethr =  1.66E-11,  avg # of iterations =  2.1

     total cpu time spent up to now is     1148.5 secs

     total energy              =    -805.28661332 Ry
     estimated scf accuracy    <          6.7E-10 Ry

     iteration # 20     ecut=    90.00 Ry     beta= 0.30
     Davidson diagonalization with overlap
     ethr =  1.49E-12,  avg # of iterations =  2.7

     total cpu time spent up to now is     1203.4 secs

     total energy              =    -805.28661332 Ry
     estimated scf accuracy    <          2.4E-09 Ry

     iteration # 21     ecut=    90.00 Ry     beta= 0.30
     Davidson diagonalization with overlap
     ethr =  1.49E-12,  avg # of iterations =  2.3

     total cpu time spent up to now is     1257.9 secs

     total energy              =    -805.28661332 Ry
     estimated scf accuracy    <          1.5E-10 Ry

     iteration # 22     ecut=    90.00 Ry     beta= 0.30
     Davidson diagonalization with overlap
     ethr =  3.42E-13,  avg # of iterations =  1.7

     total cpu time spent up to now is     1304.8 secs

     total energy              =    -805.28661332 Ry
     estimated scf accuracy    <          1.8E-10 Ry

     iteration # 23     ecut=    90.00 Ry     beta= 0.30
     Davidson diagonalization with overlap
     ethr =  3.42E-13,  avg # of iterations =  1.0

     total cpu time spent up to now is     1349.1 secs

     End of self-consistent calculation

     Number of k-points >= 100: set verbosity='high' to print the bands.

     the Fermi energy is    10.8276 ev

!    total energy              =    -805.28661332 Ry
     estimated scf accuracy    <          1.1E-11 Ry
     smearing contrib. (-TS)   =      -0.00019322 Ry
     internal energy E=F+TS    =    -805.28642010 Ry

     The total energy is F=E-TS. E is the sum of the following terms:
     one-electron contribution =    -622.08935754 Ry
     hartree contribution      =     330.65169565 Ry
     xc contribution           =     -79.10708868 Ry
     ewald contribution        =    -330.68543546 Ry
     one-center paw contrib.   =    -104.05623408 Ry

     convergence has been achieved in  23 iterations

     Forces acting on atoms (cartesian axes, Ry/au):

     atom    1 type  1   force =     0.00148439    0.00314685    0.00364514
     atom    2 type  1   force =     0.00709417    0.00319875    0.00254389
     atom    3 type  1   force =    -0.00115451   -0.00757071    0.00440811
     atom    4 type  2   force =    -0.00303268    0.00227312   -0.02396115
     atom    5 type  2   force =    -0.00439137   -0.00104801    0.01336401

     Total force =     0.030951     Total SCF correction =     0.000002


     Computing stress (Cartesian axis) and pressure

          total   stress  (Ry/bohr**3)                   (kbar)     P=        0.86
   0.00001218   0.00001486  -0.00000479            1.79        2.19       -0.70
   0.00001486  -0.00003175  -0.00000724            2.19       -4.67       -1.07
  -0.00000479  -0.00000724   0.00003701           -0.70       -1.07        5.44


     Writing all to output data dir /home/linuxuser/ni_al_dft_work/cloud_static_inputs/diverse_pilot_01/Al3Ni2/rattle_003/tmp/Al3Ni2_rattle_003.save/ :
     XML data file, charge density, pseudopotentials, collected wavefunctions

     init_run     :     25.28s CPU     26.53s WALL (       1 calls)
     electrons    :   1274.54s CPU   1322.43s WALL (       1 calls)
     forces       :      4.63s CPU      4.81s WALL (       1 calls)
     stress       :     19.49s CPU     19.98s WALL (       1 calls)

     Called by init_run:
     wfcinit      :     23.90s CPU     24.97s WALL (       1 calls)
     potinit      :      0.52s CPU      0.57s WALL (       1 calls)
     hinit0       :      0.54s CPU      0.56s WALL (       1 calls)

     Called by electrons:
     c_bands      :   1092.26s CPU   1127.85s WALL (      23 calls)
     sum_band     :    172.07s CPU    180.84s WALL (      23 calls)
     v_of_rho     :      1.30s CPU      1.67s WALL (      24 calls)
     newd         :      3.34s CPU      5.86s WALL (      24 calls)
     PAW_pot      :      5.76s CPU      6.55s WALL (      24 calls)
     mix_rho      :      0.13s CPU      0.13s WALL (      23 calls)

     Called by c_bands:
     init_us_2    :     24.46s CPU     24.69s WALL (   24108 calls)
     cegterg      :    976.31s CPU   1011.53s WALL (   11316 calls)

     Called by *egterg:
     cdiaghg      :     25.02s CPU     25.20s WALL (   44170 calls)
     h_psi        :    790.60s CPU    825.28s WALL (   44662 calls)
     s_psi        :     45.11s CPU     45.38s WALL (   44662 calls)
     g_psi        :      5.48s CPU      5.52s WALL (   32854 calls)

     Called by h_psi:
     h_psi:calbec :     57.44s CPU     59.07s WALL (   44662 calls)
     vloc_psi     :    683.32s CPU    716.09s WALL (   44662 calls)
     add_vuspsi   :     46.96s CPU     47.23s WALL (   44662 calls)

     General routines
     calbec       :     90.04s CPU     92.31s WALL (   64342 calls)
     fft          :      0.89s CPU      1.03s WALL (     335 calls)
     ffts         :      0.21s CPU      0.21s WALL (      47 calls)
     fftw         :    738.10s CPU    772.69s WALL ( 1971038 calls)
     interpolate  :      0.24s CPU      0.25s WALL (      24 calls)

     Parallel routines

     PWSCF        :  22m 4.68s CPU  22m55.79s WALL


   This run was terminated on:  15: 8:28   6Aug2026            

=------------------------------------------------------------------------------=
   JOB DONE.
=------------------------------------------------------------------------------=
Note: The following floating-point exceptions are signalling: IEEE_UNDERFLOW_FLAG IEEE_DENORMAL
Note: The following floating-point exceptions are signalling: IEEE_UNDERFLOW_FLAG IEEE_DENORMAL
Note: The following floating-point exceptions are signalling: IEEE_UNDERFLOW_FLAG IEEE_DENORMAL
Note: The following floating-point exceptions are signalling: IEEE_UNDERFLOW_FLAG IEEE_DENORMAL
