
     Program PWSCF v.7.6 starts on  6Aug2026 at 20:28:19 

     This program is part of the open-source Quantum ESPRESSO suite
     for quantum simulation of materials; please cite
         "P. Giannozzi et al., J. Phys.:Condens. Matter 21 395502 (2009);
         "P. Giannozzi et al., J. Phys.:Condens. Matter 29 465901 (2017);
         "P. Giannozzi et al., J. Chem. Phys. 152 154105 (2020);
          URL http://www.quantum-espresso.org", 
     in publications or presentations arising from this work. More details at
     http://www.quantum-espresso.org/quote

     Parallel version (MPI), running on     4 processors

     MPI processes distributed on     1 nodes
     3825 MiB available memory on the printing compute node when the environment starts

     Reading input from /home/linuxuser/ni_al_dft_work/cloud_static_inputs/diverse_pilot_01/Al3Ni/iso_p02/Al3Ni_iso_p02.in

     Current dimensions of program PWSCF are:
     Max number of different atomic species (ntypx) = 10
     Max number of k-points (npk) =  40000
     Max angular momentum in pseudopotentials (lmaxx) =  4
     file Al.pbe-n-kjpaw_psl.1.0.0.UPF: wavefunction(s)  3S 3P renormalized

     IMPORTANT: XC functional enforced from input :
     Exchange-correlation= PBE
                           (   1   4   3   4   0   0   0)
     Any further DFT definition will be discarded
     Please, verify this is what you really want

     Message from routine setup:
     using ibrav=0 with symmetry is DISCOURAGED, use correct ibrav instead

     K-points division:     npool     =       2
     R & G space division:  proc/nbgrp/npool/nimage =       2
     Subspace diagonalization in iterative solution of the eigenvalue problem:
     a serial algorithm will be used


     Parallelization info
     --------------------
     sticks:   dense  smooth     PW     G-vecs:    dense   smooth      PW
     Min        3403    1702    468               275591    97466   14098
     Max        3404    1703    469               275592    97467   14099
     Sum        6807    3405    937               551183   194933   28197

     Using Slab Decomposition



     bravais-lattice index     =            0
     lattice parameter (alat)  =       9.3013  a.u.
     unit-cell volume          =    1689.6617 (a.u.)^3
     number of atoms/cell      =           16
     number of atomic types    =            2
     number of electrons       =       108.00
     number of Kohn-Sham states=           65
     kinetic-energy cutoff     =      90.0000  Ry
     charge density cutoff     =     720.0000  Ry
     scf convergence threshold =      1.0E-10
     mixing beta               =       0.3000
     number of iterations used =            8  plain     mixing
     Exchange-correlation= PBE
                           (   1   4   3   4   0   0   0)

     celldm(1)=   9.301260  celldm(2)=   0.000000  celldm(3)=   0.000000
     celldm(4)=   0.000000  celldm(5)=   0.000000  celldm(6)=   0.000000

     crystal axes: (cart. coord. in units of alat)
               a(1) = (   1.000000   0.000000   0.000000 )  
               a(2) = (   0.000000   1.372506   0.000000 )  
               a(3) = (   0.000000   0.000000   1.529890 )  

     reciprocal axes: (cart. coord. in units 2 pi/alat)
               b(1) = (  1.000000 -0.000000  0.000000 )  
               b(2) = ( -0.000000  0.728594  0.000000 )  
               b(3) = (  0.000000  0.000000  0.653642 )  


     PseudoPot. # 1 for Al read from file:
     /home/linuxuser/ni_al_dft_work/cloud_static_inputs/pseudo/Al.pbe-n-kjpaw_psl.1.0.0.UPF
     MD5 check sum: cfc449ca30b5f3223ec38ddd88ac046d
     Pseudo is Projector augmented-wave + core cor, Zval =  3.0
     Generated using "atomic" code by A. Dal Corso  v.5.1
     Shape of augmentation charge: PSQ
     Using radial grid of 1135 points,  6 beta functions with: 
                l(1) =   0
                l(2) =   0
                l(3) =   1
                l(4) =   1
                l(5) =   2
                l(6) =   2
     Q(r) pseudized with 0 coefficients 


     PseudoPot. # 2 for Ni read from file:
     /home/linuxuser/ni_al_dft_work/cloud_static_inputs/pseudo/ni_pbe_v1.4.uspp.F.UPF
     MD5 check sum: 1ee80287db30b12d2bc1f57a5b5d6409
     Pseudo is Ultrasoft + core correction, Zval = 18.0
     Generated by new atomic code, or converted to UPF format
     Using radial grid of  865 points,  6 beta functions with: 
                l(1) =   0
                l(2) =   0
                l(3) =   1
                l(4) =   1
                l(5) =   2
                l(6) =   2
     Q(r) pseudized with 10 coefficients,  rinner =    0.980   0.980   0.980
                                                       0.980   0.980

     atomic species   valence    mass     pseudopotential
     Al                3.00    26.98154     Al( 1.00)
     Ni               18.00    58.69340     Ni( 1.00)

      8 Sym. Ops., with inversion, found ( 6 have fractional translation)



   Cartesian axes

     site n.     atom                  positions (alat units)
         1        Al     tau(   1) = (   0.9160251   0.0103038   0.3824726  )
         2        Al     tau(   2) = (   0.3640993   0.2351390   0.6804147  )
         3        Al     tau(   3) = (   0.3640993   0.2351390   0.0845305  )
         4        Al     tau(   4) = (   0.8640996   0.4511141   0.8494754  )
         5        Al     tau(   5) = (   0.1359007   0.9213916   0.6804150  )
         6        Al     tau(   6) = (   0.6359010   1.1373667   1.4453599  )
         7        Al     tau(   7) = (   0.1359007   0.9213916   0.0845302  )
         8        Al     tau(   8) = (   0.6359010   1.1373667   0.8494756  )
         9        Al     tau(   9) = (   0.8640996   0.4511141   1.4453601  )
        10        Al     tau(  10) = (   0.5839750   0.6965563   0.3824726  )
        11        Al     tau(  11) = (   0.0839752   1.3622019   1.1474178  )
        12        Al     tau(  12) = (   0.4160253   0.6759494   1.1474178  )
        13        Ni     tau(  13) = (   0.4430712   1.1945697   0.3824726  )
        14        Ni     tau(  14) = (   0.0569290   0.5083167   0.3824726  )
        15        Ni     tau(  15) = (   0.5569291   0.1779360   1.1474178  )
        16        Ni     tau(  16) = (   0.9430713   0.8641890   1.1474178  )

     number of k points=   150  Marzari-Vanderbilt smearing, width (Ry)=  0.0100

     Number of k-points >= 100: set verbosity='high' to print them.

     Dense  grid:   551183 G-vectors     FFT dimensions: (  80, 120, 128)

     Smooth grid:   194933 G-vectors     FFT dimensions: (  60,  80,  90)

     Estimated max dynamical RAM per process >       1.57 GB

     Estimated total dynamical RAM >       6.14 GB

     Initial potential from superposition of free atoms

     starting charge      99.9725, renormalised to     108.0000
     Starting wfcs are  100 randomized atomic wfcs
     Checking if some PAW data can be deallocated... 

     total cpu time spent up to now is       42.8 secs

     Self-consistent Calculation

     iteration #  1     ecut=    90.00 Ry     beta= 0.30
     Davidson diagonalization with overlap
     ethr =  1.00E-02,  avg # of iterations =  6.8

     total cpu time spent up to now is      165.9 secs

     total energy              =   -1771.01225842 Ry
     estimated scf accuracy    <     223.84554020 Ry

     iteration #  2     ecut=    90.00 Ry     beta= 0.30
     Davidson diagonalization with overlap
     ethr =  1.00E-02,  avg # of iterations =  5.0

     total cpu time spent up to now is      290.5 secs

     total energy              =   -1848.74654263 Ry
     estimated scf accuracy    <      97.73084149 Ry

     iteration #  3     ecut=    90.00 Ry     beta= 0.30
     Davidson diagonalization with overlap
     ethr =  1.00E-02,  avg # of iterations =  2.0

     total cpu time spent up to now is      384.7 secs

     total energy              =   -1845.40682190 Ry
     estimated scf accuracy    <      26.33663499 Ry

     iteration #  4     ecut=    90.00 Ry     beta= 0.30
     Davidson diagonalization with overlap
     ethr =  1.00E-02,  avg # of iterations =  2.0

     total cpu time spent up to now is      469.1 secs

     total energy              =   -1848.65397652 Ry
     estimated scf accuracy    <       1.90096085 Ry

     iteration #  5     ecut=    90.00 Ry     beta= 0.30
     Davidson diagonalization with overlap
     ethr =  1.76E-03,  avg # of iterations =  3.9

     total cpu time spent up to now is      570.1 secs

     total energy              =   -1847.35577584 Ry
     estimated scf accuracy    <       6.01822895 Ry

     iteration #  6     ecut=    90.00 Ry     beta= 0.30
     Davidson diagonalization with overlap
