16
Lattice="4.92201475116 4.4472e-07 0.0 1.5167399999999999e-06 6.75549282054 0.0 0.0 0.0 7.530142860000001" Properties=species:S:1:pos:R:3 pbc="T T T"
Al       4.50868926       0.05071527       1.88253572
Al       1.79210225       1.15735760       3.34901125
Al       1.79210225       1.15735760       0.41606017
Al       4.25311087       2.22039041       4.18113032
Al       0.66890539       4.53510287       3.34901254
Al       3.12991402       5.59813567       7.11408269
Al       0.66890539       4.53510287       0.41605889
Al       3.12991402       5.59813567       4.18113161
Al       4.25311087       2.22039041       7.11408397
Al       2.87433338       3.42846058       1.88253572
Al       0.41332701       6.70477800       5.64760715
Al       2.04768290       3.32703270       5.64760715
Ni       2.18080298       5.87968945       1.88253572
Ni       0.28020535       2.50194234       1.88253572
Ni       2.74121329       0.87580381       5.64760715
Ni       4.64181091       4.25355092       5.64760715
