
     Program PWSCF v.7.6 starts on  7Aug2026 at 13:31:56 
        Git branch: HEAD
        Last git commit: 9f93ddec427d2b9a45bb72d828c6d324f62fcabd
        Last git commit date: Thu Jul 9 09:42:23 2026 +0200
        Last git commit subject: setting version number to 7.6

     This program is part of the open-source Quantum ESPRESSO suite
     for quantum simulation of materials; please cite
         "P. Giannozzi et al., J. Phys.:Condens. Matter 21 395502 (2009);
         "P. Giannozzi et al., J. Phys.:Condens. Matter 29 465901 (2017);
         "P. Giannozzi et al., J. Chem. Phys. 152 154105 (2020);
          URL http://www.quantum-espresso.org", 
     in publications or presentations arising from this work. More details at
     http://www.quantum-espresso.org/quote

     Parallel version (MPI), running on     4 processors

     MPI processes distributed on     1 nodes
     7047 MiB available memory on the printing compute node when the environment starts

     Reading input from /home/abdulrahim/ni_al_dft_work/cloud_static_inputs/diverse_pilot_01/Al3Ni/iso_p02/Al3Ni_iso_p02_local.in

     Current dimensions of program PWSCF are:
     Max number of different atomic species (ntypx) = 10
     Max number of k-points (npk) =  40000
     Max angular momentum in pseudopotentials (lmaxx) =  4
     file Al.pbe-n-kjpaw_psl.1.0.0.UPF: wavefunction(s)  3S 3P renormalized

     IMPORTANT: XC functional enforced from input :
     Exchange-correlation= PBE
                           (   1   4   3   4   0   0   0)
     Any further DFT definition will be discarded
     Please, verify this is what you really want

     Message from routine setup:
     using ibrav=0 with symmetry is DISCOURAGED, use correct ibrav instead

     K-points division:     npool     =       2
     R & G space division:  proc/nbgrp/npool/nimage =       2
     Subspace diagonalization in iterative solution of the eigenvalue problem:
     a serial algorithm will be used


     Parallelization info
     --------------------
     sticks:   dense  smooth     PW     G-vecs:    dense   smooth      PW
     Min        3403    1702    468               275591    97466   14098
     Max        3404    1703    469               275592    97467   14099
     Sum        6807    3405    937               551183   194933   28197

     Using Slab Decomposition



     bravais-lattice index     =            0
     lattice parameter (alat)  =       9.3013  a.u.
     unit-cell volume          =    1689.6617 (a.u.)^3
     number of atoms/cell      =           16
     number of atomic types    =            2
     number of electrons       =       108.00
     number of Kohn-Sham states=           65
     kinetic-energy cutoff     =      90.0000  Ry
     charge density cutoff     =     720.0000  Ry
     scf convergence threshold =      1.0E-10
     mixing beta               =       0.3000
     number of iterations used =            8  plain     mixing
     Exchange-correlation= PBE
                           (   1   4   3   4   0   0   0)

     celldm(1)=   9.301260  celldm(2)=   0.000000  celldm(3)=   0.000000
     celldm(4)=   0.000000  celldm(5)=   0.000000  celldm(6)=   0.000000

     crystal axes: (cart. coord. in units of alat)
               a(1) = (   1.000000   0.000000   0.000000 )  
               a(2) = (   0.000000   1.372506   0.000000 )  
               a(3) = (   0.000000   0.000000   1.529890 )  

     reciprocal axes: (cart. coord. in units 2 pi/alat)
               b(1) = (  1.000000 -0.000000  0.000000 )  
               b(2) = ( -0.000000  0.728594  0.000000 )  
               b(3) = (  0.000000  0.000000  0.653642 )  


     PseudoPot. # 1 for Al read from file:
     /home/abdulrahim/ni_al_dft_work/cloud_static_inputs/pseudo/Al.pbe-n-kjpaw_psl.1.0.0.UPF
     MD5 check sum: cfc449ca30b5f3223ec38ddd88ac046d
     Pseudo is Projector augmented-wave + core cor, Zval =  3.0
     Generated using "atomic" code by A. Dal Corso  v.5.1
     Shape of augmentation charge: PSQ
     Using radial grid of 1135 points,  6 beta functions with: 
                l(1) =   0
                l(2) =   0
                l(3) =   1
                l(4) =   1
                l(5) =   2
                l(6) =   2
     Q(r) pseudized with 0 coefficients 


     PseudoPot. # 2 for Ni read from file:
     /home/abdulrahim/ni_al_dft_work/cloud_static_inputs/pseudo/ni_pbe_v1.4.uspp.F.UPF
     MD5 check sum: 1ee80287db30b12d2bc1f57a5b5d6409
     Pseudo is Ultrasoft + core correction, Zval = 18.0
     Generated by new atomic code, or converted to UPF format
     Using radial grid of  865 points,  6 beta functions with: 
                l(1) =   0
                l(2) =   0
                l(3) =   1
                l(4) =   1
                l(5) =   2
                l(6) =   2
     Q(r) pseudized with 10 coefficients,  rinner =    0.980   0.980   0.980
                                                       0.980   0.980

     atomic species   valence    mass     pseudopotential
     Al                3.00    26.98154     Al( 1.00)
     Ni               18.00    58.69340     Ni( 1.00)

      8 Sym. Ops., with inversion, found ( 6 have fractional translation)



   Cartesian axes

     site n.     atom                  positions (alat units)
         1        Al     tau(   1) = (   0.9160251   0.0103038   0.3824726  )
         2        Al     tau(   2) = (   0.3640993   0.2351390   0.6804147  )
         3        Al     tau(   3) = (   0.3640993   0.2351390   0.0845305  )
         4        Al     tau(   4) = (   0.8640996   0.4511141   0.8494754  )
         5        Al     tau(   5) = (   0.1359007   0.9213916   0.6804150  )
         6        Al     tau(   6) = (   0.6359010   1.1373667   1.4453599  )
         7        Al     tau(   7) = (   0.1359007   0.9213916   0.0845302  )
         8        Al     tau(   8) = (   0.6359010   1.1373667   0.8494756  )
         9        Al     tau(   9) = (   0.8640996   0.4511141   1.4453601  )
        10        Al     tau(  10) = (   0.5839750   0.6965563   0.3824726  )
        11        Al     tau(  11) = (   0.0839752   1.3622019   1.1474178  )
        12        Al     tau(  12) = (   0.4160253   0.6759494   1.1474178  )
        13        Ni     tau(  13) = (   0.4430712   1.1945697   0.3824726  )
        14        Ni     tau(  14) = (   0.0569290   0.5083167   0.3824726  )
        15        Ni     tau(  15) = (   0.5569291   0.1779360   1.1474178  )
        16        Ni     tau(  16) = (   0.9430713   0.8641890   1.1474178  )

     number of k points=   150  Marzari-Vanderbilt smearing, width (Ry)=  0.0100

     Number of k-points >= 100: set verbosity='high' to print them.

     Dense  grid:   551183 G-vectors     FFT dimensions: (  80, 120, 128)

     Smooth grid:   194933 G-vectors     FFT dimensions: (  60,  80,  90)

     Estimated max dynamical RAM per process >       1.57 GB

     Estimated total dynamical RAM >       6.14 GB

     Initial potential from superposition of free atoms

     starting charge      99.9725, renormalised to     108.0000
     Starting wfcs are  100 randomized atomic wfcs
     Checking if some PAW data can be deallocated... 

     total cpu time spent up to now is      114.0 secs

     per-process dynamical memory:  1162.1 Mb

     Self-consistent Calculation

     iteration #  1     ecut=    90.00 Ry     beta= 0.30
     Davidson diagonalization with overlap
     ethr =  1.00E-02,  avg # of iterations =  6.8

     total cpu time spent up to now is      335.3 secs

     total energy              =   -1771.01225842 Ry
     estimated scf accuracy    <     223.84554020 Ry

     iteration #  2     ecut=    90.00 Ry     beta= 0.30
     Davidson diagonalization with overlap
     ethr =  1.00E-02,  avg # of iterations =  5.0

     total cpu time spent up to now is      493.8 secs

     total energy              =   -1848.74654263 Ry
     estimated scf accuracy    <      97.73084149 Ry

     iteration #  3     ecut=    90.00 Ry     beta= 0.30
     Davidson diagonalization with overlap
     ethr =  1.00E-02,  avg # of iterations =  2.0

     total cpu time spent up to now is      649.2 secs

     total energy              =   -1845.40682190 Ry
     estimated scf accuracy    <      26.33663499 Ry

     iteration #  4     ecut=    90.00 Ry     beta= 0.30
     Davidson diagonalization with overlap
     ethr =  1.00E-02,  avg # of iterations =  2.0

     total cpu time spent up to now is      786.1 secs

     total energy              =   -1848.65397652 Ry
     estimated scf accuracy    <       1.90096085 Ry

     iteration #  5     ecut=    90.00 Ry     beta= 0.30
     Davidson diagonalization with overlap
     ethr =  1.76E-03,  avg # of iterations =  3.9

     total cpu time spent up to now is      936.2 secs

     total energy              =   -1847.35577584 Ry
     estimated scf accuracy    <       6.01822895 Ry

     iteration #  6     ecut=    90.00 Ry     beta= 0.30
     Davidson diagonalization with overlap
     ethr =  1.76E-03,  avg # of iterations =  2.5

     total cpu time spent up to now is     1071.9 secs

     total energy              =   -1847.64182454 Ry
     estimated scf accuracy    <       6.06860968 Ry

     iteration #  7     ecut=    90.00 Ry     beta= 0.30
     Davidson diagonalization with overlap
     ethr =  1.76E-03,  avg # of iterations =  1.0

     total cpu time spent up to now is     1177.9 secs

     total energy              =   -1847.50876914 Ry
     estimated scf accuracy    <       2.05823465 Ry

     iteration #  8     ecut=    90.00 Ry     beta= 0.30
     Davidson diagonalization with overlap
     ethr =  1.76E-03,  avg # of iterations =  1.2

     total cpu time spent up to now is     1281.4 secs

     total energy              =   -1847.56371680 Ry
     estimated scf accuracy    <       0.12036816 Ry

     iteration #  9     ecut=    90.00 Ry     beta= 0.30
     Davidson diagonalization with overlap
     ethr =  1.11E-04,  avg # of iterations =  6.3

     total cpu time spent up to now is     1441.9 secs

     total energy              =   -1847.55010968 Ry
     estimated scf accuracy    <       1.38560700 Ry

     iteration # 10     ecut=    90.00 Ry     beta= 0.30
     Davidson diagonalization with overlap
     ethr =  1.11E-04,  avg # of iterations =  3.3

     total cpu time spent up to now is     1572.1 secs

     total energy              =   -1847.59602823 Ry
     estimated scf accuracy    <       0.18377861 Ry

     iteration # 11     ecut=    90.00 Ry     beta= 0.30
     Davidson diagonalization with overlap
     ethr =  1.11E-04,  avg # of iterations =  1.6

     total cpu time spent up to now is     1675.2 secs

     total energy              =   -1847.59793331 Ry
     estimated scf accuracy    <       0.04007977 Ry

     iteration # 12     ecut=    90.00 Ry     beta= 0.30
     Davidson diagonalization with overlap
     ethr =  3.71E-05,  avg # of iterations =  3.3

     total cpu time spent up to now is     1788.5 secs

     total energy              =   -1847.59939034 Ry
     estimated scf accuracy    <       0.01108157 Ry

     iteration # 13     ecut=    90.00 Ry     beta= 0.30
     Davidson diagonalization with overlap
     ethr =  1.03E-05,  avg # of iterations =  8.2

     total cpu time spent up to now is     1925.4 secs

     total energy              =   -1847.60100155 Ry
     estimated scf accuracy    <       0.00025756 Ry

     iteration # 14     ecut=    90.00 Ry     beta= 0.30
     Davidson diagonalization with overlap
     c_bands:  1 eigenvalues not converged
     ethr =  2.38E-07,  avg # of iterations =  6.1

     total cpu time spent up to now is     2084.8 secs

     total energy              =   -1847.60098619 Ry
     estimated scf accuracy    <       0.00094728 Ry

     iteration # 15     ecut=    90.00 Ry     beta= 0.30
     Davidson diagonalization with overlap
     ethr =  2.38E-07,  avg # of iterations =  3.1

     total cpu time spent up to now is     2207.3 secs

     total energy              =   -1847.60114049 Ry
     estimated scf accuracy    <       0.00012199 Ry

     iteration # 16     ecut=    90.00 Ry     beta= 0.30
     Davidson diagonalization with overlap
     ethr =  1.13E-07,  avg # of iterations =  1.1

     total cpu time spent up to now is     2309.8 secs

     total energy              =   -1847.60110392 Ry
     estimated scf accuracy    <       0.00020850 Ry

     iteration # 17     ecut=    90.00 Ry     beta= 0.30
     Davidson diagonalization with overlap
     ethr =  1.13E-07,  avg # of iterations =  1.2

     total cpu time spent up to now is     2409.3 secs

     total energy              =   -1847.60112136 Ry
     estimated scf accuracy    <       0.00000078 Ry

     iteration # 18     ecut=    90.00 Ry     beta= 0.30
     Davidson diagonalization with overlap
     ethr =  7.22E-10,  avg # of iterations =  4.6

     total cpu time spent up to now is     2574.9 secs

     total energy              =   -1847.60112234 Ry
     estimated scf accuracy    <       0.00000010 Ry

     iteration # 19     ecut=    90.00 Ry     beta= 0.30
     Davidson diagonalization with overlap
     ethr =  9.43E-11,  avg # of iterations =  3.2

     total cpu time spent up to now is     2705.2 secs

     total energy              =   -1847.60112214 Ry
     estimated scf accuracy    <       0.00000133 Ry

     iteration # 20     ecut=    90.00 Ry     beta= 0.30
     Davidson diagonalization with overlap
     ethr =  9.43E-11,  avg # of iterations =  4.2

     total cpu time spent up to now is     2858.4 secs

     total energy              =   -1847.60112233 Ry
     estimated scf accuracy    <       0.00000025 Ry

     iteration # 21     ecut=    90.00 Ry     beta= 0.30
     Davidson diagonalization with overlap
     ethr =  9.43E-11,  avg # of iterations =  1.0

     total cpu time spent up to now is     2956.5 secs

     total energy              =   -1847.60112232 Ry
     estimated scf accuracy    <       0.00000005 Ry

     iteration # 22     ecut=    90.00 Ry     beta= 0.30
     Davidson diagonalization with overlap
     ethr =  4.87E-11,  avg # of iterations =  2.0

     total cpu time spent up to now is     3070.4 secs

     total energy              =   -1847.60112233 Ry
     estimated scf accuracy    <          1.0E-09 Ry

     iteration # 23     ecut=    90.00 Ry     beta= 0.30
     Davidson diagonalization with overlap
     ethr =  9.63E-13,  avg # of iterations =  2.9

     total cpu time spent up to now is     3194.2 secs

     total energy              =   -1847.60112233 Ry
     estimated scf accuracy    <          2.7E-10 Ry

     iteration # 24     ecut=    90.00 Ry     beta= 0.30
     Davidson diagonalization with overlap
     ethr =  2.51E-13,  avg # of iterations =  2.0

     total cpu time spent up to now is     3302.8 secs

     End of self-consistent calculation

     Number of k-points >= 100: set verbosity='high' to print the bands.

     the Fermi energy is     9.1301 ev

!    total energy              =   -1847.60112233 Ry
     estimated scf accuracy    <          5.8E-12 Ry
     smearing contrib. (-TS)   =       0.00029002 Ry
     internal energy E=F+TS    =   -1847.60141235 Ry

     The total energy is F=E-TS. E is the sum of the following terms:
     one-electron contribution =   -1333.20346754 Ry
     hartree contribution      =     709.76203835 Ry
     xc contribution           =    -173.22657683 Ry
     ewald contribution        =    -634.82413009 Ry
     one-center paw contrib.   =    -416.10927624 Ry

     convergence has been achieved in  24 iterations

     Forces acting on atoms (cartesian axes, Ry/au):

     atom    1 type  1   force =     0.00034345   -0.00073234    0.00000000
     atom    2 type  1   force =    -0.00066820   -0.00089898   -0.00026582
     atom    3 type  1   force =    -0.00066820   -0.00089898    0.00026582
     atom    4 type  1   force =    -0.00066820    0.00089898    0.00026582
     atom    5 type  1   force =     0.00066820   -0.00089898   -0.00026582
     atom    6 type  1   force =     0.00066820    0.00089898   -0.00026582
     atom    7 type  1   force =     0.00066820   -0.00089898    0.00026582
     atom    8 type  1   force =     0.00066820    0.00089898    0.00026582
     atom    9 type  1   force =    -0.00066820    0.00089898   -0.00026582
     atom   10 type  1   force =    -0.00034345   -0.00073233    0.00000000
     atom   11 type  1   force =    -0.00034345    0.00073234    0.00000000
     atom   12 type  1   force =     0.00034345    0.00073233    0.00000000
     atom   13 type  2   force =    -0.00026851   -0.00072959   -0.00000000
     atom   14 type  2   force =     0.00026851   -0.00072959    0.00000000
     atom   15 type  2   force =     0.00026851    0.00072959   -0.00000000
     atom   16 type  2   force =    -0.00026851    0.00072959    0.00000000

     Total force =     0.003954     Total SCF correction =     0.000000


     Computing stress (Cartesian axis) and pressure

          total   stress  (Ry/bohr**3)                   (kbar)     P=      -59.72
  -0.00039219   0.00000000   0.00000000          -57.69        0.00        0.00
   0.00000000  -0.00040724   0.00000000            0.00      -59.91        0.00
   0.00000000   0.00000000  -0.00041847            0.00        0.00      -61.56


     Writing all to output data dir /home/abdulrahim/ni_al_dft_work/cloud_static_inputs/diverse_pilot_01/Al3Ni/iso_p02/tmp/Al3Ni_iso_p02.save/ :
     XML data file, charge density, pseudopotentials, collected wavefunctions

     init_run     :    109.87s CPU    113.79s WALL (       1 calls)
     electrons    :   3079.08s CPU   3188.81s WALL (       1 calls)
     forces       :     22.19s CPU     23.00s WALL (       1 calls)
     stress       :     75.36s CPU     78.20s WALL (       1 calls)

     Called by init_run:
     wfcinit      :    106.12s CPU    108.83s WALL (       1 calls)
     potinit      :      1.57s CPU      1.77s WALL (       1 calls)
     hinit0       :      0.92s CPU      1.04s WALL (       1 calls)

     Called by electrons:
     c_bands      :   2649.96s CPU   2731.22s WALL (      24 calls)
     sum_band     :    392.75s CPU    412.01s WALL (      24 calls)
     v_of_rho     :      6.62s CPU      7.41s WALL (      25 calls)
     newd         :     15.49s CPU     24.83s WALL (      25 calls)
     PAW_pot      :     14.33s CPU     14.34s WALL (      25 calls)
     mix_rho      :      1.02s CPU      1.06s WALL (      24 calls)

     Called by c_bands:
     init_us_2    :     71.68s CPU     71.82s WALL (    3825 calls)
     cegterg      :   2444.82s CPU   2524.71s WALL (    1800 calls)

     Called by *egterg:
     cdiaghg      :     29.17s CPU     29.31s WALL (    7677 calls)
     h_psi        :   1777.22s CPU   1836.31s WALL (    7752 calls)
     s_psi        :    244.24s CPU    246.22s WALL (    7752 calls)
     g_psi        :     11.87s CPU     11.91s WALL (    5877 calls)

     Called by h_psi:
     h_psi:calbec :    259.64s CPU    260.48s WALL (    7752 calls)
     vloc_psi     :   1261.92s CPU   1305.13s WALL (    7752 calls)
     add_vuspsi   :    245.59s CPU    245.71s WALL (    7752 calls)

     General routines
     calbec       :    411.76s CPU    412.86s WALL (   10827 calls)
     fft          :      4.51s CPU      5.01s WALL (     348 calls)
     ffts         :      0.48s CPU      0.48s WALL (      49 calls)
     fftw         :   1254.59s CPU   1295.53s WALL (  744314 calls)
     interpolate  :      0.78s CPU      0.79s WALL (      25 calls)

     Parallel routines

     PWSCF        :  54m47.35s CPU  56m46.63s WALL


   This run was terminated on:  14:28:43   7Aug2026            

=------------------------------------------------------------------------------=
   JOB DONE.
=------------------------------------------------------------------------------=
Note: The following floating-point exceptions are signalling: IEEE_UNDERFLOW_FLAG IEEE_DENORMAL
Note: The following floating-point exceptions are signalling: IEEE_UNDERFLOW_FLAG IEEE_DENORMAL
Note: The following floating-point exceptions are signalling: IEEE_UNDERFLOW_FLAG IEEE_DENORMAL
Note: The following floating-point exceptions are signalling: IEEE_UNDERFLOW_FLAG IEEE_DENORMAL
