128
Lattice="9.631005822256325 0.0 0.0 -8.454133628989803e-11 13.19986821329241 0.0 -1.4481125451940118e-10 -6.09669272035419e-11 14.853477759811586" Properties=species:S:1:pos:R:3:masses:R:1:id:I:1:type:I:1 comment="(written by ASE)" config_id=Al3Ni_supercell_0K source="LAMMPS mliap unified (Kokkos) zero-stress supercell, 0 K, NO MD run" pbc="T T T"
Al       4.41564488       0.05486835       1.83456175      26.98153850        1        1
Al       1.75557614       1.14139640       3.28469616      26.98153850        2        1
Al       1.75557614       1.14139640       0.38442733      26.98153850        3        1
Al       4.16332760       2.18166901       4.09779677      26.98153850        4        1
Al       0.66217837       4.44136345       3.28469616      26.98153850        5        1
Al       3.06992982       5.48163607       6.99806560      26.98153850        6        1
Al       0.66217837       4.44136345       0.38442733      26.98153850        7        1
Al       3.06992982       5.48163607       4.09779677      26.98153850        8        1
Al       4.16332760       2.18166901       6.99806560      26.98153850        9        1
Al       2.81761254       3.35483540       1.83456175      26.98153850       10        1
Al       0.40986109       6.56816412       5.54793119      26.98153850       11        1
Al       2.00789343       3.26819706       5.54793119      26.98153850       12        1
Ni       2.13547316       5.75386465       1.83456175      58.69340000       13        2
Ni       0.28228135       2.45389760       1.83456175      58.69340000       14        2
Ni       2.69003281       0.86916781       5.54793119      58.69340000       15        2
Ni       4.54322461       4.16913487       5.54793119      58.69340000       16        2
Al       4.41564488       0.05486835       9.26130063      26.98153850       17        1
Al       1.75557614       1.14139640      10.71143504      26.98153850       18        1
Al       1.75557614       1.14139640       7.81116621      26.98153850       19        1
Al       4.16332760       2.18166901      11.52453565      26.98153850       20        1
Al       0.66217837       4.44136345      10.71143504      26.98153850       21        1
Al       3.06992982       5.48163607      14.42480448      26.98153850       22        1
Al       0.66217837       4.44136345       7.81116621      26.98153850       23        1
Al       3.06992982       5.48163607      11.52453565      26.98153850       24        1
Al       4.16332760       2.18166901      14.42480448      26.98153850       25        1
Al       2.81761254       3.35483540       9.26130063      26.98153850       26        1
Al       0.40986109       6.56816412      12.97467007      26.98153850       27        1
Al       2.00789343       3.26819706      12.97467007      26.98153850       28        1
Ni       2.13547316       5.75386465       9.26130063      58.69340000       29        2
Ni       0.28228135       2.45389760       9.26130063      58.69340000       30        2
Ni       2.69003281       0.86916781      12.97467007      58.69340000       31        2
Ni       4.54322461       4.16913487      12.97467007      58.69340000       32        2
Al       4.41564488       6.65480245       1.83456175      26.98153850       33        1
Al       1.75557614       7.74133051       3.28469616      26.98153850       34        1
Al       1.75557614       7.74133051       0.38442733      26.98153850       35        1
Al       4.16332760       8.78160312       4.09779677      26.98153850       36        1
Al       0.66217837      11.04129756       3.28469616      26.98153850       37        1
Al       3.06992982      12.08157017       6.99806560      26.98153850       38        1
Al       0.66217837      11.04129756       0.38442733      26.98153850       39        1
Al       3.06992982      12.08157017       4.09779677      26.98153850       40        1
Al       4.16332760       8.78160312       6.99806560      26.98153850       41        1
Al       2.81761254       9.95476951       1.83456175      26.98153850       42        1
Al       0.40986109      13.16809822       5.54793119      26.98153850       43        1
Al       2.00789343       9.86813117       5.54793119      26.98153850       44        1
Ni       2.13547316      12.35379876       1.83456175      58.69340000       45        2
Ni       0.28228135       9.05383171       1.83456175      58.69340000       46        2
Ni       2.69003281       7.46910192       5.54793119      58.69340000       47        2
Ni       4.54322461      10.76906897       5.54793119      58.69340000       48        2
Al       4.41564488       6.65480245       9.26130063      26.98153850       49        1
Al       1.75557614       7.74133051      10.71143504      26.98153850       50        1
Al       1.75557614       7.74133051       7.81116621      26.98153850       51        1
Al       4.16332760       8.78160312      11.52453565      26.98153850       52        1
Al       0.66217837      11.04129756      10.71143504      26.98153850       53        1
Al       3.06992982      12.08157017      14.42480448      26.98153850       54        1
Al       0.66217837      11.04129756       7.81116621      26.98153850       55        1
Al       3.06992982      12.08157017      11.52453565      26.98153850       56        1
Al       4.16332760       8.78160312      14.42480448      26.98153850       57        1
Al       2.81761254       9.95476951       9.26130063      26.98153850       58        1
Al       0.40986108      13.16809822      12.97467007      26.98153850       59        1
Al       2.00789343       9.86813117      12.97467007      26.98153850       60        1
Ni       2.13547316      12.35379876       9.26130063      58.69340000       61        2
Ni       0.28228135       9.05383171       9.26130063      58.69340000       62        2
Ni       2.69003281       7.46910192      12.97467007      58.69340000       63        2
Ni       4.54322461      10.76906897      12.97467007      58.69340000       64        2
Al       9.23114779       0.05486835       1.83456175      26.98153850       65        1
Al       6.57107905       1.14139640       3.28469616      26.98153850       66        1
Al       6.57107905       1.14139640       0.38442733      26.98153850       67        1
Al       8.97883051       2.18166901       4.09779677      26.98153850       68        1
Al       5.47768128       4.44136345       3.28469616      26.98153850       69        1
Al       7.88543273       5.48163607       6.99806560      26.98153850       70        1
Al       5.47768128       4.44136345       0.38442733      26.98153850       71        1
Al       7.88543273       5.48163607       4.09779677      26.98153850       72        1
Al       8.97883051       2.18166901       6.99806560      26.98153850       73        1
Al       7.63311545       3.35483540       1.83456175      26.98153850       74        1
Al       5.22536400       6.56816412       5.54793119      26.98153850       75        1
Al       6.82339634       3.26819706       5.54793119      26.98153850       76        1
Ni       6.95097607       5.75386465       1.83456175      58.69340000       77        2
Ni       5.09778426       2.45389760       1.83456175      58.69340000       78        2
Ni       7.50553572       0.86916781       5.54793119      58.69340000       79        2
Ni       9.35872752       4.16913487       5.54793119      58.69340000       80        2
Al       9.23114779       0.05486835       9.26130063      26.98153850       81        1
Al       6.57107905       1.14139640      10.71143504      26.98153850       82        1
Al       6.57107905       1.14139640       7.81116621      26.98153850       83        1
Al       8.97883051       2.18166901      11.52453565      26.98153850       84        1
Al       5.47768128       4.44136345      10.71143504      26.98153850       85        1
Al       7.88543273       5.48163607      14.42480448      26.98153850       86        1
Al       5.47768128       4.44136345       7.81116621      26.98153850       87        1
Al       7.88543273       5.48163607      11.52453565      26.98153850       88        1
Al       8.97883051       2.18166901      14.42480448      26.98153850       89        1
Al       7.63311545       3.35483540       9.26130063      26.98153850       90        1
Al       5.22536400       6.56816412      12.97467007      26.98153850       91        1
Al       6.82339634       3.26819706      12.97467007      26.98153850       92        1
Ni       6.95097607       5.75386465       9.26130063      58.69340000       93        2
Ni       5.09778426       2.45389760       9.26130063      58.69340000       94        2
Ni       7.50553572       0.86916781      12.97467007      58.69340000       95        2
Ni       9.35872752       4.16913487      12.97467007      58.69340000       96        2
Al       9.23114779       6.65480245       1.83456175      26.98153850       97        1
Al       6.57107905       7.74133051       3.28469616      26.98153850       98        1
Al       6.57107905       7.74133051       0.38442733      26.98153850       99        1
Al       8.97883051       8.78160312       4.09779677      26.98153850      100        1
Al       5.47768128      11.04129756       3.28469616      26.98153850      101        1
Al       7.88543273      12.08157017       6.99806560      26.98153850      102        1
Al       5.47768128      11.04129756       0.38442733      26.98153850      103        1
Al       7.88543273      12.08157017       4.09779677      26.98153850      104        1
Al       8.97883051       8.78160312       6.99806560      26.98153850      105        1
Al       7.63311545       9.95476951       1.83456175      26.98153850      106        1
Al       5.22536400      13.16809822       5.54793119      26.98153850      107        1
Al       6.82339634       9.86813117       5.54793119      26.98153850      108        1
Ni       6.95097607      12.35379876       1.83456175      58.69340000      109        2
Ni       5.09778426       9.05383171       1.83456175      58.69340000      110        2
Ni       7.50553572       7.46910192       5.54793119      58.69340000      111        2
Ni       9.35872752      10.76906897       5.54793119      58.69340000      112        2
Al       9.23114779       6.65480245       9.26130063      26.98153850      113        1
Al       6.57107905       7.74133051      10.71143504      26.98153850      114        1
Al       6.57107905       7.74133051       7.81116621      26.98153850      115        1
Al       8.97883051       8.78160312      11.52453565      26.98153850      116        1
Al       5.47768128      11.04129756      10.71143504      26.98153850      117        1
Al       7.88543273      12.08157017      14.42480448      26.98153850      118        1
Al       5.47768128      11.04129756       7.81116621      26.98153850      119        1
Al       7.88543273      12.08157017      11.52453565      26.98153850      120        1
Al       8.97883051       8.78160312      14.42480448      26.98153850      121        1
Al       7.63311545       9.95476951       9.26130063      26.98153850      122        1
Al       5.22536400      13.16809822      12.97467007      26.98153850      123        1
Al       6.82339634       9.86813117      12.97467007      26.98153850      124        1
Ni       6.95097607      12.35379876       9.26130063      58.69340000      125        2
Ni       5.09778426       9.05383171       9.26130063      58.69340000      126        2
Ni       7.50553572       7.46910192      12.97467007      58.69340000      127        2
Ni       9.35872752      10.76906897      12.97467007      58.69340000      128        2
