135
Lattice="12.154604135200245 0.0 0.0 -6.077302068580223 10.526195953613703 0.0 1.6989751527202716e-10 -1.2426153741671316e-11 14.6928635448779" Properties=species:S:1:pos:R:3:masses:R:1:id:I:1:type:I:1 comment="(written by ASE)" config_id=Al3Ni2_supercell_0K source="LAMMPS mliap unified (Kokkos) zero-stress supercell, 0 K, NO MD run" pbc="T T T"
Al      -0.00330653      -0.00286377       0.00512052      26.98153850        1        1
Al      -0.00330653       2.33629089       3.17580102      26.98153850        2        1
Al       2.02246083       1.16671356       1.73206119      26.98153850        3        1
Ni      -0.00330653       2.33629089       0.72225911      58.69340000        4        2
Ni       2.02246083       1.16671356       4.18560310      58.69340000        5        2
Al      -0.00330653      -0.00286377       4.90274170      26.98153850        6        1
Al      -0.00330653       2.33629089       8.07342220      26.98153850        7        1
Al       2.02246083       1.16671356       6.62968237      26.98153850        8        1
Ni      -0.00330653       2.33629089       5.61988029      58.69340000        9        2
Ni       2.02246083       1.16671356       9.08322428      58.69340000       10        2
Al      -0.00330653      -0.00286377       9.80036288      26.98153850       11        1
Al      -0.00330653       2.33629089      12.97104339      26.98153850       12        1
Al       2.02246083       1.16671356      11.52730355      26.98153850       13        1
Ni      -0.00330653       2.33629089      10.51750147      58.69340000       14        2
Ni       2.02246083       1.16671356      13.98084547      58.69340000       15        2
Al      -2.02907388       3.50586822       0.00512052      26.98153850       16        1
Al      -2.02907388       5.84502287       3.17580102      26.98153850       17        1
Al      -0.00330653       4.67544554       1.73206119      26.98153850       18        1
Ni      -2.02907388       5.84502287       0.72225911      58.69340000       19        2
Ni      -0.00330653       4.67544554       4.18560310      58.69340000       20        2
Al      -2.02907388       3.50586822       4.90274170      26.98153850       21        1
Al      -2.02907388       5.84502287       8.07342220      26.98153850       22        1
Al      -0.00330653       4.67544554       6.62968237      26.98153850       23        1
Ni      -2.02907388       5.84502287       5.61988029      58.69340000       24        2
Ni      -0.00330653       4.67544554       9.08322428      58.69340000       25        2
Al      -2.02907388       3.50586822       9.80036288      26.98153850       26        1
Al      -2.02907388       5.84502287      12.97104339      26.98153850       27        1
Al      -0.00330653       4.67544554      11.52730355      26.98153850       28        1
Ni      -2.02907388       5.84502287      10.51750147      58.69340000       29        2
Ni      -0.00330653       4.67544554      13.98084547      58.69340000       30        2
Al      -4.05484124       7.01460020       0.00512052      26.98153850       31        1
Al      -4.05484124       9.35375486       3.17580102      26.98153850       32        1
Al      -2.02907388       8.18417753       1.73206119      26.98153850       33        1
Ni      -4.05484124       9.35375486       0.72225911      58.69340000       34        2
Ni      -2.02907388       8.18417753       4.18560310      58.69340000       35        2
Al      -4.05484124       7.01460020       4.90274170      26.98153850       36        1
Al      -4.05484124       9.35375486       8.07342220      26.98153850       37        1
Al      -2.02907388       8.18417753       6.62968237      26.98153850       38        1
Ni      -4.05484124       9.35375486       5.61988029      58.69340000       39        2
Ni      -2.02907388       8.18417753       9.08322428      58.69340000       40        2
Al      -4.05484124       7.01460020       9.80036288      26.98153850       41        1
Al      -4.05484124       9.35375486      12.97104339      26.98153850       42        1
Al      -2.02907388       8.18417753      11.52730355      26.98153850       43        1
Ni      -4.05484124       9.35375486      10.51750147      58.69340000       44        2
Ni      -2.02907388       8.18417753      13.98084547      58.69340000       45        2
Al       4.04822818      -0.00286377       0.00512052      26.98153850       46        1
Al       4.04822818       2.33629089       3.17580102      26.98153850       47        1
Al       6.07399554       1.16671356       1.73206119      26.98153850       48        1
Ni       4.04822818       2.33629089       0.72225911      58.69340000       49        2
Ni       6.07399554       1.16671356       4.18560310      58.69340000       50        2
Al       4.04822818      -0.00286377       4.90274170      26.98153850       51        1
Al       4.04822818       2.33629089       8.07342220      26.98153850       52        1
Al       6.07399554       1.16671356       6.62968237      26.98153850       53        1
Ni       4.04822818       2.33629089       5.61988029      58.69340000       54        2
Ni       6.07399554       1.16671356       9.08322428      58.69340000       55        2
Al       4.04822818      -0.00286377       9.80036288      26.98153850       56        1
Al       4.04822818       2.33629089      12.97104339      26.98153850       57        1
Al       6.07399554       1.16671356      11.52730355      26.98153850       58        1
Ni       4.04822818       2.33629089      10.51750147      58.69340000       59        2
Ni       6.07399554       1.16671356      13.98084547      58.69340000       60        2
Al       2.02246083       3.50586822       0.00512052      26.98153850       61        1
Al       2.02246083       5.84502287       3.17580102      26.98153850       62        1
Al       4.04822818       4.67544554       1.73206119      26.98153850       63        1
Ni       2.02246083       5.84502287       0.72225911      58.69340000       64        2
Ni       4.04822818       4.67544554       4.18560310      58.69340000       65        2
Al       2.02246083       3.50586822       4.90274170      26.98153850       66        1
Al       2.02246083       5.84502287       8.07342220      26.98153850       67        1
Al       4.04822818       4.67544554       6.62968237      26.98153850       68        1
Ni       2.02246083       5.84502287       5.61988029      58.69340000       69        2
Ni       4.04822818       4.67544554       9.08322428      58.69340000       70        2
Al       2.02246083       3.50586822       9.80036288      26.98153850       71        1
Al       2.02246083       5.84502287      12.97104339      26.98153850       72        1
Al       4.04822818       4.67544554      11.52730355      26.98153850       73        1
Ni       2.02246083       5.84502287      10.51750147      58.69340000       74        2
Ni       4.04822818       4.67544554      13.98084547      58.69340000       75        2
Al      -0.00330653       7.01460020       0.00512052      26.98153850       76        1
Al      -0.00330653       9.35375486       3.17580102      26.98153850       77        1
Al       2.02246083       8.18417753       1.73206119      26.98153850       78        1
Ni      -0.00330653       9.35375486       0.72225911      58.69340000       79        2
Ni       2.02246083       8.18417753       4.18560310      58.69340000       80        2
Al      -0.00330653       7.01460020       4.90274170      26.98153850       81        1
Al      -0.00330653       9.35375486       8.07342220      26.98153850       82        1
Al       2.02246083       8.18417753       6.62968237      26.98153850       83        1
Ni      -0.00330653       9.35375486       5.61988029      58.69340000       84        2
Ni       2.02246083       8.18417753       9.08322428      58.69340000       85        2
Al      -0.00330653       7.01460020       9.80036288      26.98153850       86        1
Al      -0.00330653       9.35375486      12.97104339      26.98153850       87        1
Al       2.02246083       8.18417753      11.52730355      26.98153850       88        1
Ni      -0.00330653       9.35375486      10.51750147      58.69340000       89        2
Ni       2.02246083       8.18417753      13.98084547      58.69340000       90        2
Al       8.09976290      -0.00286377       0.00512052      26.98153850       91        1
Al       8.09976290       2.33629089       3.17580102      26.98153850       92        1
Al      10.12553025       1.16671356       1.73206119      26.98153850       93        1
Ni       8.09976290       2.33629089       0.72225911      58.69340000       94        2
Ni      10.12553025       1.16671356       4.18560310      58.69340000       95        2
Al       8.09976290      -0.00286377       4.90274170      26.98153850       96        1
Al       8.09976290       2.33629089       8.07342220      26.98153850       97        1
Al      10.12553025       1.16671356       6.62968237      26.98153850       98        1
Ni       8.09976290       2.33629089       5.61988029      58.69340000       99        2
Ni      10.12553025       1.16671356       9.08322428      58.69340000      100        2
Al       8.09976290      -0.00286377       9.80036288      26.98153850      101        1
Al       8.09976290       2.33629089      12.97104339      26.98153850      102        1
Al      10.12553025       1.16671356      11.52730355      26.98153850      103        1
Ni       8.09976290       2.33629089      10.51750147      58.69340000      104        2
Ni      10.12553025       1.16671356      13.98084547      58.69340000      105        2
Al       6.07399554       3.50586822       0.00512052      26.98153850      106        1
Al       6.07399554       5.84502287       3.17580102      26.98153850      107        1
Al       8.09976289       4.67544554       1.73206119      26.98153850      108        1
Ni       6.07399554       5.84502287       0.72225911      58.69340000      109        2
Ni       8.09976289       4.67544554       4.18560310      58.69340000      110        2
Al       6.07399554       3.50586822       4.90274170      26.98153850      111        1
Al       6.07399554       5.84502287       8.07342220      26.98153850      112        1
Al       8.09976289       4.67544554       6.62968237      26.98153850      113        1
Ni       6.07399554       5.84502287       5.61988029      58.69340000      114        2
Ni       8.09976290       4.67544554       9.08322428      58.69340000      115        2
Al       6.07399554       3.50586822       9.80036288      26.98153850      116        1
Al       6.07399554       5.84502287      12.97104339      26.98153850      117        1
Al       8.09976290       4.67544554      11.52730355      26.98153850      118        1
Ni       6.07399554       5.84502287      10.51750147      58.69340000      119        2
Ni       8.09976290       4.67544554      13.98084547      58.69340000      120        2
Al       4.04822818       7.01460020       0.00512052      26.98153850      121        1
Al       4.04822818       9.35375486       3.17580102      26.98153850      122        1
Al       6.07399554       8.18417753       1.73206119      26.98153850      123        1
Ni       4.04822818       9.35375486       0.72225911      58.69340000      124        2
Ni       6.07399554       8.18417753       4.18560310      58.69340000      125        2
Al       4.04822818       7.01460020       4.90274170      26.98153850      126        1
Al       4.04822818       9.35375486       8.07342220      26.98153850      127        1
Al       6.07399554       8.18417753       6.62968237      26.98153850      128        1
Ni       4.04822818       9.35375486       5.61988029      58.69340000      129        2
Ni       6.07399554       8.18417753       9.08322428      58.69340000      130        2
Al       4.04822818       7.01460020       9.80036288      26.98153850      131        1
Al       4.04822818       9.35375486      12.97104339      26.98153850      132        1
Al       6.07399554       8.18417753      11.52730355      26.98153850      133        1
Ni       4.04822818       9.35375486      10.51750147      58.69340000      134        2
Ni       6.07399554       8.18417753      13.98084547      58.69340000      135        2
