(written by ASE)

144 atoms
2 atom types

0.0      11.395059998347463  xlo xhi
0.0      15.010498423217276  ylo yhi
0.0      9.9027181807399973  zlo zhi
-3.2200950675093977e-12  -3.239626245654213e-12     -1.4409026997352812  xy xz yz

Masses

1      26.981538493059151 # Al
2      58.693399984901454 # Ni

Atoms # atomic

     1   1   -0.018023395310498094      2.1456657839117028      2.4898913570380201
     2   1      1.8811532710805843     0.54860502264754463      3.8713884313554683
     3   1      1.8811532710808878      3.7427265438109969      1.1083942838348295
     4   2   -0.018023395309160171   0.0041417205154848195    0.014211812764524248
     5   2    -0.01802339531131732      1.7854401078705515      4.9655709020406986
     6   2   -0.018023395311043692      4.6474155211401982      2.4898913580918904
     7   2      1.8811532710814001      1.1915001408351036      1.3868412421016587
     8   2      1.8811532710800873      3.0998314258440267      3.5929414729087781
     9   1   -0.018023395312117906      1.4252144340440622      7.4412504474080183
    10   1      1.8811532710789645    -0.17184632722009596      8.8227475217254678
    11   1       1.881153271079268      3.0222751939433561      6.0597533742048277
    12   2   -0.018023395310779983    -0.71630962935215581      4.9655709031345232
    13   2   -0.018023395312937132      1.0649887580029109      9.9169299924106973
    14   2   -0.018023395312663504      3.9269641712725578      7.4412504484618891
    15   2      1.8811532710797803     0.47104879096746299      6.3382003324716578
    16   2      1.8811532710784675      2.3793800759763863      8.5443005632787763
    17   1   -0.018023395311571457      7.1491652583174616      2.4898913570380201
    18   1      1.8811532710795109      5.5521044970533033      3.8713884313554683
    19   1      1.8811532710798144      8.7462260182167562      1.1083942838348295
    20   2   -0.018023395310233534       5.007641194921244    0.014211812764524248
    21   2   -0.018023395312390684      6.7889395822763099      4.9655709020406986
    22   2   -0.018023395312117056       9.650914995545957      2.4898913580918904
    23   2      1.8811532710803267       6.194999615240862      1.3868412421016587
    24   2       1.881153271079014      8.1033309002497855      3.5929414729087781
    25   1   -0.018023395313191273      6.4287139084498213      7.4412504474080183
    26   1      1.8811532710778911       4.831653147185663      8.8227475217254678
    27   1      1.8811532710781946      8.0257746683491149      6.0597533742048277
    28   2    -0.01802339531185335      4.2871898450536037      4.9655709031345232
    29   2   -0.018023395314010499      6.0684882324086704      9.9169299924106973
    30   2   -0.018023395313736871      8.9304636456783157      7.4412504484618891
    31   2      1.8811532710787069      5.4745482653732225      6.3382003324716578
    32   2      1.8811532710773942      7.3828795503821452      8.5443005632787763
    33   1   -0.018023395312644824       12.15266473272322      2.4898913570380201
    34   1      1.8811532710784375      10.555603971459062      3.8713884313554683
    35   1      1.8811532710787411      13.749725492622515      1.1083942838348295
    36   2   -0.018023395311306901      10.011140669327002    0.014211812764524248
    37   2   -0.018023395313464051      11.792439056682069      4.9655709020406986
    38   2   -0.018023395313190423      14.654414469951716      2.4898913580918904
    39   2      1.8811532710792533      11.198499089646621      1.3868412421016587
    40   2      1.8811532710779406      13.106830374655544      3.5929414729087781
    41   1   -0.018023395314264636      11.432213382855579      7.4412504474080183
    42   1      1.8811532710768177      9.8351526215914209      8.8227475217254678
    43   1      1.8811532710771213      13.029274142754874      6.0597533742048277
    44   2   -0.018023395312926713      9.2906893194593607      4.9655709031345232
    45   2   -0.018023395315083863      11.071987706814427      9.9169299924106973
    46   2   -0.018023395314810235      13.933963120084075      7.4412504484618891
    47   2      1.8811532710776335       10.47804773977898      6.3382003324716578
    48   2      1.8811532710763208      12.386379024787903      8.5443005632787763
    49   1      3.7803299374719894      2.1456657839117028      2.4898913570380201
    50   1      5.6795066038630715     0.54860502264754463      3.8713884313554683
    51   1      5.6795066038633752      3.7427265438109969      1.1083942838348295
    52   2      3.7803299374733275   0.0041417205154848195    0.014211812764524248
    53   2      3.7803299374711701      1.7854401078705515      4.9655709020406986
    54   2      3.7803299374714436      4.6474155211401982      2.4898913580918904
    55   2      5.6795066038638877      1.1915001408351036      1.3868412421016587
    56   2       5.679506603862575      3.0998314258440267      3.5929414729087781
    57   1      3.7803299374703698      1.4252144340440622      7.4412504474080183
    58   1      5.6795066038614523    -0.17184632722009596      8.8227475217254678
    59   1      5.6795066038617552      3.0222751939433561      6.0597533742048277
    60   2      3.7803299374717079    -0.71630962935215581      4.9655709031345232
    61   2      3.7803299374695505      1.0649887580029109      9.9169299924106973
    62   2       3.780329937469824      3.9269641712725578      7.4412504484618891
    63   2      5.6795066038622677     0.47104879096746299      6.3382003324716578
    64   2       5.679506603860955      2.3793800759763863      8.5443005632787763
    65   1      3.7803299374709161      7.1491652583174616      2.4898913570380201
    66   1      5.6795066038619986      5.5521044970533033      3.8713884313554683
    67   1      5.6795066038623023      8.7462260182167562      1.1083942838348295
    68   2      3.7803299374722541       5.007641194921244    0.014211812764524248
    69   2      3.7803299374700967      6.7889395822763099      4.9655709020406986
    70   2      3.7803299374703703       9.650914995545957      2.4898913580918904
    71   2      5.6795066038628139       6.194999615240862      1.3868412421016587
    72   2      5.6795066038615012      8.1033309002497855      3.5929414729087781
    73   1      3.7803299374692965      6.4287139084498213      7.4412504474080183
    74   1      5.6795066038603785       4.831653147185663      8.8227475217254678
    75   1      5.6795066038606823      8.0257746683491149      6.0597533742048277
    76   2      3.7803299374706345      4.2871898450536037      4.9655709031345232
    77   2      3.7803299374684771      6.0684882324086704      9.9169299924106973
    78   2      3.7803299374687507      8.9304636456783157      7.4412504484618891
    79   2      5.6795066038611948      5.4745482653732225      6.3382003324716578
    80   2       5.679506603859882      7.3828795503821452      8.5443005632787763
    81   1      3.7803299374698427       12.15266473272322      2.4898913570380201
    82   1      5.6795066038609248      10.555603971459062      3.8713884313554683
    83   1      5.6795066038612285      13.749725492622515      1.1083942838348295
    84   2      3.7803299374711807      10.011140669327002    0.014211812764524248
    85   2      3.7803299374690233      11.792439056682069      4.9655709020406986
    86   2      3.7803299374692969      14.654414469951716      2.4898913580918904
    87   2       5.679506603861741      11.198499089646621      1.3868412421016587
    88   2      5.6795066038604283      13.106830374655544      3.5929414729087781
    89   1      3.7803299374682231      11.432213382855579      7.4412504474080183
    90   1      5.6795066038593056      9.8351526215914209      8.8227475217254678
    91   1      5.6795066038596094      13.029274142754874      6.0597533742048277
    92   2      3.7803299374695611      9.2906893194593607      4.9655709031345232
    93   2      3.7803299374674038      11.071987706814427      9.9169299924106973
    94   2      3.7803299374676773      13.933963120084075      7.4412504484618891
    95   2       5.679506603860121       10.47804773977898      6.3382003324716578
    96   2      5.6795066038588082      12.386379024787903      8.5443005632787763
    97   1      7.5786832702544764      2.1456657839117028      2.4898913570380201
    98   1      9.4778599366455598     0.54860502264754463      3.8713884313554683
    99   1      9.4778599366458636      3.7427265438109969      1.1083942838348295
   100   2      7.5786832702558149   0.0041417205154848195    0.014211812764524248
   101   2      7.5786832702536575      1.7854401078705515      4.9655709020406986
   102   2      7.5786832702539311      4.6474155211401982      2.4898913580918904
   103   2      9.4778599366463752      1.1915001408351036      1.3868412421016587
   104   2      9.4778599366450624      3.0998314258440267      3.5929414729087781
   105   1      7.5786832702528564      1.4252144340440622      7.4412504474080183
   106   1      9.4778599366439398    -0.17184632722009596      8.8227475217254678
   107   1      9.4778599366442435      3.0222751939433561      6.0597533742048277
   108   2      7.5786832702541949    -0.71630962935215581      4.9655709031345232
   109   2      7.5786832702520375      1.0649887580029109      9.9169299924106973
   110   2       7.578683270252311      3.9269641712725578      7.4412504484618891
   111   2      9.4778599366447551     0.47104879096746299      6.3382003324716578
   112   2      9.4778599366434424      2.3793800759763863      8.5443005632787763
   113   1      7.5786832702534026      7.1491652583174616      2.4898913570380201
   114   1      9.4778599366444851      5.5521044970533033      3.8713884313554683
   115   1      9.4778599366447889      8.7462260182167562      1.1083942838348295
   116   2      7.5786832702547411       5.007641194921244    0.014211812764524248
   117   2      7.5786832702525837      6.7889395822763099      4.9655709020406986
   118   2      7.5786832702528573       9.650914995545957      2.4898913580918904
   119   2      9.4778599366453005       6.194999615240862      1.3868412421016587
   120   2      9.4778599366439877      8.1033309002497855      3.5929414729087781
   121   1      7.5786832702517826      6.4287139084498213      7.4412504474080183
   122   1      9.4778599366428651       4.831653147185663      8.8227475217254678
   123   1      9.4778599366431688      8.0257746683491149      6.0597533742048277
   124   2      7.5786832702531211      4.2871898450536037      4.9655709031345232
   125   2      7.5786832702509637      6.0684882324086704      9.9169299924106973
   126   2      7.5786832702512372      8.9304636456783157      7.4412504484618891
   127   2      9.4778599366436804      5.4745482653732225      6.3382003324716578
   128   2      9.4778599366423677      7.3828795503821452      8.5443005632787763
   129   1      7.5786832702523297       12.15266473272322      2.4898913570380201
   130   1      9.4778599366434122      10.555603971459062      3.8713884313554683
   131   1       9.477859936643716      13.749725492622515      1.1083942838348295
   132   2      7.5786832702536682      10.011140669327002    0.014211812764524248
   133   2      7.5786832702515108      11.792439056682069      4.9655709020406986
   134   2      7.5786832702517843      14.654414469951716      2.4898913580918904
   135   2      9.4778599366442275      11.198499089646621      1.3868412421016587
   136   2      9.4778599366429148      13.106830374655544      3.5929414729087781
   137   1      7.5786832702507096      11.432213382855579      7.4412504474080183
   138   1      9.4778599366417922      9.8351526215914209      8.8227475217254678
   139   1      9.4778599366420959      13.029274142754874      6.0597533742048277
   140   2      7.5786832702520481      9.2906893194593607      4.9655709031345232
   141   2      7.5786832702498907      11.071987706814427      9.9169299924106973
   142   2      7.5786832702501643      13.933963120084075      7.4412504484618891
   143   2      9.4778599366426075       10.47804773977898      6.3382003324716578
   144   2      9.4778599366412948      12.386379024787903      8.5443005632787763
