144
Lattice="11.395059998347463 0.0 0.0 -3.2200950675093977e-12 15.010498423217276 0.0 -3.239626245654213e-12 -1.4409026997352812 9.902718180739997" Properties=species:S:1:pos:R:3:masses:R:1:id:I:1:type:I:1 comment="(written by ASE)" config_id=Al3Ni5_supercell_0K source="LAMMPS mliap unified (Kokkos) zero-stress supercell, 0 K, NO MD run" pbc="T T T"
Al      -0.01802340       2.14566578       2.48989136      26.98153850        1        1
Al       1.88115327       0.54860502       3.87138843      26.98153850        2        1
Al       1.88115327       3.74272654       1.10839428      26.98153850        3        1
Ni      -0.01802340       0.00414172       0.01421181      58.69340000        4        2
Ni      -0.01802340       1.78544011       4.96557090      58.69340000        5        2
Ni      -0.01802340       4.64741552       2.48989136      58.69340000        6        2
Ni       1.88115327       1.19150014       1.38684124      58.69340000        7        2
Ni       1.88115327       3.09983143       3.59294147      58.69340000        8        2
Al      -0.01802340       1.42521443       7.44125045      26.98153850        9        1
Al       1.88115327      -0.17184633       8.82274752      26.98153850       10        1
Al       1.88115327       3.02227519       6.05975337      26.98153850       11        1
Ni      -0.01802340      -0.71630963       4.96557090      58.69340000       12        2
Ni      -0.01802340       1.06498876       9.91692999      58.69340000       13        2
Ni      -0.01802340       3.92696417       7.44125045      58.69340000       14        2
Ni       1.88115327       0.47104879       6.33820033      58.69340000       15        2
Ni       1.88115327       2.37938008       8.54430056      58.69340000       16        2
Al      -0.01802340       7.14916526       2.48989136      26.98153850       17        1
Al       1.88115327       5.55210450       3.87138843      26.98153850       18        1
Al       1.88115327       8.74622602       1.10839428      26.98153850       19        1
Ni      -0.01802340       5.00764119       0.01421181      58.69340000       20        2
Ni      -0.01802340       6.78893958       4.96557090      58.69340000       21        2
Ni      -0.01802340       9.65091500       2.48989136      58.69340000       22        2
Ni       1.88115327       6.19499962       1.38684124      58.69340000       23        2
Ni       1.88115327       8.10333090       3.59294147      58.69340000       24        2
Al      -0.01802340       6.42871391       7.44125045      26.98153850       25        1
Al       1.88115327       4.83165315       8.82274752      26.98153850       26        1
Al       1.88115327       8.02577467       6.05975337      26.98153850       27        1
Ni      -0.01802340       4.28718985       4.96557090      58.69340000       28        2
Ni      -0.01802340       6.06848823       9.91692999      58.69340000       29        2
Ni      -0.01802340       8.93046365       7.44125045      58.69340000       30        2
Ni       1.88115327       5.47454827       6.33820033      58.69340000       31        2
Ni       1.88115327       7.38287955       8.54430056      58.69340000       32        2
Al      -0.01802340      12.15266473       2.48989136      26.98153850       33        1
Al       1.88115327      10.55560397       3.87138843      26.98153850       34        1
Al       1.88115327      13.74972549       1.10839428      26.98153850       35        1
Ni      -0.01802340      10.01114067       0.01421181      58.69340000       36        2
Ni      -0.01802340      11.79243906       4.96557090      58.69340000       37        2
Ni      -0.01802340      14.65441447       2.48989136      58.69340000       38        2
Ni       1.88115327      11.19849909       1.38684124      58.69340000       39        2
Ni       1.88115327      13.10683037       3.59294147      58.69340000       40        2
Al      -0.01802340      11.43221338       7.44125045      26.98153850       41        1
Al       1.88115327       9.83515262       8.82274752      26.98153850       42        1
Al       1.88115327      13.02927414       6.05975337      26.98153850       43        1
Ni      -0.01802340       9.29068932       4.96557090      58.69340000       44        2
Ni      -0.01802340      11.07198771       9.91692999      58.69340000       45        2
Ni      -0.01802340      13.93396312       7.44125045      58.69340000       46        2
Ni       1.88115327      10.47804774       6.33820033      58.69340000       47        2
Ni       1.88115327      12.38637902       8.54430056      58.69340000       48        2
Al       3.78032994       2.14566578       2.48989136      26.98153850       49        1
Al       5.67950660       0.54860502       3.87138843      26.98153850       50        1
Al       5.67950660       3.74272654       1.10839428      26.98153850       51        1
Ni       3.78032994       0.00414172       0.01421181      58.69340000       52        2
Ni       3.78032994       1.78544011       4.96557090      58.69340000       53        2
Ni       3.78032994       4.64741552       2.48989136      58.69340000       54        2
Ni       5.67950660       1.19150014       1.38684124      58.69340000       55        2
Ni       5.67950660       3.09983143       3.59294147      58.69340000       56        2
Al       3.78032994       1.42521443       7.44125045      26.98153850       57        1
Al       5.67950660      -0.17184633       8.82274752      26.98153850       58        1
Al       5.67950660       3.02227519       6.05975337      26.98153850       59        1
Ni       3.78032994      -0.71630963       4.96557090      58.69340000       60        2
Ni       3.78032994       1.06498876       9.91692999      58.69340000       61        2
Ni       3.78032994       3.92696417       7.44125045      58.69340000       62        2
Ni       5.67950660       0.47104879       6.33820033      58.69340000       63        2
Ni       5.67950660       2.37938008       8.54430056      58.69340000       64        2
Al       3.78032994       7.14916526       2.48989136      26.98153850       65        1
Al       5.67950660       5.55210450       3.87138843      26.98153850       66        1
Al       5.67950660       8.74622602       1.10839428      26.98153850       67        1
Ni       3.78032994       5.00764119       0.01421181      58.69340000       68        2
Ni       3.78032994       6.78893958       4.96557090      58.69340000       69        2
Ni       3.78032994       9.65091500       2.48989136      58.69340000       70        2
Ni       5.67950660       6.19499962       1.38684124      58.69340000       71        2
Ni       5.67950660       8.10333090       3.59294147      58.69340000       72        2
Al       3.78032994       6.42871391       7.44125045      26.98153850       73        1
Al       5.67950660       4.83165315       8.82274752      26.98153850       74        1
Al       5.67950660       8.02577467       6.05975337      26.98153850       75        1
Ni       3.78032994       4.28718985       4.96557090      58.69340000       76        2
Ni       3.78032994       6.06848823       9.91692999      58.69340000       77        2
Ni       3.78032994       8.93046365       7.44125045      58.69340000       78        2
Ni       5.67950660       5.47454827       6.33820033      58.69340000       79        2
Ni       5.67950660       7.38287955       8.54430056      58.69340000       80        2
Al       3.78032994      12.15266473       2.48989136      26.98153850       81        1
Al       5.67950660      10.55560397       3.87138843      26.98153850       82        1
Al       5.67950660      13.74972549       1.10839428      26.98153850       83        1
Ni       3.78032994      10.01114067       0.01421181      58.69340000       84        2
Ni       3.78032994      11.79243906       4.96557090      58.69340000       85        2
Ni       3.78032994      14.65441447       2.48989136      58.69340000       86        2
Ni       5.67950660      11.19849909       1.38684124      58.69340000       87        2
Ni       5.67950660      13.10683037       3.59294147      58.69340000       88        2
Al       3.78032994      11.43221338       7.44125045      26.98153850       89        1
Al       5.67950660       9.83515262       8.82274752      26.98153850       90        1
Al       5.67950660      13.02927414       6.05975337      26.98153850       91        1
Ni       3.78032994       9.29068932       4.96557090      58.69340000       92        2
Ni       3.78032994      11.07198771       9.91692999      58.69340000       93        2
Ni       3.78032994      13.93396312       7.44125045      58.69340000       94        2
Ni       5.67950660      10.47804774       6.33820033      58.69340000       95        2
Ni       5.67950660      12.38637902       8.54430056      58.69340000       96        2
Al       7.57868327       2.14566578       2.48989136      26.98153850       97        1
Al       9.47785994       0.54860502       3.87138843      26.98153850       98        1
Al       9.47785994       3.74272654       1.10839428      26.98153850       99        1
Ni       7.57868327       0.00414172       0.01421181      58.69340000      100        2
Ni       7.57868327       1.78544011       4.96557090      58.69340000      101        2
Ni       7.57868327       4.64741552       2.48989136      58.69340000      102        2
Ni       9.47785994       1.19150014       1.38684124      58.69340000      103        2
Ni       9.47785994       3.09983143       3.59294147      58.69340000      104        2
Al       7.57868327       1.42521443       7.44125045      26.98153850      105        1
Al       9.47785994      -0.17184633       8.82274752      26.98153850      106        1
Al       9.47785994       3.02227519       6.05975337      26.98153850      107        1
Ni       7.57868327      -0.71630963       4.96557090      58.69340000      108        2
Ni       7.57868327       1.06498876       9.91692999      58.69340000      109        2
Ni       7.57868327       3.92696417       7.44125045      58.69340000      110        2
Ni       9.47785994       0.47104879       6.33820033      58.69340000      111        2
Ni       9.47785994       2.37938008       8.54430056      58.69340000      112        2
Al       7.57868327       7.14916526       2.48989136      26.98153850      113        1
Al       9.47785994       5.55210450       3.87138843      26.98153850      114        1
Al       9.47785994       8.74622602       1.10839428      26.98153850      115        1
Ni       7.57868327       5.00764119       0.01421181      58.69340000      116        2
Ni       7.57868327       6.78893958       4.96557090      58.69340000      117        2
Ni       7.57868327       9.65091500       2.48989136      58.69340000      118        2
Ni       9.47785994       6.19499962       1.38684124      58.69340000      119        2
Ni       9.47785994       8.10333090       3.59294147      58.69340000      120        2
Al       7.57868327       6.42871391       7.44125045      26.98153850      121        1
Al       9.47785994       4.83165315       8.82274752      26.98153850      122        1
Al       9.47785994       8.02577467       6.05975337      26.98153850      123        1
Ni       7.57868327       4.28718985       4.96557090      58.69340000      124        2
Ni       7.57868327       6.06848823       9.91692999      58.69340000      125        2
Ni       7.57868327       8.93046365       7.44125045      58.69340000      126        2
Ni       9.47785994       5.47454827       6.33820033      58.69340000      127        2
Ni       9.47785994       7.38287955       8.54430056      58.69340000      128        2
Al       7.57868327      12.15266473       2.48989136      26.98153850      129        1
Al       9.47785994      10.55560397       3.87138843      26.98153850      130        1
Al       9.47785994      13.74972549       1.10839428      26.98153850      131        1
Ni       7.57868327      10.01114067       0.01421181      58.69340000      132        2
Ni       7.57868327      11.79243906       4.96557090      58.69340000      133        2
Ni       7.57868327      14.65441447       2.48989136      58.69340000      134        2
Ni       9.47785994      11.19849909       1.38684124      58.69340000      135        2
Ni       9.47785994      13.10683037       3.59294147      58.69340000      136        2
Al       7.57868327      11.43221338       7.44125045      26.98153850      137        1
Al       9.47785994       9.83515262       8.82274752      26.98153850      138        1
Al       9.47785994      13.02927414       6.05975337      26.98153850      139        1
Ni       7.57868327       9.29068932       4.96557090      58.69340000      140        2
Ni       7.57868327      11.07198771       9.91692999      58.69340000      141        2
Ni       7.57868327      13.93396312       7.44125045      58.69340000      142        2
Ni       9.47785994      10.47804774       6.33820033      58.69340000      143        2
Ni       9.47785994      12.38637902       8.54430056      58.69340000      144        2
