(written by ASE)

128 atoms
2 atom types

0.0      11.581784319823878  xlo xhi
0.0      11.581784319823878  ylo yhi
0.0      11.581784319823878  zlo zhi
-2.0790882131804088e-16 -1.9454016707761374e-16 -3.0901716430321603e-16  xy xz yz

Masses

1      26.981538493059151 # Al
2      58.693399984901454 # Ni

Atoms # atomic

     1   1      1.4470041198611698      1.4470041198611698      1.4470041198611698
     2   2 -0.00071892046277471141 -0.00071892046277472431 -0.00071892046277463779
     3   1      1.4470041198611698      1.4470041198611698      4.3424501998171392
     4   2 -0.00071892046277476009 -0.00071892046277480161      2.8947271594931951
     5   1      1.4470041198611698      1.4470041198611696      7.2378962797731088
     6   2 -0.00071892046277480866 -0.00071892046277487881      5.7901732394491647
     7   1      1.4470041198611696      1.4470041198611696      10.133342359729077
     8   2 -0.00071892046277485734 -0.00071892046277495611      8.6856193194051325
     9   1      1.4470041198611698      4.3424501998171392      1.4470041198611698
    10   2 -0.00071892046277476334      2.8947271594931947 -0.00071892046277463779
    11   1      1.4470041198611698      4.3424501998171392      4.3424501998171392
    12   2 -0.00071892046277481202      2.8947271594931947      2.8947271594931951
    13   1      1.4470041198611696      4.3424501998171392      7.2378962797731088
    14   2  -0.0007189204627748607      2.8947271594931947      5.7901732394491647
    15   1      1.4470041198611696      4.3424501998171392      10.133342359729077
    16   2 -0.00071892046277490928      2.8947271594931943      8.6856193194051325
    17   1      1.4470041198611698      7.2378962797731088      1.4470041198611698
    18   2 -0.00071892046277481538      5.7901732394491647 -0.00071892046277463779
    19   1      1.4470041198611696      7.2378962797731088      4.3424501998171392
    20   2 -0.00071892046277486396      5.7901732394491647      2.8947271594931951
    21   1      1.4470041198611696      7.2378962797731088      7.2378962797731088
    22   2 -0.00071892046277491264      5.7901732394491647      5.7901732394491647
    23   1      1.4470041198611696      7.2378962797731088      10.133342359729077
    24   2 -0.00071892046277496132      5.7901732394491647      8.6856193194051325
    25   1      1.4470041198611696      10.133342359729077      1.4470041198611698
    26   2 -0.00071892046277486732      8.6856193194051325 -0.00071892046277463779
    27   1      1.4470041198611696      10.133342359729077      4.3424501998171392
    28   2   -0.000718920462774916      8.6856193194051325      2.8947271594931951
    29   1      1.4470041198611696      10.133342359729077      7.2378962797731088
    30   2 -0.00071892046277496457      8.6856193194051325      5.7901732394491647
    31   1      1.4470041198611696      10.133342359729077      10.133342359729077
    32   2 -0.00071892046277501325      8.6856193194051325      8.6856193194051325
    33   1      4.3424501998171392      1.4470041198611698      1.4470041198611698
    34   2      2.8947271594931947 -0.00071892046277472431 -0.00071892046277463779
    35   1      4.3424501998171392      1.4470041198611698      4.3424501998171392
    36   2      2.8947271594931947 -0.00071892046277480161      2.8947271594931951
    37   1      4.3424501998171392      1.4470041198611696      7.2378962797731088
    38   2      2.8947271594931947 -0.00071892046277487881      5.7901732394491647
    39   1      4.3424501998171392      1.4470041198611696      10.133342359729077
    40   2      2.8947271594931947 -0.00071892046277495611      8.6856193194051325
    41   1      4.3424501998171392      4.3424501998171392      1.4470041198611698
    42   2      2.8947271594931947      2.8947271594931947 -0.00071892046277463779
    43   1      4.3424501998171392      4.3424501998171392      4.3424501998171392
    44   2      2.8947271594931947      2.8947271594931947      2.8947271594931951
    45   1      4.3424501998171392      4.3424501998171392      7.2378962797731088
    46   2      2.8947271594931947      2.8947271594931947      5.7901732394491647
    47   1      4.3424501998171392      4.3424501998171392      10.133342359729077
    48   2      2.8947271594931947      2.8947271594931943      8.6856193194051325
    49   1      4.3424501998171392      7.2378962797731088      1.4470041198611698
    50   2      2.8947271594931947      5.7901732394491647 -0.00071892046277463779
    51   1      4.3424501998171392      7.2378962797731088      4.3424501998171392
    52   2      2.8947271594931947      5.7901732394491647      2.8947271594931951
    53   1      4.3424501998171392      7.2378962797731088      7.2378962797731088
    54   2      2.8947271594931947      5.7901732394491647      5.7901732394491647
    55   1      4.3424501998171392      7.2378962797731088      10.133342359729077
    56   2      2.8947271594931947      5.7901732394491647      8.6856193194051325
    57   1      4.3424501998171392      10.133342359729077      1.4470041198611698
    58   2      2.8947271594931947      8.6856193194051325 -0.00071892046277463779
    59   1      4.3424501998171392      10.133342359729077      4.3424501998171392
    60   2      2.8947271594931947      8.6856193194051325      2.8947271594931951
    61   1      4.3424501998171392      10.133342359729077      7.2378962797731088
    62   2      2.8947271594931947      8.6856193194051325      5.7901732394491647
    63   1      4.3424501998171392      10.133342359729077      10.133342359729077
    64   2      2.8947271594931947      8.6856193194051325      8.6856193194051325
    65   1      7.2378962797731088      1.4470041198611698      1.4470041198611698
    66   2      5.7901732394491647 -0.00071892046277472431 -0.00071892046277463779
    67   1      7.2378962797731088      1.4470041198611698      4.3424501998171392
    68   2      5.7901732394491647 -0.00071892046277480161      2.8947271594931951
    69   1      7.2378962797731088      1.4470041198611696      7.2378962797731088
    70   2      5.7901732394491647 -0.00071892046277487881      5.7901732394491647
    71   1      7.2378962797731088      1.4470041198611696      10.133342359729077
    72   2      5.7901732394491647 -0.00071892046277495611      8.6856193194051325
    73   1      7.2378962797731088      4.3424501998171392      1.4470041198611698
    74   2      5.7901732394491647      2.8947271594931947 -0.00071892046277463779
    75   1      7.2378962797731088      4.3424501998171392      4.3424501998171392
    76   2      5.7901732394491647      2.8947271594931947      2.8947271594931951
    77   1      7.2378962797731088      4.3424501998171392      7.2378962797731088
    78   2      5.7901732394491647      2.8947271594931947      5.7901732394491647
    79   1      7.2378962797731088      4.3424501998171392      10.133342359729077
    80   2      5.7901732394491647      2.8947271594931943      8.6856193194051325
    81   1      7.2378962797731088      7.2378962797731088      1.4470041198611698
    82   2      5.7901732394491647      5.7901732394491647 -0.00071892046277463779
    83   1      7.2378962797731088      7.2378962797731088      4.3424501998171392
    84   2      5.7901732394491647      5.7901732394491647      2.8947271594931951
    85   1      7.2378962797731088      7.2378962797731088      7.2378962797731088
    86   2      5.7901732394491647      5.7901732394491647      5.7901732394491647
    87   1      7.2378962797731088      7.2378962797731088      10.133342359729077
    88   2      5.7901732394491647      5.7901732394491647      8.6856193194051325
    89   1      7.2378962797731088      10.133342359729077      1.4470041198611698
    90   2      5.7901732394491647      8.6856193194051325 -0.00071892046277463779
    91   1      7.2378962797731088      10.133342359729077      4.3424501998171392
    92   2      5.7901732394491647      8.6856193194051325      2.8947271594931951
    93   1      7.2378962797731088      10.133342359729077      7.2378962797731088
    94   2      5.7901732394491647      8.6856193194051325      5.7901732394491647
    95   1      7.2378962797731088      10.133342359729077      10.133342359729077
    96   2      5.7901732394491647      8.6856193194051325      8.6856193194051325
    97   1      10.133342359729077      1.4470041198611698      1.4470041198611698
    98   2      8.6856193194051325 -0.00071892046277472431 -0.00071892046277463779
    99   1      10.133342359729077      1.4470041198611698      4.3424501998171392
   100   2      8.6856193194051325 -0.00071892046277480161      2.8947271594931951
   101   1      10.133342359729077      1.4470041198611696      7.2378962797731088
   102   2      8.6856193194051325 -0.00071892046277487881      5.7901732394491647
   103   1      10.133342359729077      1.4470041198611696      10.133342359729077
   104   2      8.6856193194051325 -0.00071892046277495611      8.6856193194051325
   105   1      10.133342359729077      4.3424501998171392      1.4470041198611698
   106   2      8.6856193194051325      2.8947271594931947 -0.00071892046277463779
   107   1      10.133342359729077      4.3424501998171392      4.3424501998171392
   108   2      8.6856193194051325      2.8947271594931947      2.8947271594931951
   109   1      10.133342359729077      4.3424501998171392      7.2378962797731088
   110   2      8.6856193194051325      2.8947271594931947      5.7901732394491647
   111   1      10.133342359729077      4.3424501998171392      10.133342359729077
   112   2      8.6856193194051325      2.8947271594931943      8.6856193194051325
   113   1      10.133342359729077      7.2378962797731088      1.4470041198611698
   114   2      8.6856193194051325      5.7901732394491647 -0.00071892046277463779
   115   1      10.133342359729077      7.2378962797731088      4.3424501998171392
   116   2      8.6856193194051325      5.7901732394491647      2.8947271594931951
   117   1      10.133342359729077      7.2378962797731088      7.2378962797731088
   118   2      8.6856193194051325      5.7901732394491647      5.7901732394491647
   119   1      10.133342359729077      7.2378962797731088      10.133342359729077
   120   2      8.6856193194051325      5.7901732394491647      8.6856193194051325
   121   1      10.133342359729077      10.133342359729077      1.4470041198611698
   122   2      8.6856193194051325      8.6856193194051325 -0.00071892046277463779
   123   1      10.133342359729077      10.133342359729077      4.3424501998171392
   124   2      8.6856193194051325      8.6856193194051325      2.8947271594931951
   125   1      10.133342359729077      10.133342359729077      7.2378962797731088
   126   2      8.6856193194051325      8.6856193194051325      5.7901732394491647
   127   1      10.133342359729077      10.133342359729077      10.133342359729077
   128   2      8.6856193194051325      8.6856193194051325      8.6856193194051325
