(written by ASE)

108 atoms
2 atom types

0.0      10.702162388921039  xlo xhi
0.0      10.702162388985233  ylo yhi
0.0      10.702162388985215  zlo zhi
 8.4119792137116292e-15 -2.2542030778479429e-15  4.1908412109978755e-13  xy xz yz

Masses

1      26.981538493059151 # Al
2      58.693399984901454 # Ni

Atoms # atomic

     1   1 -6.3321140938521567e-05 -1.0726177692702741e-06 -1.2526160846444076e-06
     2   2  -6.332114093668707e-05        1.78369265887609      1.7836924788739295
     3   2      1.7836304103458935  -1.072617265807774e-06      1.7836924788739681
     4   2      1.7836304103458953      1.7836926588760393 -1.2526152147710039e-06
     5   1 -6.3321140939272974e-05 -1.0726176295755672e-06      3.5673862103789871
     6   2 -6.3321140937438477e-05      1.7836926588762296      5.3510799418690009
     7   2      1.7836304103458929  -1.072617126113067e-06        5.35107994186904
     8   2      1.7836304103458946       1.783692658876179       3.567386210379857
     9   1 -6.3321140940024367e-05   -1.07261748988086e-06      7.1347736733740588
    10   2 -6.3321140938189869e-05      1.7836926588763693      8.9184674048640726
    11   2       1.783630410345892 -1.0726169864183598e-06      8.9184674048641117
    12   2      1.7836304103458938      1.7836926588763187      7.1347736733749283
    13   1 -6.3321140935717577e-05      3.5673863903773082 -1.2526160846444076e-06
    14   2  -6.332114093388308e-05       5.351080121871167      1.7836924788739295
    15   2      1.7836304103458964      3.5673863903778118      1.7836924788739681
    16   2      1.7836304103458982      5.3510801218711173 -1.2526152147710039e-06
    17   1 -6.3321140936468969e-05      3.5673863903774481      3.5673862103789871
    18   2 -6.3321140934634472e-05      5.3510801218713073      5.3510799418690009
    19   2      1.7836304103458955      3.5673863903779517        5.35107994186904
    20   2      1.7836304103458973      5.3510801218712567       3.567386210379857
    21   1 -6.3321140937220376e-05      3.5673863903775875      7.1347736733740588
    22   2 -6.3321140935385879e-05      5.3510801218714468      8.9184674048640726
    23   2      1.7836304103458949      3.5673863903780911      8.9184674048641117
    24   2      1.7836304103458966      5.3510801218713961      7.1347736733749283
    25   1 -6.3321140932913586e-05      7.1347738533723861 -1.2526160846444076e-06
    26   2 -6.3321140931079089e-05      8.9184675848662458      1.7836924788739295
    27   2      1.7836304103458991      7.1347738533728888      1.7836924788739681
    28   2      1.7836304103459009      8.9184675848661943 -1.2526152147710039e-06
    29   1 -6.3321140933664979e-05      7.1347738533725256      3.5673862103789871
    30   2 -6.3321140931830482e-05      8.9184675848663844      5.3510799418690009
    31   2      1.7836304103458984      7.1347738533730283        5.35107994186904
    32   2      1.7836304103459002      8.9184675848663346       3.567386210379857
    33   1 -6.3321140934416385e-05      7.1347738533726659      7.1347736733740588
    34   2 -6.3321140932581888e-05      8.9184675848665247      8.9184674048640726
    35   2      1.7836304103458975      7.1347738533731686      8.9184674048641117
    36   2      1.7836304103458993      8.9184675848664732      7.1347736733749283
    37   1      3.5673241418327408 -1.0726177692702741e-06 -1.2526160846444076e-06
    38   2      3.5673241418327426        1.78369265887609      1.7836924788739295
    39   2      5.3510178733195728  -1.072617265807774e-06      1.7836924788739681
    40   2      5.3510178733195746      1.7836926588760393 -1.2526152147710039e-06
    41   1      3.5673241418327399 -1.0726176295755672e-06      3.5673862103789871
    42   2      3.5673241418327417      1.7836926588762296      5.3510799418690009
    43   2      5.3510178733195719  -1.072617126113067e-06        5.35107994186904
    44   2      5.3510178733195737       1.783692658876179       3.567386210379857
    45   1      3.5673241418327395   -1.07261748988086e-06      7.1347736733740588
    46   2      3.5673241418327413      1.7836926588763693      8.9184674048640726
    47   2      5.3510178733195719 -1.0726169864183598e-06      8.9184674048641117
    48   2      5.3510178733195737      1.7836926588763187      7.1347736733749283
    49   1      3.5673241418327435      3.5673863903773082 -1.2526160846444076e-06
    50   2      3.5673241418327453       5.351080121871167      1.7836924788739295
    51   2      5.3510178733195755      3.5673863903778118      1.7836924788739681
    52   2      5.3510178733195772      5.3510801218711173 -1.2526152147710039e-06
    53   1      3.5673241418327426      3.5673863903774481      3.5673862103789871
    54   2      3.5673241418327444      5.3510801218713073      5.3510799418690009
    55   2      5.3510178733195746      3.5673863903779517        5.35107994186904
    56   2      5.3510178733195763      5.3510801218712567       3.567386210379857
    57   1      3.5673241418327422      3.5673863903775875      7.1347736733740588
    58   2      3.5673241418327439      5.3510801218714468      8.9184674048640726
    59   2      5.3510178733195746      3.5673863903780911      8.9184674048641117
    60   2      5.3510178733195763      5.3510801218713961      7.1347736733749283
    61   1      3.5673241418327466      7.1347738533723861 -1.2526160846444076e-06
    62   2      3.5673241418327484      8.9184675848662458      1.7836924788739295
    63   2       5.351017873319579      7.1347738533728888      1.7836924788739681
    64   2      5.3510178733195808      8.9184675848661943 -1.2526152147710039e-06
    65   1      3.5673241418327457      7.1347738533725256      3.5673862103789871
    66   2      3.5673241418327475      8.9184675848663844      5.3510799418690009
    67   2      5.3510178733195781      7.1347738533730283        5.35107994186904
    68   2      5.3510178733195799      8.9184675848663346       3.567386210379857
    69   1      3.5673241418327453      7.1347738533726659      7.1347736733740588
    70   2       3.567324141832747      8.9184675848665247      8.9184674048640726
    71   2      5.3510178733195772      7.1347738533731686      8.9184674048641117
    72   2       5.351017873319579      8.9184675848664732      7.1347736733749283
    73   1      7.1347116048064203 -1.0726177692702741e-06 -1.2526160846444076e-06
    74   2      7.1347116048064221        1.78369265887609      1.7836924788739295
    75   2      8.9184053362932527  -1.072617265807774e-06      1.7836924788739681
    76   2      8.9184053362932545      1.7836926588760393 -1.2526152147710039e-06
    77   1      7.1347116048064194 -1.0726176295755672e-06      3.5673862103789871
    78   2      7.1347116048064212      1.7836926588762296      5.3510799418690009
    79   2      8.9184053362932509  -1.072617126113067e-06        5.35107994186904
    80   2      8.9184053362932527       1.783692658876179       3.567386210379857
    81   1      7.1347116048064185   -1.07261748988086e-06      7.1347736733740588
    82   2      7.1347116048064203      1.7836926588763693      8.9184674048640726
    83   2      8.9184053362932509 -1.0726169864183598e-06      8.9184674048641117
    84   2      8.9184053362932527      1.7836926588763187      7.1347736733749283
    85   1       7.134711604806423      3.5673863903773082 -1.2526160846444076e-06
    86   2      7.1347116048064247       5.351080121871167      1.7836924788739295
    87   2      8.9184053362932545      3.5673863903778118      1.7836924788739681
    88   2      8.9184053362932563      5.3510801218711173 -1.2526152147710039e-06
    89   1      7.1347116048064221      3.5673863903774481      3.5673862103789871
    90   2      7.1347116048064239      5.3510801218713073      5.3510799418690009
    91   2      8.9184053362932545      3.5673863903779517        5.35107994186904
    92   2      8.9184053362932563      5.3510801218712567       3.567386210379857
    93   1      7.1347116048064212      3.5673863903775875      7.1347736733740588
    94   2       7.134711604806423      5.3510801218714468      8.9184674048640726
    95   2      8.9184053362932527      3.5673863903780911      8.9184674048641117
    96   2      8.9184053362932545      5.3510801218713961      7.1347736733749283
    97   1      7.1347116048064256      7.1347738533723861 -1.2526160846444076e-06
    98   2      7.1347116048064274      8.9184675848662458      1.7836924788739295
    99   2       8.918405336293258      7.1347738533728888      1.7836924788739681
   100   2      8.9184053362932598      8.9184675848661943 -1.2526152147710039e-06
   101   1      7.1347116048064247      7.1347738533725256      3.5673862103789871
   102   2      7.1347116048064265      8.9184675848663844      5.3510799418690009
   103   2      8.9184053362932563      7.1347738533730283        5.35107994186904
   104   2       8.918405336293258      8.9184675848663346       3.567386210379857
   105   1      7.1347116048064239      7.1347738533726659      7.1347736733740588
   106   2      7.1347116048064256      8.9184675848665247      8.9184674048640726
   107   2      8.9184053362932563      7.1347738533731686      8.9184674048641117
   108   2       8.918405336293258      8.9184675848664732      7.1347736733749283
