108
Lattice="10.702162388921039 0.0 0.0 8.41197921371163e-15 10.702162388985233 0.0 -2.254203077847943e-15 4.1908412109978755e-13 10.702162388985215" Properties=species:S:1:pos:R:3:masses:R:1:id:I:1:type:I:1 comment="(written by ASE)" config_id=AlNi3_supercell_0K source="LAMMPS mliap unified (Kokkos) zero-stress supercell, 0 K, NO MD run" pbc="T T T"
Al      -0.00006332      -0.00000107      -0.00000125      26.98153850        1        1
Ni      -0.00006332       1.78369266       1.78369248      58.69340000        2        2
Ni       1.78363041      -0.00000107       1.78369248      58.69340000        3        2
Ni       1.78363041       1.78369266      -0.00000125      58.69340000        4        2
Al      -0.00006332      -0.00000107       3.56738621      26.98153850        5        1
Ni      -0.00006332       1.78369266       5.35107994      58.69340000        6        2
Ni       1.78363041      -0.00000107       5.35107994      58.69340000        7        2
Ni       1.78363041       1.78369266       3.56738621      58.69340000        8        2
Al      -0.00006332      -0.00000107       7.13477367      26.98153850        9        1
Ni      -0.00006332       1.78369266       8.91846740      58.69340000       10        2
Ni       1.78363041      -0.00000107       8.91846740      58.69340000       11        2
Ni       1.78363041       1.78369266       7.13477367      58.69340000       12        2
Al      -0.00006332       3.56738639      -0.00000125      26.98153850       13        1
Ni      -0.00006332       5.35108012       1.78369248      58.69340000       14        2
Ni       1.78363041       3.56738639       1.78369248      58.69340000       15        2
Ni       1.78363041       5.35108012      -0.00000125      58.69340000       16        2
Al      -0.00006332       3.56738639       3.56738621      26.98153850       17        1
Ni      -0.00006332       5.35108012       5.35107994      58.69340000       18        2
Ni       1.78363041       3.56738639       5.35107994      58.69340000       19        2
Ni       1.78363041       5.35108012       3.56738621      58.69340000       20        2
Al      -0.00006332       3.56738639       7.13477367      26.98153850       21        1
Ni      -0.00006332       5.35108012       8.91846740      58.69340000       22        2
Ni       1.78363041       3.56738639       8.91846740      58.69340000       23        2
Ni       1.78363041       5.35108012       7.13477367      58.69340000       24        2
Al      -0.00006332       7.13477385      -0.00000125      26.98153850       25        1
Ni      -0.00006332       8.91846758       1.78369248      58.69340000       26        2
Ni       1.78363041       7.13477385       1.78369248      58.69340000       27        2
Ni       1.78363041       8.91846758      -0.00000125      58.69340000       28        2
Al      -0.00006332       7.13477385       3.56738621      26.98153850       29        1
Ni      -0.00006332       8.91846758       5.35107994      58.69340000       30        2
Ni       1.78363041       7.13477385       5.35107994      58.69340000       31        2
Ni       1.78363041       8.91846758       3.56738621      58.69340000       32        2
Al      -0.00006332       7.13477385       7.13477367      26.98153850       33        1
Ni      -0.00006332       8.91846758       8.91846740      58.69340000       34        2
Ni       1.78363041       7.13477385       8.91846740      58.69340000       35        2
Ni       1.78363041       8.91846758       7.13477367      58.69340000       36        2
Al       3.56732414      -0.00000107      -0.00000125      26.98153850       37        1
Ni       3.56732414       1.78369266       1.78369248      58.69340000       38        2
Ni       5.35101787      -0.00000107       1.78369248      58.69340000       39        2
Ni       5.35101787       1.78369266      -0.00000125      58.69340000       40        2
Al       3.56732414      -0.00000107       3.56738621      26.98153850       41        1
Ni       3.56732414       1.78369266       5.35107994      58.69340000       42        2
Ni       5.35101787      -0.00000107       5.35107994      58.69340000       43        2
Ni       5.35101787       1.78369266       3.56738621      58.69340000       44        2
Al       3.56732414      -0.00000107       7.13477367      26.98153850       45        1
Ni       3.56732414       1.78369266       8.91846740      58.69340000       46        2
Ni       5.35101787      -0.00000107       8.91846740      58.69340000       47        2
Ni       5.35101787       1.78369266       7.13477367      58.69340000       48        2
Al       3.56732414       3.56738639      -0.00000125      26.98153850       49        1
Ni       3.56732414       5.35108012       1.78369248      58.69340000       50        2
Ni       5.35101787       3.56738639       1.78369248      58.69340000       51        2
Ni       5.35101787       5.35108012      -0.00000125      58.69340000       52        2
Al       3.56732414       3.56738639       3.56738621      26.98153850       53        1
Ni       3.56732414       5.35108012       5.35107994      58.69340000       54        2
Ni       5.35101787       3.56738639       5.35107994      58.69340000       55        2
Ni       5.35101787       5.35108012       3.56738621      58.69340000       56        2
Al       3.56732414       3.56738639       7.13477367      26.98153850       57        1
Ni       3.56732414       5.35108012       8.91846740      58.69340000       58        2
Ni       5.35101787       3.56738639       8.91846740      58.69340000       59        2
Ni       5.35101787       5.35108012       7.13477367      58.69340000       60        2
Al       3.56732414       7.13477385      -0.00000125      26.98153850       61        1
Ni       3.56732414       8.91846758       1.78369248      58.69340000       62        2
Ni       5.35101787       7.13477385       1.78369248      58.69340000       63        2
Ni       5.35101787       8.91846758      -0.00000125      58.69340000       64        2
Al       3.56732414       7.13477385       3.56738621      26.98153850       65        1
Ni       3.56732414       8.91846758       5.35107994      58.69340000       66        2
Ni       5.35101787       7.13477385       5.35107994      58.69340000       67        2
Ni       5.35101787       8.91846758       3.56738621      58.69340000       68        2
Al       3.56732414       7.13477385       7.13477367      26.98153850       69        1
Ni       3.56732414       8.91846758       8.91846740      58.69340000       70        2
Ni       5.35101787       7.13477385       8.91846740      58.69340000       71        2
Ni       5.35101787       8.91846758       7.13477367      58.69340000       72        2
Al       7.13471160      -0.00000107      -0.00000125      26.98153850       73        1
Ni       7.13471160       1.78369266       1.78369248      58.69340000       74        2
Ni       8.91840534      -0.00000107       1.78369248      58.69340000       75        2
Ni       8.91840534       1.78369266      -0.00000125      58.69340000       76        2
Al       7.13471160      -0.00000107       3.56738621      26.98153850       77        1
Ni       7.13471160       1.78369266       5.35107994      58.69340000       78        2
Ni       8.91840534      -0.00000107       5.35107994      58.69340000       79        2
Ni       8.91840534       1.78369266       3.56738621      58.69340000       80        2
Al       7.13471160      -0.00000107       7.13477367      26.98153850       81        1
Ni       7.13471160       1.78369266       8.91846740      58.69340000       82        2
Ni       8.91840534      -0.00000107       8.91846740      58.69340000       83        2
Ni       8.91840534       1.78369266       7.13477367      58.69340000       84        2
Al       7.13471160       3.56738639      -0.00000125      26.98153850       85        1
Ni       7.13471160       5.35108012       1.78369248      58.69340000       86        2
Ni       8.91840534       3.56738639       1.78369248      58.69340000       87        2
Ni       8.91840534       5.35108012      -0.00000125      58.69340000       88        2
Al       7.13471160       3.56738639       3.56738621      26.98153850       89        1
Ni       7.13471160       5.35108012       5.35107994      58.69340000       90        2
Ni       8.91840534       3.56738639       5.35107994      58.69340000       91        2
Ni       8.91840534       5.35108012       3.56738621      58.69340000       92        2
Al       7.13471160       3.56738639       7.13477367      26.98153850       93        1
Ni       7.13471160       5.35108012       8.91846740      58.69340000       94        2
Ni       8.91840534       3.56738639       8.91846740      58.69340000       95        2
Ni       8.91840534       5.35108012       7.13477367      58.69340000       96        2
Al       7.13471160       7.13477385      -0.00000125      26.98153850       97        1
Ni       7.13471160       8.91846758       1.78369248      58.69340000       98        2
Ni       8.91840534       7.13477385       1.78369248      58.69340000       99        2
Ni       8.91840534       8.91846758      -0.00000125      58.69340000      100        2
Al       7.13471160       7.13477385       3.56738621      26.98153850      101        1
Ni       7.13471160       8.91846758       5.35107994      58.69340000      102        2
Ni       8.91840534       7.13477385       5.35107994      58.69340000      103        2
Ni       8.91840534       8.91846758       3.56738621      58.69340000      104        2
Al       7.13471160       7.13477385       7.13477367      26.98153850      105        1
Ni       7.13471160       8.91846758       8.91846740      58.69340000      106        2
Ni       8.91840534       7.13477385       8.91846740      58.69340000      107        2
Ni       8.91840534       8.91846758       7.13477367      58.69340000      108        2
