LAMMPS data file via write_data, version 22 Jul 2025, timestep = 30064, units = metal

8 atoms
2 atom types

-0.08869356064500367 3.8510001050152116 xlo xhi
0.002050019821573379 5.009732325371475 ylo yhi
0.045077354095123034 4.934706712706756 zlo zhi
0.017795700877983666 0.013956132995520634 -0.6012669482404674 xy xz yz

Masses

1 26.98153849305915
2 58.69339998490145

Atoms # atomic/kk

1 1 -0.03621108784787539 2.2791046439616247 2.4602943147864393 0 0 0
2 1 1.9268312083787162 0.6596782954292342 3.946536870374316 0 0 0
3 1 1.9066667470305887 3.7532303786001964 1.1761042077010448 0 0 0
4 2 -0.054032332201576126 4.38073147381668 4.880529993118885 0 -1 -1
5 2 -0.015354404458384374 1.9650891803608443 4.877603583435058 0 0 -1
6 2 3.667713330794281 -0.2931429138824522 2.503068615366083 -1 0 0
7 2 2.044634746357831 1.1027274138262448 1.4740864470887862 0 0 0
8 2 1.8513352462455857 3.2345702418804394 3.551730979957691 0 0 0

Velocities

1 1.6595044205699157 -0.06791126800656394 -1.9429764276172508
2 3.7683207646233488 -0.3345874879889684 8.826033408033863
3 3.912963457678983 -3.6998344877492166 2.087525931707944
4 0.636427314241548 3.1134160104868647 1.8549027253976733
5 -2.329183666884189 -3.041557228828327 -0.9800245296576934
6 -0.6513313502445843 -1.5949524172935328 1.2364577316763554
7 -0.9330876425707499 2.892906612289664 -2.1621914801603306
8 -1.0168142409014433 0.5160423726002967 -4.072949307954402
