LAMMPS data file via write_data, version 22 Jul 2025, timestep = 30078, units = metal

16 atoms
2 atom types

-0.01826859958064775 4.843773119646008 xlo xhi
-0.03871359238889749 6.661747499205729 ylo yhi
0.04327403705992339 7.3392170731428585 zlo zhi
-0.03975557973052816 0.009956812664274249 -0.19992301874355065 xy xz yz

Masses

1 26.98153849305915
2 58.69339998490145

Atoms # atomic/kk

1 1 4.340768480787416 -0.07666568246707428 1.8280199413425913 0 0 0
2 1 1.6225124886146218 1.0163858998696744 3.3680463003921637 0 0 0
3 1 1.8111202590735545 1.042341288692883 0.4873572985797956 0 0 0
4 1 4.046046307201502 2.1607547633746735 4.080128073455587 0 0 0
5 1 0.5963928819636511 4.4410414207608335 3.3577750841558736 0 0 0
6 1 3.173213195867733 5.353908576524284 6.938038782724181 0 0 0
7 1 0.6548777050944414 4.389176433427506 0.45024265487744836 0 0 0
8 1 2.9718553895364668 5.4586437417788 4.108424348670908 0 0 0
9 1 4.286324985190419 1.9759741479421802 6.988191573073057 0 0 0
10 1 2.7341578409824256 3.406838410048674 1.8244540158151779 0 0 0
11 1 0.3056507356424434 6.425230249489348 5.509297197141759 0 0 0
12 1 1.9019840041440996 3.1540156393335077 5.512813292042151 0 0 0
13 2 2.1394671694542664 5.717353897820481 1.8615188197284034 0 0 0
14 2 0.22811638700776046 2.316008549300665 1.7886323156200112 0 0 0
15 2 2.7813217225351385 0.7766966893327972 5.517713606947886 0 0 0
16 2 4.593907368584045 3.9400868879806064 5.52456557580582 0 0 0

Velocities

1 1.1336754425933284 -1.335949610345248 1.152583924305754
2 4.167072956387844 3.226829190063573 0.12003806053562134
3 2.8308029469619296 -0.4913241222741397 -0.6107276545644594
4 1.9367521095785465 -0.9865762840250171 0.6556239882674653
5 -0.866792302379942 -1.0319636021195284 -3.661373431077159
6 6.254712630166271 3.8908135569932063 -1.4515134016386526
7 3.2875592436100063 3.623103354673062 -4.393400541143567
8 -2.195517388660627 -0.25896767945385585 2.8532566892427647
9 -3.3023269924040903 -5.987741950024726 0.5160700961459006
10 -1.4343126950769438 5.151898880321649 0.40691741859790825
11 0.5778211154802351 -1.4749544920969415 -4.0939346607489355
12 -2.470353875789854 -1.7598722258474038 -1.002936333446191
13 -3.7197293440086168 0.59022356566034 2.4853173123739993
14 1.8044022820388295 1.8696669234150491 -1.0355304221722794
15 -3.2162409566911974 -3.328652332653816 1.6004548395992617
16 0.5717300334077376 -0.31051225256202275 1.3212571119378718
