LAMMPS data file via write_data, version 22 Jul 2025, timestep = 30007, units = metal

4 atoms
2 atom types

0.03833049184485238 3.528930329538792 xlo xhi
-0.0651526221751646 3.632538297687569 ylo yhi
0.0003218398535016487 3.5670638356589084 zlo zhi
-0.017755970674204775 -0.04861910729557076 -0.15439026000573652 xy xz yz

Masses

1 26.98153849305915
2 58.69339998490145

Atoms # atomic/kk

1 1 0.08922443977712233 -0.06005953763256445 0.019174489220922186 0 0 0
2 2 0.05061596589420195 1.6938975338837836 1.8132411283008176 0 0 0
3 2 1.7098242863578115 3.554062074904185 1.7002305922294665 0 -1 0
4 2 1.7376239250336913 1.7952322098668745 0.045567931904122366 0 0 0

Velocities

1 0.6931446551413741 1.368628791312861 1.7291253582669976
2 -0.19551483467225286 -0.6738379598789664 0.16269622005919313
3 0.1793104499338259 -1.5731169763638728 -1.0644557868619586
4 -0.3024363687153542 1.6177920248248974 0.10687526251285112
