LAMMPS data file via write_data, version 22 Jul 2025, timestep = 15003, units = metal

2 atoms
2 atom types

-0.0007189206019149628 2.8947271593540553 xlo xhi
-0.0007189206019148962 2.894727159354055 ylo yhi
-0.0007189206019149785 2.8947271593540553 zlo zhi
-1.8621574791868267e-16 -1.9210563302383843e-16 -1.1310003138161833e-16 xy xz yz

Masses

1 26.98153849305915
2 58.69339998490145

Atoms # atomic/kk

1 1 1.5056343295770687 1.505634329576906 1.505634329577159 0 0 0
2 2 2.867774669763274 2.8677746697631346 2.8677746697633677 -1 -1 -1

Velocities

1 -0.3774741273862863 -0.37747412738616326 -0.3774741273862094
2 0.1735260301980684 0.17352603019799523 0.1735260301980029
