
     Program PWSCF v.7.6 starts on  6Aug2026 at 15:48:56 

     This program is part of the open-source Quantum ESPRESSO suite
     for quantum simulation of materials; please cite
         "P. Giannozzi et al., J. Phys.:Condens. Matter 21 395502 (2009);
         "P. Giannozzi et al., J. Phys.:Condens. Matter 29 465901 (2017);
         "P. Giannozzi et al., J. Chem. Phys. 152 154105 (2020);
          URL http://www.quantum-espresso.org", 
     in publications or presentations arising from this work. More details at
     http://www.quantum-espresso.org/quote

     Parallel version (MPI), running on     4 processors

     MPI processes distributed on     1 nodes
     1955 MiB available memory on the printing compute node when the environment starts

     Reading input from /home/linuxuser/ni_al_dft_work/cloud_static_inputs/diverse_pilot_01/AlNi3/rattle_003/AlNi3_rattle_003.in

     Current dimensions of program PWSCF are:
     Max number of different atomic species (ntypx) = 10
     Max number of k-points (npk) =  40000
     Max angular momentum in pseudopotentials (lmaxx) =  4
     file Al.pbe-n-kjpaw_psl.1.0.0.UPF: wavefunction(s)  3S 3P renormalized

     IMPORTANT: XC functional enforced from input :
     Exchange-correlation= PBE
                           (   1   4   3   4   0   0   0)
     Any further DFT definition will be discarded
     Please, verify this is what you really want


     K-points division:     npool     =       2
     R & G space division:  proc/nbgrp/npool/nimage =       2
     Subspace diagonalization in iterative solution of the eigenvalue problem:
     a serial algorithm will be used


     Parallelization info
     --------------------
     sticks:   dense  smooth     PW     G-vecs:    dense   smooth      PW
     Min        1296     652    188                49934    17754    2787
     Max        1297     653    189                49939    17759    2788
     Sum        2593    1305    377                99873    35513    5575

     Using Slab Decomposition



     bravais-lattice index     =            0
     lattice parameter (alat)  =       6.7411  a.u.
     unit-cell volume          =     306.3595 (a.u.)^3
     number of atoms/cell      =            4
     number of atomic types    =            2
     number of electrons       =        57.00
     number of Kohn-Sham states=           35
     kinetic-energy cutoff     =      90.0000  Ry
     charge density cutoff     =     720.0000  Ry
     scf convergence threshold =      1.0E-10
     mixing beta               =       0.3000
     number of iterations used =            8  plain     mixing
     Exchange-correlation= PBE
                           (   1   4   3   4   0   0   0)

     celldm(1)=   6.741146  celldm(2)=   0.000000  celldm(3)=   0.000000
     celldm(4)=   0.000000  celldm(5)=   0.000000  celldm(6)=   0.000000

     crystal axes: (cart. coord. in units of alat)
               a(1) = (   1.000000   0.000000  -0.000000 )  
               a(2) = (   0.000000   1.000035   0.000000 )  
               a(3) = (   0.000000   0.000000   1.000035 )  

     reciprocal axes: (cart. coord. in units 2 pi/alat)
               b(1) = (  1.000000  0.000000  0.000000 )  
               b(2) = ( -0.000000  0.999965  0.000000 )  
               b(3) = (  0.000000 -0.000000  0.999965 )  


     PseudoPot. # 1 for Al read from file:
     /home/linuxuser/ni_al_dft_work/cloud_static_inputs/pseudo/Al.pbe-n-kjpaw_psl.1.0.0.UPF
     MD5 check sum: cfc449ca30b5f3223ec38ddd88ac046d
     Pseudo is Projector augmented-wave + core cor, Zval =  3.0
     Generated using "atomic" code by A. Dal Corso  v.5.1
     Shape of augmentation charge: PSQ
     Using radial grid of 1135 points,  6 beta functions with: 
                l(1) =   0
                l(2) =   0
                l(3) =   1
                l(4) =   1
                l(5) =   2
                l(6) =   2
     Q(r) pseudized with 0 coefficients 


     PseudoPot. # 2 for Ni read from file:
     /home/linuxuser/ni_al_dft_work/cloud_static_inputs/pseudo/ni_pbe_v1.4.uspp.F.UPF
     MD5 check sum: 1ee80287db30b12d2bc1f57a5b5d6409
     Pseudo is Ultrasoft + core correction, Zval = 18.0
     Generated by new atomic code, or converted to UPF format
     Using radial grid of  865 points,  6 beta functions with: 
                l(1) =   0
                l(2) =   0
                l(3) =   1
                l(4) =   1
                l(5) =   2
                l(6) =   2
     Q(r) pseudized with 10 coefficients,  rinner =    0.980   0.980   0.980
                                                       0.980   0.980

     atomic species   valence    mass     pseudopotential
     Al                3.00    26.98154     Al( 1.00)
     Ni               18.00    58.69340     Ni( 1.00)

     Starting magnetic structure 
     atomic species   magnetization
     Al              0.000
     Ni              0.600

     No symmetry found



   Cartesian axes

     site n.     atom                  positions (alat units)
         1        Al     tau(   1) = (   0.0044361   0.0100244   0.9942259  )
         2        Ni     tau(   2) = (   0.9996414   0.4920331   0.5066592  )
         3        Ni     tau(   3) = (   0.4982313   0.0035776   0.5017601  )
         4        Ni     tau(   4) = (   0.4976912   0.4943998   0.9974587  )

     number of k points=  1376  Marzari-Vanderbilt smearing, width (Ry)=  0.0100

     Number of k-points >= 100: set verbosity='high' to print them.

     Dense  grid:    99873 G-vectors     FFT dimensions: (  60,  60,  60)

     Smooth grid:    35513 G-vectors     FFT dimensions: (  45,  45,  45)

     Estimated max dynamical RAM per process >       1.72 GB

     Estimated total dynamical RAM >       6.82 GB

     Check: negative core charge=   -0.000004
     Generating pointlists ...
     new r_m :   0.2828 (alat units)  1.9065 (a.u.) for type    1
     new r_m :   0.2828 (alat units)  1.9065 (a.u.) for type    2

     Initial potential from superposition of free atoms

     starting charge      50.9977, renormalised to      57.0000
     Starting wfcs are   43 randomized atomic wfcs
     Checking if some PAW data can be deallocated... 

     total cpu time spent up to now is       60.9 secs

     Self-consistent Calculation

     iteration #  1     ecut=    90.00 Ry     beta= 0.30
     Davidson diagonalization with overlap
     ethr =  1.00E-02,  avg # of iterations =  6.1

     total cpu time spent up to now is      298.3 secs

     total energy              =   -1032.54505098 Ry
     estimated scf accuracy    <     149.17586585 Ry

     total magnetization       =     5.46 Bohr mag/cell
     absolute magnetization    =     5.81 Bohr mag/cell

     iteration #  2     ecut=    90.00 Ry     beta= 0.30
     Davidson diagonalization with overlap
     ethr =  1.00E-02,  avg # of iterations =  4.2

     total cpu time spent up to now is      524.8 secs

     total energy              =   -1065.45344706 Ry
     estimated scf accuracy    <      27.59911019 Ry

     total magnetization       =     0.71 Bohr mag/cell
     absolute magnetization    =     2.24 Bohr mag/cell

     iteration #  3     ecut=    90.00 Ry     beta= 0.30
     Davidson diagonalization with overlap
     ethr =  1.00E-02,  avg # of iterations =  2.0

     total cpu time spent up to now is      668.7 secs

     total energy              =   -1068.76122518 Ry
     estimated scf accuracy    <       3.58258397 Ry

     total magnetization       =     4.24 Bohr mag/cell
     absolute magnetization    =     5.79 Bohr mag/cell

     iteration #  4     ecut=    90.00 Ry     beta= 0.30
     Davidson diagonalization with overlap
     ethr =  6.29E-03,  avg # of iterations =  1.6

     total cpu time spent up to now is      791.3 secs

     total energy              =   -1069.31879966 Ry
     estimated scf accuracy    <       1.07195540 Ry

     total magnetization       =     2.73 Bohr mag/cell
     absolute magnetization    =     4.25 Bohr mag/cell

     iteration #  5     ecut=    90.00 Ry     beta= 0.30
     Davidson diagonalization with overlap
     ethr =  1.88E-03,  avg # of iterations =  2.3

     total cpu time spent up to now is      919.7 secs

     total energy              =   -1069.41847635 Ry
     estimated scf accuracy    <       0.24349848 Ry

     total magnetization       =     1.90 Bohr mag/cell
     absolute magnetization    =     3.19 Bohr mag/cell

     iteration #  6     ecut=    90.00 Ry     beta= 0.30
     Davidson diagonalization with overlap
     ethr =  4.27E-04,  avg # of iterations =  1.9

     total cpu time spent up to now is     1040.6 secs

     total energy              =   -1069.43583340 Ry
     estimated scf accuracy    <       0.40993338 Ry

     total magnetization       =     1.34 Bohr mag/cell
     absolute magnetization    =     2.42 Bohr mag/cell

     iteration #  7     ecut=    90.00 Ry     beta= 0.30
     Davidson diagonalization with overlap
     ethr =  4.27E-04,  avg # of iterations =  1.0

     total cpu time spent up to now is     1155.4 secs

     total energy              =   -1069.45397342 Ry
     estimated scf accuracy    <       0.08852553 Ry

     total magnetization       =     0.92 Bohr mag/cell
     absolute magnetization    =     1.84 Bohr mag/cell

     iteration #  8     ecut=    90.00 Ry     beta= 0.30
     Davidson diagonalization with overlap
     ethr =  1.55E-04,  avg # of iterations =  1.4

     total cpu time spent up to now is     1273.4 secs

     total energy              =   -1069.45690651 Ry
     estimated scf accuracy    <       0.03475161 Ry

     total magnetization       =     0.91 Bohr mag/cell
     absolute magnetization    =     1.66 Bohr mag/cell

     iteration #  9     ecut=    90.00 Ry     beta= 0.30
     Davidson diagonalization with overlap
     ethr =  6.10E-05,  avg # of iterations =  2.1

     total cpu time spent up to now is     1411.8 secs

     total energy              =   -1069.45237721 Ry
     estimated scf accuracy    <       0.03198359 Ry

     total magnetization       =     0.84 Bohr mag/cell
     absolute magnetization    =     1.34 Bohr mag/cell

     iteration # 10     ecut=    90.00 Ry     beta= 0.30
     Davidson diagonalization with overlap
     ethr =  5.61E-05,  avg # of iterations =  2.2

     total cpu time spent up to now is     1555.2 secs

     total energy              =   -1069.45998459 Ry
     estimated scf accuracy    <       0.04764505 Ry

     total magnetization       =     0.73 Bohr mag/cell
     absolute magnetization    =     1.17 Bohr mag/cell

     iteration # 11     ecut=    90.00 Ry     beta= 0.30
     Davidson diagonalization with overlap
     ethr =  5.61E-05,  avg # of iterations =  1.6

     total cpu time spent up to now is     1685.2 secs

     total energy              =   -1069.46515264 Ry
     estimated scf accuracy    <       0.00031786 Ry

     total magnetization       =     0.80 Bohr mag/cell
     absolute magnetization    =     1.11 Bohr mag/cell

     iteration # 12     ecut=    90.00 Ry     beta= 0.30
     Davidson diagonalization with overlap
     ethr =  5.58E-07,  avg # of iterations =  4.5

     total cpu time spent up to now is     1852.2 secs

     total energy              =   -1069.46535804 Ry
     estimated scf accuracy    <       0.00032326 Ry

     total magnetization       =     0.80 Bohr mag/cell
     absolute magnetization    =     1.06 Bohr mag/cell

     iteration # 13     ecut=    90.00 Ry     beta= 0.30
     Davidson diagonalization with overlap
     ethr =  5.58E-07,  avg # of iterations =  1.4

     total cpu time spent up to now is     1972.1 secs

     total energy              =   -1069.46539756 Ry
     estimated scf accuracy    <       0.00003653 Ry

     total magnetization       =     0.80 Bohr mag/cell
     absolute magnetization    =     1.04 Bohr mag/cell

     iteration # 14     ecut=    90.00 Ry     beta= 0.30
     Davidson diagonalization with overlap
     ethr =  6.41E-08,  avg # of iterations =  1.4

     total cpu time spent up to now is     2093.2 secs

     total energy              =   -1069.46539449 Ry
     estimated scf accuracy    <       0.00005244 Ry

     total magnetization       =     0.81 Bohr mag/cell
     absolute magnetization    =     1.04 Bohr mag/cell

     iteration # 15     ecut=    90.00 Ry     beta= 0.30
     Davidson diagonalization with overlap
     ethr =  6.41E-08,  avg # of iterations =  1.5

     total cpu time spent up to now is     2221.7 secs

     total energy              =   -1069.46539626 Ry
     estimated scf accuracy    <       0.00000759 Ry

     total magnetization       =     0.80 Bohr mag/cell
     absolute magnetization    =     1.03 Bohr mag/cell

     iteration # 16     ecut=    90.00 Ry     beta= 0.30
     Davidson diagonalization with overlap
     ethr =  1.33E-08,  avg # of iterations =  1.6

     total cpu time spent up to now is     2360.9 secs

     total energy              =   -1069.46539799 Ry
     estimated scf accuracy    <       0.00000005 Ry

     total magnetization       =     0.80 Bohr mag/cell
     absolute magnetization    =     1.02 Bohr mag/cell

     iteration # 17     ecut=    90.00 Ry     beta= 0.30
     Davidson diagonalization with overlap
     ethr =  8.13E-11,  avg # of iterations =  3.8

     total cpu time spent up to now is     2530.2 secs

     total energy              =   -1069.46539801 Ry
     estimated scf accuracy    <       0.00000004 Ry

     total magnetization       =     0.80 Bohr mag/cell
     absolute magnetization    =     1.02 Bohr mag/cell

     iteration # 18     ecut=    90.00 Ry     beta= 0.30
     Davidson diagonalization with overlap
     ethr =  7.42E-11,  avg # of iterations =  2.0

     total cpu time spent up to now is     2667.6 secs

     total energy              =   -1069.46539802 Ry
     estimated scf accuracy    <       0.00000003 Ry

     total magnetization       =     0.80 Bohr mag/cell
     absolute magnetization    =     1.02 Bohr mag/cell

     iteration # 19     ecut=    90.00 Ry     beta= 0.30
     Davidson diagonalization with overlap
     ethr =  4.85E-11,  avg # of iterations =  1.2

     total cpu time spent up to now is     2785.2 secs

     total energy              =   -1069.46539802 Ry
     estimated scf accuracy    <       0.00000002 Ry

     total magnetization       =     0.80 Bohr mag/cell
     absolute magnetization    =     1.02 Bohr mag/cell

     iteration # 20     ecut=    90.00 Ry     beta= 0.30
     Davidson diagonalization with overlap
     ethr =  3.79E-11,  avg # of iterations =  1.5

     total cpu time spent up to now is     2907.6 secs

     total energy              =   -1069.46539802 Ry
     estimated scf accuracy    <          9.4E-10 Ry

     total magnetization       =     0.80 Bohr mag/cell
     absolute magnetization    =     1.02 Bohr mag/cell

     iteration # 21     ecut=    90.00 Ry     beta= 0.30
     Davidson diagonalization with overlap
     ethr =  1.65E-12,  avg # of iterations =  2.0

     total cpu time spent up to now is     3045.6 secs

     total energy              =   -1069.46539803 Ry
     estimated scf accuracy    <          1.5E-09 Ry

     total magnetization       =     0.80 Bohr mag/cell
     absolute magnetization    =     1.02 Bohr mag/cell

     iteration # 22     ecut=    90.00 Ry     beta= 0.30
     Davidson diagonalization with overlap
     ethr =  1.65E-12,  avg # of iterations =  1.0

     total cpu time spent up to now is     3160.3 secs

     total energy              =   -1069.46539803 Ry
     estimated scf accuracy    <          1.8E-10 Ry

     total magnetization       =     0.80 Bohr mag/cell
     absolute magnetization    =     1.02 Bohr mag/cell

     iteration # 23     ecut=    90.00 Ry     beta= 0.30
     Davidson diagonalization with overlap
     ethr =  3.21E-13,  avg # of iterations =  2.0

     Magnetic moment per site  (integrated on atomic sphere of radius R)
     atom   1 (R=0.283)  charge=  1.1696  magn= -0.0178
     atom   2 (R=0.283)  charge= 16.6497  magn=  0.3003
     atom   3 (R=0.283)  charge= 16.6481  magn=  0.3015
     atom   4 (R=0.283)  charge= 16.6488  magn=  0.3006

     total cpu time spent up to now is     3287.9 secs

     End of self-consistent calculation

     Number of k-points >= 100: set verbosity='high' to print the bands.

     the Fermi energy is    15.5025 ev

!    total energy              =   -1069.46539803 Ry
     estimated scf accuracy    <          7.0E-11 Ry
     smearing contrib. (-TS)   =       0.00049907 Ry
     internal energy E=F+TS    =   -1069.46589710 Ry

     The total energy is F=E-TS. E is the sum of the following terms:
     one-electron contribution =    -699.56509371 Ry
     hartree contribution      =     382.92289238 Ry
     xc contribution           =    -109.45622436 Ry
     ewald contribution        =    -608.68153494 Ry
     one-center paw contrib.   =     -34.68593647 Ry

     total magnetization       =     0.80 Bohr mag/cell
     absolute magnetization    =     1.02 Bohr mag/cell

     convergence has been achieved in  23 iterations

     Forces acting on atoms (cartesian axes, Ry/au):

     atom    1 type  1   force =    -0.00699044   -0.01845991    0.01107864
     atom    2 type  2   force =    -0.00232050    0.01722257   -0.01282622
     atom    3 type  2   force =     0.00429788   -0.01302244   -0.00672268
     atom    4 type  2   force =     0.00501306    0.01425978    0.00847026

     Total force =     0.038889     Total SCF correction =     0.000004


     Computing stress (Cartesian axis) and pressure

          total   stress  (Ry/bohr**3)                   (kbar)     P=        3.95
   0.00002731   0.00000529  -0.00000118            4.02        0.78       -0.17
   0.00000529   0.00002588  -0.00001187            0.78        3.81       -1.75
  -0.00000118  -0.00001187   0.00002738           -0.17       -1.75        4.03


     Writing all to output data dir /home/linuxuser/ni_al_dft_work/cloud_static_inputs/diverse_pilot_01/AlNi3/rattle_003/tmp/AlNi3_rattle_003.save/ :
     XML data file, charge density, pseudopotentials, collected wavefunctions

     init_run     :     57.76s CPU     60.72s WALL (       1 calls)
     electrons    :   3117.95s CPU   3227.02s WALL (       1 calls)
     forces       :      7.72s CPU      7.91s WALL (       1 calls)
     stress       :     30.17s CPU     30.80s WALL (       1 calls)

     Called by init_run:
     wfcinit      :     56.52s CPU     59.30s WALL (       1 calls)
     potinit      :      0.43s CPU      0.50s WALL (       1 calls)
     hinit0       :      0.45s CPU      0.46s WALL (       1 calls)

     Called by electrons:
     c_bands      :   2653.87s CPU   2740.48s WALL (      23 calls)
     sum_band     :    453.98s CPU    473.81s WALL (      23 calls)
     v_of_rho     :      1.59s CPU      1.80s WALL (      24 calls)
     newd         :      2.46s CPU      4.08s WALL (      24 calls)
     PAW_pot      :      6.18s CPU      7.11s WALL (      24 calls)
     mix_rho      :      0.17s CPU      0.17s WALL (      23 calls)

     Called by c_bands:
     init_us_2    :     39.75s CPU     40.24s WALL (   67424 calls)
     cegterg      :   2376.39s CPU   2462.04s WALL (   31648 calls)

     Called by *egterg:
     cdiaghg      :     84.13s CPU     84.67s WALL (   97895 calls)
     h_psi        :   1973.87s CPU   2057.81s WALL (   99271 calls)
     s_psi        :     71.09s CPU     71.67s WALL (   99271 calls)
     g_psi        :     10.74s CPU     10.82s WALL (   66247 calls)

     Called by h_psi:
     h_psi:calbec :     88.90s CPU     92.49s WALL (   99271 calls)
     vloc_psi     :   1807.28s CPU   1887.04s WALL (   99271 calls)
     add_vuspsi   :     72.03s CPU     72.59s WALL (   99271 calls)

     General routines
     calbec       :    145.11s CPU    150.38s WALL (  154311 calls)
     fft          :      0.94s CPU      1.03s WALL (     638 calls)
     ffts         :      0.10s CPU      0.10s WALL (      94 calls)
     fftw         :   2026.68s CPU   2115.31s WALL ( 6419032 calls)
     interpolate  :      0.13s CPU      0.13s WALL (      48 calls)

     Parallel routines

     PWSCF        :  53m35.33s CPU  55m31.16s WALL


   This run was terminated on:  16:44:27   6Aug2026            

=------------------------------------------------------------------------------=
   JOB DONE.
=------------------------------------------------------------------------------=
Note: The following floating-point exceptions are signalling: IEEE_UNDERFLOW_FLAG IEEE_DENORMAL
Note: The following floating-point exceptions are signalling: IEEE_UNDERFLOW_FLAG IEEE_DENORMAL
Note: The following floating-point exceptions are signalling: IEEE_UNDERFLOW_FLAG IEEE_DENORMAL
Note: The following floating-point exceptions are signalling: IEEE_UNDERFLOW_FLAG IEEE_DENORMAL
