8
Lattice="3.762306544370215 0.0 0.0 0.0 4.98132396319852 -0.5517008693599039 0.0 -0.01383023885710491 5.011764785449018" Properties=species:S:1:pos:R:3 config_id=Al3Ni5_dft_relaxed phase=Al3Ni5 config_type=relaxed source="DFT (QE 7.6, PBE) relaxed reference cell, data/datasets/ni_al_combined227_dft.extxyz" dataset_origin=Pilot-25 source_record=Pilot-25:Al3Ni5_relaxed original_dataset=/workspace/ni_al/data/processed/ni_al_pilot_dft_25.extxyz original_dataset_sha256=35b2b65fe77d181b5da30dd23bbb7ff9fc4f41c0c0f603738172e2f833ab5b0b provenance=/workspace/ni_al/configs/PILOT25_PROVENANCE.txt qe_output_sha256=historical_not_recorded canonical_input=historical_not_recorded canonical_input_sha256=historical_not_recorded pbc="T T T"
Al       0.00000000       2.48374724       2.23003083
Al       1.88115327       1.08762639       3.78500153
Al       1.88115327       3.87986771       0.67506051
Ni       0.00000000       0.00000000       0.00000000
Ni       0.00000000       2.49066236      -0.27585119
Ni       0.00000000      -0.00691512       2.50588239
Ni       1.88115327       1.37310155       1.23285556
Ni       1.88115327       3.59439255       3.22720648
