2
Lattice="2.89400823875214 0.0 -0.0 -0.0 2.89400823875214 -0.0 0.0 -0.0 2.89400823875214" Properties=species:S:1:pos:R:3 config_id=AlNi_dft_relaxed phase=AlNi config_type=relaxed source="DFT (QE 7.6, PBE) relaxed reference cell, data/datasets/ni_al_combined227_dft.extxyz" dataset_origin=Pilot-25 source_record=Pilot-25:AlNi_relaxed original_dataset=/workspace/ni_al/data/processed/ni_al_pilot_dft_25.extxyz original_dataset_sha256=35b2b65fe77d181b5da30dd23bbb7ff9fc4f41c0c0f603738172e2f833ab5b0b provenance=/workspace/ni_al/configs/PILOT25_PROVENANCE.txt qe_output_sha256=historical_not_recorded canonical_input=historical_not_recorded canonical_input_sha256=historical_not_recorded pbc="T T T"
Al       1.44700412       1.44700412       1.44700412
Ni       0.00000000       0.00000000       0.00000000
