
     Program PWSCF v.7.6 starts on  6Aug2026 at 16:44:27 

     This program is part of the open-source Quantum ESPRESSO suite
     for quantum simulation of materials; please cite
         "P. Giannozzi et al., J. Phys.:Condens. Matter 21 395502 (2009);
         "P. Giannozzi et al., J. Phys.:Condens. Matter 29 465901 (2017);
         "P. Giannozzi et al., J. Chem. Phys. 152 154105 (2020);
          URL http://www.quantum-espresso.org", 
     in publications or presentations arising from this work. More details at
     http://www.quantum-espresso.org/quote

     Parallel version (MPI), running on     4 processors

     MPI processes distributed on     1 nodes
     6869 MiB available memory on the printing compute node when the environment starts

     Reading input from /home/linuxuser/ni_al_dft_work/cloud_static_inputs/diverse_pilot_01/AlNi3/shear015_rattle002/AlNi3_shear015_rattle002.in

     Current dimensions of program PWSCF are:
     Max number of different atomic species (ntypx) = 10
     Max number of k-points (npk) =  40000
     Max angular momentum in pseudopotentials (lmaxx) =  4
     file Al.pbe-n-kjpaw_psl.1.0.0.UPF: wavefunction(s)  3S 3P renormalized

     IMPORTANT: XC functional enforced from input :
     Exchange-correlation= PBE
                           (   1   4   3   4   0   0   0)
     Any further DFT definition will be discarded
     Please, verify this is what you really want


     K-points division:     npool     =       2
     R & G space division:  proc/nbgrp/npool/nimage =       2
     Subspace diagonalization in iterative solution of the eigenvalue problem:
     a serial algorithm will be used


     Parallelization info
     --------------------
     sticks:   dense  smooth     PW     G-vecs:    dense   smooth      PW
     Min        1298     652    190                49950    17670    2805
     Max        1299     653    191                49951    17671    2806
     Sum        2597    1305    381                99901    35341    5611

     Using Slab Decomposition



     bravais-lattice index     =            0
     lattice parameter (alat)  =       6.7411  a.u.
     unit-cell volume          =     306.3595 (a.u.)^3
     number of atoms/cell      =            4
     number of atomic types    =            2
     number of electrons       =        57.00
     number of Kohn-Sham states=           35
     kinetic-energy cutoff     =      90.0000  Ry
     charge density cutoff     =     720.0000  Ry
     scf convergence threshold =      1.0E-10
     mixing beta               =       0.3000
     number of iterations used =            8  plain     mixing
     Exchange-correlation= PBE
                           (   1   4   3   4   0   0   0)

     celldm(1)=   6.741146  celldm(2)=   0.000000  celldm(3)=   0.000000
     celldm(4)=   0.000000  celldm(5)=   0.000000  celldm(6)=   0.000000

     crystal axes: (cart. coord. in units of alat)
               a(1) = (   1.000000   0.000000   0.000000 )  
               a(2) = (   0.015001   1.000035   0.000000 )  
               a(3) = (   0.000000   0.000000   1.000035 )  

     reciprocal axes: (cart. coord. in units 2 pi/alat)
               b(1) = (  1.000000 -0.015000  0.000000 )  
               b(2) = (  0.000000  0.999965  0.000000 )  
               b(3) = (  0.000000  0.000000  0.999965 )  


     PseudoPot. # 1 for Al read from file:
     /home/linuxuser/ni_al_dft_work/cloud_static_inputs/pseudo/Al.pbe-n-kjpaw_psl.1.0.0.UPF
     MD5 check sum: cfc449ca30b5f3223ec38ddd88ac046d
     Pseudo is Projector augmented-wave + core cor, Zval =  3.0
     Generated using "atomic" code by A. Dal Corso  v.5.1
     Shape of augmentation charge: PSQ
     Using radial grid of 1135 points,  6 beta functions with: 
                l(1) =   0
                l(2) =   0
                l(3) =   1
                l(4) =   1
                l(5) =   2
                l(6) =   2
     Q(r) pseudized with 0 coefficients 


     PseudoPot. # 2 for Ni read from file:
     /home/linuxuser/ni_al_dft_work/cloud_static_inputs/pseudo/ni_pbe_v1.4.uspp.F.UPF
     MD5 check sum: 1ee80287db30b12d2bc1f57a5b5d6409
     Pseudo is Ultrasoft + core correction, Zval = 18.0
     Generated by new atomic code, or converted to UPF format
     Using radial grid of  865 points,  6 beta functions with: 
                l(1) =   0
                l(2) =   0
                l(3) =   1
                l(4) =   1
                l(5) =   2
                l(6) =   2
     Q(r) pseudized with 10 coefficients,  rinner =    0.980   0.980   0.980
                                                       0.980   0.980

     atomic species   valence    mass     pseudopotential
     Al                3.00    26.98154     Al( 1.00)
     Ni               18.00    58.69340     Ni( 1.00)

     Starting magnetic structure 
     atomic species   magnetization
     Al              0.000
     Ni              0.600

     No symmetry found



   Cartesian axes

     site n.     atom                  positions (alat units)
         1        Al     tau(   1) = (   0.9998242   0.0092145   0.0082306  )
         2        Ni     tau(   2) = (   0.0080083   0.4900687   0.5044410  )
         3        Ni     tau(   3) = (   0.4913087   0.0001198   0.4984764  )
         4        Ni     tau(   4) = (   0.5158593   0.5006319   0.9889212  )

     number of k points=  1376  Marzari-Vanderbilt smearing, width (Ry)=  0.0100

     Number of k-points >= 100: set verbosity='high' to print them.

     Dense  grid:    99901 G-vectors     FFT dimensions: (  60,  60,  60)

     Smooth grid:    35341 G-vectors     FFT dimensions: (  45,  45,  45)

     Estimated max dynamical RAM per process >       1.72 GB

     Estimated total dynamical RAM >       6.82 GB

     Check: negative core charge=   -0.000004
     Generating pointlists ...
     new r_m :   0.2846 (alat units)  1.9187 (a.u.) for type    1
     new r_m :   0.2839 (alat units)  1.9138 (a.u.) for type    2

     Initial potential from superposition of free atoms

     starting charge      50.9977, renormalised to      57.0000
     Starting wfcs are   43 randomized atomic wfcs
     Checking if some PAW data can be deallocated... 

     total cpu time spent up to now is       60.4 secs

     Self-consistent Calculation

     iteration #  1     ecut=    90.00 Ry     beta= 0.30
     Davidson diagonalization with overlap
     ethr =  1.00E-02,  avg # of iterations =  6.2

     total cpu time spent up to now is      289.3 secs

     total energy              =   -1032.53736092 Ry
     estimated scf accuracy    <     149.19591701 Ry

     total magnetization       =     5.44 Bohr mag/cell
     absolute magnetization    =     5.79 Bohr mag/cell

     iteration #  2     ecut=    90.00 Ry     beta= 0.30
     Davidson diagonalization with overlap
     ethr =  1.00E-02,  avg # of iterations =  4.1

     total cpu time spent up to now is      508.5 secs

     total energy              =   -1065.45355039 Ry
     estimated scf accuracy    <      27.60606409 Ry

     total magnetization       =     0.71 Bohr mag/cell
     absolute magnetization    =     2.25 Bohr mag/cell

     iteration #  3     ecut=    90.00 Ry     beta= 0.30
     Davidson diagonalization with overlap
     ethr =  1.00E-02,  avg # of iterations =  2.0

     total cpu time spent up to now is      647.6 secs

     total energy              =   -1068.76141921 Ry
     estimated scf accuracy    <       3.57909363 Ry

     total magnetization       =     4.24 Bohr mag/cell
     absolute magnetization    =     5.79 Bohr mag/cell

     iteration #  4     ecut=    90.00 Ry     beta= 0.30
     Davidson diagonalization with overlap
     ethr =  6.28E-03,  avg # of iterations =  1.6

     total cpu time spent up to now is      766.3 secs

     total energy              =   -1069.31656442 Ry
     estimated scf accuracy    <       1.07318793 Ry

     total magnetization       =     2.73 Bohr mag/cell
     absolute magnetization    =     4.26 Bohr mag/cell

     iteration #  5     ecut=    90.00 Ry     beta= 0.30
     Davidson diagonalization with overlap
     ethr =  1.88E-03,  avg # of iterations =  2.3

     total cpu time spent up to now is      890.9 secs

     total energy              =   -1069.39776739 Ry
     estimated scf accuracy    <       0.32418773 Ry

     total magnetization       =     1.93 Bohr mag/cell
     absolute magnetization    =     3.21 Bohr mag/cell

     iteration #  6     ecut=    90.00 Ry     beta= 0.30
     Davidson diagonalization with overlap
     ethr =  5.69E-04,  avg # of iterations =  1.7

     total cpu time spent up to now is     1009.1 secs

     total energy              =   -1069.42485472 Ry
     estimated scf accuracy    <       0.32026772 Ry

     total magnetization       =     1.73 Bohr mag/cell
     absolute magnetization    =     2.92 Bohr mag/cell

     iteration #  7     ecut=    90.00 Ry     beta= 0.30
     Davidson diagonalization with overlap
     ethr =  5.62E-04,  avg # of iterations =  1.1

     total cpu time spent up to now is     1122.9 secs

     total energy              =   -1069.43718951 Ry
     estimated scf accuracy    <       0.09491833 Ry

     total magnetization       =     0.92 Bohr mag/cell
     absolute magnetization    =     1.84 Bohr mag/cell

     iteration #  8     ecut=    90.00 Ry     beta= 0.30
     Davidson diagonalization with overlap
     ethr =  1.67E-04,  avg # of iterations =  2.2

     total cpu time spent up to now is     1258.8 secs

     total energy              =   -1069.45040277 Ry
     estimated scf accuracy    <       0.05625319 Ry

     total magnetization       =     0.87 Bohr mag/cell
     absolute magnetization    =     1.41 Bohr mag/cell

     iteration #  9     ecut=    90.00 Ry     beta= 0.30
     Davidson diagonalization with overlap
     ethr =  9.87E-05,  avg # of iterations =  2.2

     total cpu time spent up to now is     1392.7 secs

     total energy              =   -1069.46860054 Ry
     estimated scf accuracy    <       0.02242694 Ry

     total magnetization       =     0.75 Bohr mag/cell
     absolute magnetization    =     1.23 Bohr mag/cell

     iteration # 10     ecut=    90.00 Ry     beta= 0.30
     Davidson diagonalization with overlap
     ethr =  3.93E-05,  avg # of iterations =  2.1

     total cpu time spent up to now is     1515.4 secs

     total energy              =   -1069.45772724 Ry
     estimated scf accuracy    <       0.05771221 Ry

     total magnetization       =     0.72 Bohr mag/cell
     absolute magnetization    =     1.17 Bohr mag/cell

     iteration # 11     ecut=    90.00 Ry     beta= 0.30
     Davidson diagonalization with overlap
     ethr =  3.93E-05,  avg # of iterations =  2.1

     total cpu time spent up to now is     1647.8 secs

     total energy              =   -1069.46465021 Ry
     estimated scf accuracy    <       0.00017124 Ry

     total magnetization       =     0.80 Bohr mag/cell
     absolute magnetization    =     1.12 Bohr mag/cell

     iteration # 12     ecut=    90.00 Ry     beta= 0.30
     Davidson diagonalization with overlap
     ethr =  3.00E-07,  avg # of iterations =  4.7

     total cpu time spent up to now is     1818.1 secs

     total energy              =   -1069.46479066 Ry
     estimated scf accuracy    <       0.00021842 Ry

     total magnetization       =     0.80 Bohr mag/cell
     absolute magnetization    =     1.06 Bohr mag/cell

     iteration # 13     ecut=    90.00 Ry     beta= 0.30
     Davidson diagonalization with overlap
     ethr =  3.00E-07,  avg # of iterations =  1.5

     total cpu time spent up to now is     1952.2 secs

     total energy              =   -1069.46483419 Ry
     estimated scf accuracy    <       0.00000596 Ry

     total magnetization       =     0.79 Bohr mag/cell
     absolute magnetization    =     1.03 Bohr mag/cell

     iteration # 14     ecut=    90.00 Ry     beta= 0.30
     Davidson diagonalization with overlap
     ethr =  1.05E-08,  avg # of iterations =  2.0

     total cpu time spent up to now is     2105.1 secs

     total energy              =   -1069.46483530 Ry
     estimated scf accuracy    <       0.00002290 Ry

     total magnetization       =     0.80 Bohr mag/cell
     absolute magnetization    =     1.03 Bohr mag/cell

     iteration # 15     ecut=    90.00 Ry     beta= 0.30
     Davidson diagonalization with overlap
     ethr =  1.05E-08,  avg # of iterations =  1.5

     total cpu time spent up to now is     2240.8 secs

     total energy              =   -1069.46483786 Ry
     estimated scf accuracy    <       0.00000195 Ry

     total magnetization       =     0.80 Bohr mag/cell
     absolute magnetization    =     1.02 Bohr mag/cell

     iteration # 16     ecut=    90.00 Ry     beta= 0.30
     Davidson diagonalization with overlap
     ethr =  3.42E-09,  avg # of iterations =  1.8

     total cpu time spent up to now is     2364.0 secs

     total energy              =   -1069.46483772 Ry
     estimated scf accuracy    <       0.00000163 Ry

     total magnetization       =     0.80 Bohr mag/cell
     absolute magnetization    =     1.02 Bohr mag/cell

     iteration # 17     ecut=    90.00 Ry     beta= 0.30
     Davidson diagonalization with overlap
     ethr =  2.86E-09,  avg # of iterations =  1.5

     total cpu time spent up to now is     2499.1 secs

     total energy              =   -1069.46483811 Ry
     estimated scf accuracy    <       0.00000005 Ry

     total magnetization       =     0.80 Bohr mag/cell
     absolute magnetization    =     1.02 Bohr mag/cell

     iteration # 18     ecut=    90.00 Ry     beta= 0.30
     Davidson diagonalization with overlap
     ethr =  7.99E-11,  avg # of iterations =  2.1

     total cpu time spent up to now is     2646.7 secs

     total energy              =   -1069.46483813 Ry
     estimated scf accuracy    <       0.00000002 Ry

     total magnetization       =     0.80 Bohr mag/cell
     absolute magnetization    =     1.02 Bohr mag/cell

     iteration # 19     ecut=    90.00 Ry     beta= 0.30
     Davidson diagonalization with overlap
     ethr =  3.32E-11,  avg # of iterations =  1.5

     total cpu time spent up to now is     2780.2 secs

     total energy              =   -1069.46483813 Ry
     estimated scf accuracy    <          1.4E-09 Ry

     total magnetization       =     0.80 Bohr mag/cell
     absolute magnetization    =     1.02 Bohr mag/cell

     iteration # 20     ecut=    90.00 Ry     beta= 0.30
     Davidson diagonalization with overlap
     ethr =  2.49E-12,  avg # of iterations =  2.0

     total cpu time spent up to now is     2904.1 secs

     total energy              =   -1069.46483813 Ry
     estimated scf accuracy    <          1.9E-09 Ry

     total magnetization       =     0.80 Bohr mag/cell
     absolute magnetization    =     1.02 Bohr mag/cell

     iteration # 21     ecut=    90.00 Ry     beta= 0.30
     Davidson diagonalization with overlap
     ethr =  2.49E-12,  avg # of iterations =  2.0

     total cpu time spent up to now is     3041.6 secs

     total energy              =   -1069.46483813 Ry
     estimated scf accuracy    <          2.7E-10 Ry

     total magnetization       =     0.80 Bohr mag/cell
     absolute magnetization    =     1.02 Bohr mag/cell

     iteration # 22     ecut=    90.00 Ry     beta= 0.30
     Davidson diagonalization with overlap
     ethr =  4.78E-13,  avg # of iterations =  2.0

     Magnetic moment per site  (integrated on atomic sphere of radius R)
     atom   1 (R=0.285)  charge=  1.1961  magn= -0.0182
     atom   2 (R=0.284)  charge= 16.6722  magn=  0.2994
     atom   3 (R=0.284)  charge= 16.6705  magn=  0.2989
     atom   4 (R=0.284)  charge= 16.6704  magn=  0.2994

     total cpu time spent up to now is     3181.5 secs

     End of self-consistent calculation

     Number of k-points >= 100: set verbosity='high' to print the bands.

     the Fermi energy is    15.5031 ev

!    total energy              =   -1069.46483813 Ry
     estimated scf accuracy    <          6.5E-11 Ry
     smearing contrib. (-TS)   =       0.00050669 Ry
     internal energy E=F+TS    =   -1069.46534482 Ry

     The total energy is F=E-TS. E is the sum of the following terms:
     one-electron contribution =    -699.57773356 Ry
     hartree contribution      =     382.93072923 Ry
     xc contribution           =    -109.45640063 Ry
     ewald contribution        =    -608.67605430 Ry
     one-center paw contrib.   =     -34.68588556 Ry

     total magnetization       =     0.80 Bohr mag/cell
     absolute magnetization    =     1.02 Bohr mag/cell

     convergence has been achieved in  22 iterations

     Forces acting on atoms (cartesian axes, Ry/au):

     atom    1 type  1   force =     0.00035431   -0.01545777   -0.00665156
     atom    2 type  2   force =    -0.00137206    0.01775573   -0.00754248
     atom    3 type  2   force =     0.01155895   -0.00695146   -0.00027284
     atom    4 type  2   force =    -0.01054121    0.00465349    0.01446688

     Total force =     0.034372     Total SCF correction =     0.000007


     Computing stress (Cartesian axis) and pressure

          total   stress  (Ry/bohr**3)                   (kbar)     P=        4.44
   0.00003016  -0.00015010  -0.00000234            4.44      -22.08       -0.34
  -0.00015010   0.00002928   0.00000458          -22.08        4.31        0.67
  -0.00000234   0.00000458   0.00003108           -0.34        0.67        4.57


     Writing all to output data dir /home/linuxuser/ni_al_dft_work/cloud_static_inputs/diverse_pilot_01/AlNi3/shear015_rattle002/tmp/AlNi3_shear015_rattle002.save/ :
     XML data file, charge density, pseudopotentials, collected wavefunctions

     init_run     :     57.32s CPU     60.28s WALL (       1 calls)
     electrons    :   3015.31s CPU   3121.10s WALL (       1 calls)
     forces       :      7.70s CPU      7.93s WALL (       1 calls)
     stress       :     30.78s CPU     31.49s WALL (       1 calls)

     Called by init_run:
     wfcinit      :     55.67s CPU     58.45s WALL (       1 calls)
     potinit      :      0.41s CPU      0.48s WALL (       1 calls)
     hinit0       :      0.44s CPU      0.45s WALL (       1 calls)

     Called by electrons:
     c_bands      :   2591.63s CPU   2676.36s WALL (      22 calls)
     sum_band     :    414.05s CPU    432.47s WALL (      22 calls)
     v_of_rho     :      1.52s CPU      1.70s WALL (      23 calls)
     newd         :      2.36s CPU      4.05s WALL (      23 calls)
     PAW_pot      :      5.90s CPU      6.80s WALL (      23 calls)
     mix_rho      :      0.15s CPU      0.16s WALL (      22 calls)

     Called by c_bands:
     init_us_2    :     38.01s CPU     38.39s WALL (   64672 calls)
     cegterg      :   2240.44s CPU   2324.21s WALL (   30272 calls)

     Called by *egterg:
     cdiaghg      :     79.69s CPU     80.22s WALL (   94655 calls)
     h_psi        :   1858.58s CPU   1940.97s WALL (   96031 calls)
     s_psi        :     68.06s CPU     68.61s WALL (   96031 calls)
     g_psi        :     10.33s CPU     10.40s WALL (   64383 calls)

     Called by h_psi:
     h_psi:calbec :     84.29s CPU     87.76s WALL (   96031 calls)
     vloc_psi     :   1700.13s CPU   1778.49s WALL (   96031 calls)
     add_vuspsi   :     68.83s CPU     69.35s WALL (   96031 calls)

     General routines
     calbec       :    138.02s CPU    143.18s WALL (  149695 calls)
     fft          :      0.84s CPU      0.92s WALL (     613 calls)
     ffts         :      0.10s CPU      0.10s WALL (      90 calls)
     fftw         :   1892.56s CPU   1978.25s WALL ( 6177954 calls)
     interpolate  :      0.12s CPU      0.13s WALL (      46 calls)

     Parallel routines

     PWSCF        :  51m52.60s CPU  53m45.27s WALL


   This run was terminated on:  17:38:13   6Aug2026            

=------------------------------------------------------------------------------=
   JOB DONE.
=------------------------------------------------------------------------------=
Note: The following floating-point exceptions are signalling: IEEE_UNDERFLOW_FLAG IEEE_DENORMAL
Note: The following floating-point exceptions are signalling: IEEE_UNDERFLOW_FLAG IEEE_DENORMAL
Note: The following floating-point exceptions are signalling: IEEE_UNDERFLOW_FLAG IEEE_DENORMAL
Note: The following floating-point exceptions are signalling: IEEE_UNDERFLOW_FLAG IEEE_DENORMAL
