8
Lattice="3.6870604141 0.0 0.0 0.0 4.88169819228 -0.54066865972 0.0 -0.01355379788 4.9115293766" Properties=species:S:1:pos:R:3 pbc="T T T"
Al       0.00000000       2.43407220       2.18543036
Al       1.84353021       1.06587396       3.70930160
Al       1.84353021       3.80227043       0.66155911
Ni       0.00000000       0.00000000       0.00000000
Ni       0.00000000       2.44084909      -0.27033432
Ni       0.00000000      -0.00677690       2.45576469
Ni       1.84353021       1.34563956       1.20819836
Ni       1.84353021       3.52250484       3.16266236
