
     Program PWSCF v.7.6 starts on  6Aug2026 at 17:38:13 

     This program is part of the open-source Quantum ESPRESSO suite
     for quantum simulation of materials; please cite
         "P. Giannozzi et al., J. Phys.:Condens. Matter 21 395502 (2009);
         "P. Giannozzi et al., J. Phys.:Condens. Matter 29 465901 (2017);
         "P. Giannozzi et al., J. Chem. Phys. 152 154105 (2020);
          URL http://www.quantum-espresso.org", 
     in publications or presentations arising from this work. More details at
     http://www.quantum-espresso.org/quote

     Parallel version (MPI), running on     4 processors

     MPI processes distributed on     1 nodes
     6620 MiB available memory on the printing compute node when the environment starts

     Reading input from /home/linuxuser/ni_al_dft_work/cloud_static_inputs/diverse_pilot_01/Al3Ni5/iso_m02/Al3Ni5_iso_m02.in

     Current dimensions of program PWSCF are:
     Max number of different atomic species (ntypx) = 10
     Max number of k-points (npk) =  40000
     Max angular momentum in pseudopotentials (lmaxx) =  4
     file Al.pbe-n-kjpaw_psl.1.0.0.UPF: wavefunction(s)  3S 3P renormalized

     IMPORTANT: XC functional enforced from input :
     Exchange-correlation= PBE
                           (   1   4   3   4   0   0   0)
     Any further DFT definition will be discarded
     Please, verify this is what you really want

     Message from routine setup:
     using ibrav=0 with symmetry is DISCOURAGED, use correct ibrav instead

     K-points division:     npool     =       2
     R & G space division:  proc/nbgrp/npool/nimage =       2
     Subspace diagonalization in iterative solution of the eigenvalue problem:
     a serial algorithm will be used


     Parallelization info
     --------------------
     sticks:   dense  smooth     PW     G-vecs:    dense   smooth      PW
     Min        1852     923    266                97341    34349    5254
     Max        1853     924    267                97344    34350    5255
     Sum        3705    1847    533               194685    68699   10509

     Using Slab Decomposition



     bravais-lattice index     =            0
     lattice parameter (alat)  =       6.9675  a.u.
     unit-cell volume          =     596.3919 (a.u.)^3
     number of atoms/cell      =            8
     number of atomic types    =            2
     number of electrons       =        99.00
     number of Kohn-Sham states=           60
     kinetic-energy cutoff     =      90.0000  Ry
     charge density cutoff     =     720.0000  Ry
     scf convergence threshold =      1.0E-10
     mixing beta               =       0.3000
     number of iterations used =            8  plain     mixing
     Exchange-correlation= PBE
                           (   1   4   3   4   0   0   0)

     celldm(1)=   6.967534  celldm(2)=   0.000000  celldm(3)=   0.000000
     celldm(4)=   0.000000  celldm(5)=   0.000000  celldm(6)=   0.000000

     crystal axes: (cart. coord. in units of alat)
               a(1) = (   1.000000   0.000000   0.000000 )  
               a(2) = (   0.000000   1.324008  -0.146639 )  
               a(3) = (   0.000000  -0.003676   1.332099 )  

     reciprocal axes: (cart. coord. in units 2 pi/alat)
               b(1) = (  1.000000 -0.000000 -0.000000 )  
               b(2) = ( -0.000000  0.755513  0.002085 )  
               b(3) = ( -0.000000  0.083168  0.750924 )  


     PseudoPot. # 1 for Al read from file:
     /home/linuxuser/ni_al_dft_work/cloud_static_inputs/pseudo/Al.pbe-n-kjpaw_psl.1.0.0.UPF
     MD5 check sum: cfc449ca30b5f3223ec38ddd88ac046d
     Pseudo is Projector augmented-wave + core cor, Zval =  3.0
     Generated using "atomic" code by A. Dal Corso  v.5.1
     Shape of augmentation charge: PSQ
     Using radial grid of 1135 points,  6 beta functions with: 
                l(1) =   0
                l(2) =   0
                l(3) =   1
                l(4) =   1
                l(5) =   2
                l(6) =   2
     Q(r) pseudized with 0 coefficients 


     PseudoPot. # 2 for Ni read from file:
     /home/linuxuser/ni_al_dft_work/cloud_static_inputs/pseudo/ni_pbe_v1.4.uspp.F.UPF
     MD5 check sum: 1ee80287db30b12d2bc1f57a5b5d6409
     Pseudo is Ultrasoft + core correction, Zval = 18.0
     Generated by new atomic code, or converted to UPF format
     Using radial grid of  865 points,  6 beta functions with: 
                l(1) =   0
                l(2) =   0
                l(3) =   1
                l(4) =   1
                l(5) =   2
                l(6) =   2
     Q(r) pseudized with 10 coefficients,  rinner =    0.980   0.980   0.980
                                                       0.980   0.980

     atomic species   valence    mass     pseudopotential
     Al                3.00    26.98154     Al( 1.00)
     Ni               18.00    58.69340     Ni( 1.00)

      4 Sym. Ops., with inversion, found



   Cartesian axes

     site n.     atom                  positions (alat units)
         1        Al     tau(   1) = (   0.0000000   0.6601661   0.5927297  )
         2        Al     tau(   2) = (   0.5000000   0.2890850   1.0060322  )
         3        Al     tau(   3) = (   0.5000000   1.0312471   0.1794273  )
         4        Ni     tau(   4) = (   0.0000000   0.0000000   0.0000000  )
         5        Ni     tau(   5) = (   0.0000000   0.6620041  -0.0733197  )
         6        Ni     tau(   6) = (   0.0000000  -0.0018380   0.6660495  )
         7        Ni     tau(   7) = (   0.5000000   0.3649627   0.3276861  )
         8        Ni     tau(   8) = (   0.5000000   0.9553694   0.8577734  )

     number of k points=   364  Marzari-Vanderbilt smearing, width (Ry)=  0.0100

     Number of k-points >= 100: set verbosity='high' to print them.

     Dense  grid:   194685 G-vectors     FFT dimensions: (  60,  80,  80)

     Smooth grid:    68699 G-vectors     FFT dimensions: (  45,  60,  60)

     Estimated max dynamical RAM per process >     939.80 MB

     Estimated total dynamical RAM >       3.62 GB

     Check: negative core charge=   -0.000003

     Initial potential from superposition of free atoms

     starting charge      88.9931, renormalised to      99.0000
     Starting wfcs are   77 randomized atomic wfcs
     Checking if some PAW data can be deallocated... 

     total cpu time spent up to now is       27.3 secs

     Self-consistent Calculation

     iteration #  1     ecut=    90.00 Ry     beta= 0.30
     Davidson diagonalization with overlap
     ethr =  1.00E-02,  avg # of iterations =  7.5

     total cpu time spent up to now is      133.5 secs

     total energy              =   -1763.45918368 Ry
     estimated scf accuracy    <     257.63862929 Ry

     iteration #  2     ecut=    90.00 Ry     beta= 0.30
     Davidson diagonalization with overlap
     ethr =  1.00E-02,  avg # of iterations =  4.5

     total cpu time spent up to now is      228.4 secs

     total energy              =   -1832.19807044 Ry
     estimated scf accuracy    <      54.75997759 Ry

     iteration #  3     ecut=    90.00 Ry     beta= 0.30
     Davidson diagonalization with overlap
     ethr =  1.00E-02,  avg # of iterations =  2.0

     total cpu time spent up to now is      294.5 secs

     total energy              =   -1835.24942655 Ry
     estimated scf accuracy    <       6.20527827 Ry

     iteration #  4     ecut=    90.00 Ry     beta= 0.30
     Davidson diagonalization with overlap
     ethr =  6.27E-03,  avg # of iterations =  1.1

     total cpu time spent up to now is      345.9 secs

     total energy              =   -1835.49845029 Ry
     estimated scf accuracy    <       1.27530629 Ry

     iteration #  5     ecut=    90.00 Ry     beta= 0.30
     Davidson diagonalization with overlap
     ethr =  1.29E-03,  avg # of iterations =  2.8

     total cpu time spent up to now is      410.3 secs

     total energy              =   -1835.20052848 Ry
     estimated scf accuracy    <       3.68167685 Ry

     iteration #  6     ecut=    90.00 Ry     beta= 0.30
     Davidson diagonalization with overlap
     ethr =  1.29E-03,  avg # of iterations =  2.0

     total cpu time spent up to now is      464.3 secs

     total energy              =   -1834.87913594 Ry
     estimated scf accuracy    <       0.98334098 Ry

     iteration #  7     ecut=    90.00 Ry     beta= 0.30
     Davidson diagonalization with overlap
     ethr =  9.93E-04,  avg # of iterations =  2.4

     total cpu time spent up to now is      527.0 secs

     total energy              =   -1835.37311217 Ry
     estimated scf accuracy    <       1.52584936 Ry

     iteration #  8     ecut=    90.00 Ry     beta= 0.30
     Davidson diagonalization with overlap
     ethr =  9.93E-04,  avg # of iterations =  1.0

     total cpu time spent up to now is      577.4 secs

     total energy              =   -1835.26752255 Ry
     estimated scf accuracy    <       1.19236200 Ry

     iteration #  9     ecut=    90.00 Ry     beta= 0.30
     Davidson diagonalization with overlap
     ethr =  9.93E-04,  avg # of iterations =  1.1

     total cpu time spent up to now is      628.3 secs

     total energy              =   -1835.16125093 Ry
     estimated scf accuracy    <       0.56814787 Ry

     iteration # 10     ecut=    90.00 Ry     beta= 0.30
     Davidson diagonalization with overlap
     ethr =  5.74E-04,  avg # of iterations =  2.0

     total cpu time spent up to now is      683.2 secs

     total energy              =   -1835.21586888 Ry
     estimated scf accuracy    <       0.02155269 Ry

     iteration # 11     ecut=    90.00 Ry     beta= 0.30
     Davidson diagonalization with overlap
     ethr =  2.18E-05,  avg # of iterations =  7.7

     total cpu time spent up to now is      755.2 secs

     total energy              =   -1835.21916177 Ry
     estimated scf accuracy    <       0.00164418 Ry

     iteration # 12     ecut=    90.00 Ry     beta= 0.30
     Davidson diagonalization with overlap
     ethr =  1.66E-06,  avg # of iterations =  3.6

     total cpu time spent up to now is      820.2 secs

     total energy              =   -1835.21959537 Ry
     estimated scf accuracy    <       0.00089371 Ry

     iteration # 13     ecut=    90.00 Ry     beta= 0.30
     Davidson diagonalization with overlap
     ethr =  9.03E-07,  avg # of iterations =  1.0

     total cpu time spent up to now is      870.5 secs

     total energy              =   -1835.21947508 Ry
     estimated scf accuracy    <       0.00097322 Ry

     iteration # 14     ecut=    90.00 Ry     beta= 0.30
     Davidson diagonalization with overlap
     ethr =  9.03E-07,  avg # of iterations =  1.0

     total cpu time spent up to now is      921.2 secs

     total energy              =   -1835.21941110 Ry
     estimated scf accuracy    <       0.00021417 Ry

     iteration # 15     ecut=    90.00 Ry     beta= 0.30
     Davidson diagonalization with overlap
     ethr =  2.16E-07,  avg # of iterations =  2.1

     total cpu time spent up to now is      983.8 secs

     total energy              =   -1835.21946194 Ry
     estimated scf accuracy    <       0.00018595 Ry

     iteration # 16     ecut=    90.00 Ry     beta= 0.30
     Davidson diagonalization with overlap
     ethr =  1.88E-07,  avg # of iterations =  1.1

     total cpu time spent up to now is     1034.8 secs

     total energy              =   -1835.21948016 Ry
     estimated scf accuracy    <       0.00000159 Ry

     iteration # 17     ecut=    90.00 Ry     beta= 0.30
     Davidson diagonalization with overlap
     ethr =  1.60E-09,  avg # of iterations =  3.1

     total cpu time spent up to now is     1100.1 secs

     total energy              =   -1835.21948091 Ry
     estimated scf accuracy    <       0.00000103 Ry

     iteration # 18     ecut=    90.00 Ry     beta= 0.30
     Davidson diagonalization with overlap
     ethr =  1.04E-09,  avg # of iterations =  2.0

     total cpu time spent up to now is     1160.2 secs

     total energy              =   -1835.21948109 Ry
     estimated scf accuracy    <       0.00000015 Ry

     iteration # 19     ecut=    90.00 Ry     beta= 0.30
     Davidson diagonalization with overlap
     ethr =  1.53E-10,  avg # of iterations =  1.9

     total cpu time spent up to now is     1214.9 secs

     total energy              =   -1835.21948111 Ry
     estimated scf accuracy    <          4.0E-09 Ry

     iteration # 20     ecut=    90.00 Ry     beta= 0.30
     Davidson diagonalization with overlap
     ethr =  4.04E-12,  avg # of iterations =  2.0

     total cpu time spent up to now is     1275.6 secs

     total energy              =   -1835.21948111 Ry
     estimated scf accuracy    <          1.1E-09 Ry

     iteration # 21     ecut=    90.00 Ry     beta= 0.30
     Davidson diagonalization with overlap
     ethr =  1.11E-12,  avg # of iterations =  1.1

     total cpu time spent up to now is     1327.0 secs

     total energy              =   -1835.21948111 Ry
     estimated scf accuracy    <          3.5E-10 Ry

     iteration # 22     ecut=    90.00 Ry     beta= 0.30
     Davidson diagonalization with overlap
     ethr =  3.54E-13,  avg # of iterations =  2.1

     total cpu time spent up to now is     1387.0 secs

     End of self-consistent calculation

     Number of k-points >= 100: set verbosity='high' to print the bands.

     the Fermi energy is    15.7169 ev

!    total energy              =   -1835.21948111 Ry
     estimated scf accuracy    <          8.3E-11 Ry
     smearing contrib. (-TS)   =      -0.00038463 Ry
     internal energy E=F+TS    =   -1835.21909648 Ry

     The total energy is F=E-TS. E is the sum of the following terms:
     one-electron contribution =   -1231.35860828 Ry
     hartree contribution      =     673.59799542 Ry
     xc contribution           =    -186.38157384 Ry
     ewald contribution        =    -986.98262274 Ry
     one-center paw contrib.   =    -104.09428703 Ry

     convergence has been achieved in  22 iterations

     Forces acting on atoms (cartesian axes, Ry/au):

     atom    1 type  1   force =     0.00000000    0.00000000    0.00000000
     atom    2 type  1   force =     0.00000000    0.00188063   -0.00209455
     atom    3 type  1   force =     0.00000000   -0.00188063    0.00209455
     atom    4 type  2   force =     0.00000000    0.00000000    0.00000000
     atom    5 type  2   force =     0.00000000    0.00000000    0.00000000
     atom    6 type  2   force =     0.00000000    0.00000000    0.00000000
     atom    7 type  2   force =     0.00000000   -0.00002831   -0.00003228
     atom    8 type  2   force =     0.00000000    0.00002831    0.00003228

     Total force =     0.003981     Total SCF correction =     0.000008


     Computing stress (Cartesian axis) and pressure

          total   stress  (Ry/bohr**3)                   (kbar)     P=      117.91
   0.00081408   0.00000000   0.00000000          119.75        0.00        0.00
   0.00000000   0.00079538   0.00000130            0.00      117.00        0.19
   0.00000000   0.00000130   0.00079509            0.00        0.19      116.96


     Writing all to output data dir /home/linuxuser/ni_al_dft_work/cloud_static_inputs/diverse_pilot_01/Al3Ni5/iso_m02/tmp/Al3Ni5_iso_m02.save/ :
     XML data file, charge density, pseudopotentials, collected wavefunctions

     init_run     :     25.99s CPU     27.20s WALL (       1 calls)
     electrons    :   1314.55s CPU   1359.64s WALL (       1 calls)
     forces       :      6.05s CPU      6.25s WALL (       1 calls)
     stress       :     22.48s CPU     23.02s WALL (       1 calls)

     Called by init_run:
     wfcinit      :     24.73s CPU     25.71s WALL (       1 calls)
     potinit      :      0.49s CPU      0.55s WALL (       1 calls)
     hinit0       :      0.48s CPU      0.49s WALL (       1 calls)

     Called by electrons:
     c_bands      :   1140.75s CPU   1173.59s WALL (      22 calls)
     sum_band     :    163.37s CPU    172.55s WALL (      22 calls)
     v_of_rho     :      1.19s CPU      1.36s WALL (      23 calls)
     newd         :      3.98s CPU      6.87s WALL (      23 calls)
     PAW_pot      :      5.50s CPU      5.67s WALL (      23 calls)
     mix_rho      :      0.14s CPU      0.15s WALL (      22 calls)

     Called by c_bands:
     init_us_2    :     16.62s CPU     16.71s WALL (    8554 calls)
     cegterg      :   1024.29s CPU   1056.91s WALL (    4004 calls)

     Called by *egterg:
     cdiaghg      :     36.65s CPU     36.72s WALL (   14054 calls)
     h_psi        :    747.98s CPU    778.72s WALL (   14236 calls)
     s_psi        :     59.98s CPU     60.09s WALL (   14236 calls)
     g_psi        :      4.73s CPU      4.75s WALL (   10050 calls)

     Called by h_psi:
     h_psi:calbec :     66.36s CPU     67.26s WALL (   14236 calls)
     vloc_psi     :    617.48s CPU    646.45s WALL (   14236 calls)
     add_vuspsi   :     60.78s CPU     60.88s WALL (   14236 calls)

     General routines
     calbec       :    111.13s CPU    112.48s WALL (   21334 calls)
     fft          :      0.79s CPU      0.93s WALL (     322 calls)
     ffts         :      0.18s CPU      0.19s WALL (      45 calls)
     fftw         :    673.62s CPU    705.46s WALL ( 1427046 calls)
     interpolate  :      0.21s CPU      0.22s WALL (      23 calls)

     Parallel routines

     PWSCF        :  22m49.69s CPU  23m38.00s WALL


   This run was terminated on:  18: 1:51   6Aug2026            

=------------------------------------------------------------------------------=
   JOB DONE.
=------------------------------------------------------------------------------=
Note: The following floating-point exceptions are signalling: IEEE_UNDERFLOW_FLAG IEEE_DENORMAL
Note: The following floating-point exceptions are signalling: IEEE_UNDERFLOW_FLAG IEEE_DENORMAL
Note: The following floating-point exceptions are signalling: IEEE_UNDERFLOW_FLAG IEEE_DENORMAL
Note: The following floating-point exceptions are signalling: IEEE_UNDERFLOW_FLAG IEEE_DENORMAL
