ITEM: TIMESTEP
0
ITEM: NUMBER OF ATOMS
128
ITEM: BOX BOUNDS xy xz yz pp pp pp
-2.2935259080929921e-10 9.6310058222563253e+00 -8.4541336289898030e-11
-6.0966927203541904e-11 1.3199868213292410e+01 -1.4481125451940118e-10
0.0000000000000000e+00 1.4853477759811586e+01 -6.0966927203541904e-11
ITEM: ATOMS id element xu yu zu
1 Al 4.41564 0.0548683 1.83456
2 Al 1.75558 1.1414 3.2847
3 Al 1.75558 1.1414 0.384427
4 Al 4.16333 2.18167 4.0978
5 Al 0.662178 4.44136 3.2847
6 Al 3.06993 5.48164 6.99807
7 Al 0.662178 4.44136 0.384427
8 Al 3.06993 5.48164 4.0978
9 Al 4.16333 2.18167 6.99807
10 Al 2.81761 3.35484 1.83456
11 Al 0.409861 6.56816 5.54793
12 Al 2.00789 3.2682 5.54793
13 Ni 2.13547 5.75386 1.83456
14 Ni 0.282281 2.4539 1.83456
15 Ni 2.69003 0.869168 5.54793
16 Ni 4.54322 4.16913 5.54793
17 Al 4.41564 0.0548683 9.2613
18 Al 1.75558 1.1414 10.7114
19 Al 1.75558 1.1414 7.81117
20 Al 4.16333 2.18167 11.5245
21 Al 0.662178 4.44136 10.7114
22 Al 3.06993 5.48164 14.4248
23 Al 0.662178 4.44136 7.81117
24 Al 3.06993 5.48164 11.5245
25 Al 4.16333 2.18167 14.4248
26 Al 2.81761 3.35484 9.2613
27 Al 0.409861 6.56816 12.9747
28 Al 2.00789 3.2682 12.9747
29 Ni 2.13547 5.75386 9.2613
30 Ni 0.282281 2.4539 9.2613
31 Ni 2.69003 0.869168 12.9747
32 Ni 4.54322 4.16913 12.9747
33 Al 4.41564 6.6548 1.83456
34 Al 1.75558 7.74133 3.2847
35 Al 1.75558 7.74133 0.384427
36 Al 4.16333 8.7816 4.0978
37 Al 0.662178 11.0413 3.2847
38 Al 3.06993 12.0816 6.99807
39 Al 0.662178 11.0413 0.384427
40 Al 3.06993 12.0816 4.0978
41 Al 4.16333 8.7816 6.99807
42 Al 2.81761 9.95477 1.83456
43 Al 0.409861 13.1681 5.54793
44 Al 2.00789 9.86813 5.54793
45 Ni 2.13547 12.3538 1.83456
46 Ni 0.282281 9.05383 1.83456
47 Ni 2.69003 7.4691 5.54793
48 Ni 4.54322 10.7691 5.54793
49 Al 4.41564 6.6548 9.2613
50 Al 1.75558 7.74133 10.7114
51 Al 1.75558 7.74133 7.81117
52 Al 4.16333 8.7816 11.5245
53 Al 0.662178 11.0413 10.7114
54 Al 3.06993 12.0816 14.4248
55 Al 0.662178 11.0413 7.81117
56 Al 3.06993 12.0816 11.5245
57 Al 4.16333 8.7816 14.4248
58 Al 2.81761 9.95477 9.2613
59 Al 0.409861 13.1681 12.9747
60 Al 2.00789 9.86813 12.9747
61 Ni 2.13547 12.3538 9.2613
62 Ni 0.282281 9.05383 9.2613
63 Ni 2.69003 7.4691 12.9747
64 Ni 4.54322 10.7691 12.9747
65 Al 9.23115 0.0548683 1.83456
66 Al 6.57108 1.1414 3.2847
67 Al 6.57108 1.1414 0.384427
68 Al 8.97883 2.18167 4.0978
69 Al 5.47768 4.44136 3.2847
70 Al 7.88543 5.48164 6.99807
71 Al 5.47768 4.44136 0.384427
72 Al 7.88543 5.48164 4.0978
73 Al 8.97883 2.18167 6.99807
74 Al 7.63312 3.35484 1.83456
75 Al 5.22536 6.56816 5.54793
76 Al 6.8234 3.2682 5.54793
77 Ni 6.95098 5.75386 1.83456
78 Ni 5.09778 2.4539 1.83456
79 Ni 7.50554 0.869168 5.54793
80 Ni 9.35873 4.16913 5.54793
81 Al 9.23115 0.0548683 9.2613
82 Al 6.57108 1.1414 10.7114
83 Al 6.57108 1.1414 7.81117
84 Al 8.97883 2.18167 11.5245
85 Al 5.47768 4.44136 10.7114
86 Al 7.88543 5.48164 14.4248
87 Al 5.47768 4.44136 7.81117
88 Al 7.88543 5.48164 11.5245
89 Al 8.97883 2.18167 14.4248
90 Al 7.63312 3.35484 9.2613
91 Al 5.22536 6.56816 12.9747
92 Al 6.8234 3.2682 12.9747
93 Ni 6.95098 5.75386 9.2613
94 Ni 5.09778 2.4539 9.2613
95 Ni 7.50554 0.869168 12.9747
96 Ni 9.35873 4.16913 12.9747
97 Al 9.23115 6.6548 1.83456
98 Al 6.57108 7.74133 3.2847
99 Al 6.57108 7.74133 0.384427
100 Al 8.97883 8.7816 4.0978
101 Al 5.47768 11.0413 3.2847
102 Al 7.88543 12.0816 6.99807
103 Al 5.47768 11.0413 0.384427
104 Al 7.88543 12.0816 4.0978
105 Al 8.97883 8.7816 6.99807
106 Al 7.63312 9.95477 1.83456
107 Al 5.22536 13.1681 5.54793
108 Al 6.8234 9.86813 5.54793
109 Ni 6.95098 12.3538 1.83456
110 Ni 5.09778 9.05383 1.83456
111 Ni 7.50554 7.4691 5.54793
112 Ni 9.35873 10.7691 5.54793
113 Al 9.23115 6.6548 9.2613
114 Al 6.57108 7.74133 10.7114
115 Al 6.57108 7.74133 7.81117
116 Al 8.97883 8.7816 11.5245
117 Al 5.47768 11.0413 10.7114
118 Al 7.88543 12.0816 14.4248
119 Al 5.47768 11.0413 7.81117
120 Al 7.88543 12.0816 11.5245
121 Al 8.97883 8.7816 14.4248
122 Al 7.63312 9.95477 9.2613
123 Al 5.22536 13.1681 12.9747
124 Al 6.8234 9.86813 12.9747
125 Ni 6.95098 12.3538 9.2613
126 Ni 5.09778 9.05383 9.2613
127 Ni 7.50554 7.4691 12.9747
128 Ni 9.35873 10.7691 12.9747
ITEM: TIMESTEP
100
ITEM: NUMBER OF ATOMS
128
ITEM: BOX BOUNDS xy xz yz pp pp pp
-4.6477064606088518e-02 9.6482889694021932e+00 -6.7189662405689309e-03
-3.8424606118851318e-02 1.3232119159004935e+01 -2.2474951219663260e-02
-3.2271739791403853e-02 1.4885749499602985e+01 -6.1736604063355738e-03
ITEM: ATOMS id element xu yu zu
1 Al 4.36617 -0.0429506 1.94407
2 Al 1.76756 1.19165 3.25351
3 Al 1.68949 1.16945 0.347284
4 Al 4.23289 2.08736 4.16803
5 Al 0.622515 4.54836 3.23018
6 Al 2.98808 5.52201 6.95511
7 Al 0.703281 4.4276 0.435407
8 Al 3.08487 5.59609 4.06908
9 Al 4.14293 2.12965 7.06711
10 Al 2.72329 3.31557 1.96667
11 Al 0.368653 6.52381 5.61341
12 Al 1.96697 3.16279 5.42169
13 Ni 2.17625 5.8439 1.80686
14 Ni 0.25363 2.46372 1.83814
15 Ni 2.68654 0.727481 5.56574
16 Ni 4.50602 4.13846 5.46934
17 Al 4.34099 0.0366338 9.28582
18 Al 1.72258 1.19864 10.7879
19 Al 1.76498 1.1158 7.88197
20 Al 4.15075 2.09232 11.4758
21 Al 0.592404 4.3125 10.7317
22 Al 2.98716 5.4011 14.4292
23 Al 0.654479 4.38939 7.82096
24 Al 3.02397 5.5512 11.4563
25 Al 4.20511 2.0232 14.5732
26 Al 2.88128 3.37543 9.28344
27 Al 0.391432 6.59002 13.1052
28 Al 2.05377 3.27012 12.9989
29 Ni 2.09395 5.723 9.19842
30 Ni 0.264224 2.42473 9.27044
31 Ni 2.61826 0.820131 13.0587
32 Ni 4.4962 4.0999 13.0317
33 Al 4.44237 6.60642 1.71434
34 Al 1.76786 7.79296 3.2317
35 Al 1.87043 7.73146 0.255136
36 Al 4.1056 8.82991 4.07609
37 Al 0.64731 11.0744 3.32737
38 Al 3.05614 12.0514 7.07581
39 Al 0.679238 10.9873 0.26607
40 Al 3.04769 12.0802 4.10363
41 Al 4.10494 8.80953 6.92344
42 Al 2.77835 9.93382 1.79908
43 Al 0.405879 13.1461 5.58878
44 Al 1.8588 9.7736 5.51708
45 Ni 1.98807 12.3759 1.82502
46 Ni 0.33935 9.09763 1.73562
47 Ni 2.62607 7.50345 5.49617
48 Ni 4.55135 10.7771 5.55832
49 Al 4.24784 6.75733 9.27011
50 Al 1.83887 7.70606 10.6155
51 Al 1.762 7.80421 7.79119
52 Al 4.08273 8.8716 11.5463
53 Al 0.635557 11.1163 10.7934
54 Al 3.03831 12.1305 14.4568
55 Al 0.659232 10.9569 7.84199
56 Al 3.09079 12.1018 11.6073
57 Al 4.17397 8.94224 14.3979
58 Al 2.71146 9.97607 9.35939
59 Al 0.394751 13.2636 13.0511
60 Al 1.9398 9.85017 12.9859
61 Ni 2.04522 12.3838 9.34718
62 Ni 0.197563 9.04061 9.32841
63 Ni 2.7155 7.50435 12.9937
64 Ni 4.59782 10.8748 13.0442
65 Al 9.27977 0.115306 1.84833
66 Al 6.51495 0.994732 3.31733
67 Al 6.60622 1.09238 0.434169
68 Al 9.02335 2.17799 4.20838
69 Al 5.53039 4.3208 3.21748
70 Al 7.90591 5.40406 7.00744
71 Al 5.55313 4.35531 0.404984
72 Al 7.88407 5.53784 4.04077
73 Al 9.00897 2.10027 6.96787
74 Al 7.68879 3.34756 1.92638
75 Al 5.26043 6.57289 5.59225
76 Al 6.86869 3.24673 5.44766
77 Ni 6.91519 5.73252 1.78797
78 Ni 5.17028 2.40621 1.87589
79 Ni 7.52514 0.846623 5.56018
80 Ni 9.38811 4.16512 5.49607
81 Al 9.19872 0.121436 9.21538
82 Al 6.66405 1.16538 10.6777
83 Al 6.62502 1.12771 7.84213
84 Al 8.95125 2.13986 11.5763
85 Al 5.45384 4.40706 10.7182
86 Al 7.85262 5.45998 14.4483
87 Al 5.4338 4.44411 7.72295
88 Al 7.97078 5.48034 11.4837
89 Al 8.87378 2.20785 14.5006
90 Al 7.64982 3.38124 9.22226
91 Al 5.28591 6.41055 12.9879
92 Al 6.73898 3.26335 12.931
93 Ni 6.88799 5.76468 9.26848
94 Ni 5.10473 2.48081 9.22814
95 Ni 7.52883 0.874142 13.0213
96 Ni 9.33852 4.18056 13.0556
97 Al 9.32661 6.70858 1.62883
98 Al 6.53997 7.68367 3.27838
99 Al 6.66462 7.72765 0.322968
100 Al 8.99813 8.77108 4.06512
101 Al 5.47268 11.0485 3.22555
102 Al 7.8987 12.0422 7.00391
103 Al 5.48191 11.153 0.39566
104 Al 7.96205 12.0381 4.11236
105 Al 8.93427 8.70417 7.01914
106 Al 7.72456 9.94005 1.8368
107 Al 5.21944 13.0935 5.63954
108 Al 6.73933 9.76468 5.53556
109 Ni 7.04983 12.3719 1.78963
110 Ni 5.12233 9.06673 1.80648
111 Ni 7.49418 7.47708 5.51545
112 Ni 9.29816 10.677 5.51936
113 Al 9.16382 6.76695 9.14014
114 Al 6.38299 7.63646 10.6981
115 Al 6.42178 7.73678 7.77406
116 Al 9.00855 8.60228 11.4717
117 Al 5.36442 11.1955 10.7201
118 Al 7.90685 12.1295 14.3986
119 Al 5.46047 11.0492 7.82445
120 Al 7.84739 12.083 11.555
121 Al 9.0835 8.7976 14.2843
122 Al 7.60351 10.0372 9.34188
123 Al 5.30465 13.3096 12.9372
124 Al 6.76222 9.77299 13.0004
125 Ni 6.90565 12.4582 9.2873
126 Ni 4.97453 9.0529 9.25688
127 Ni 7.41929 7.48068 12.949
128 Ni 9.2866 10.8498 12.9533
ITEM: TIMESTEP
200
ITEM: NUMBER OF ATOMS
128
ITEM: BOX BOUNDS xy xz yz pp pp pp
-6.4954309732235538e-02 9.6471615010116487e+00 3.1424606075800623e-03
-1.7979255460180754e-02 1.3211497139870485e+01 -5.1941091584505494e-02
1.1521924811445317e-02 1.4841955835000135e+01 -6.3503288821105137e-03
ITEM: ATOMS id element xu yu zu
1 Al 4.50248 0.062317 1.71416
2 Al 1.64709 1.09563 3.31409
3 Al 1.8607 1.11087 0.440531
4 Al 4.13885 2.2168 4.02048
5 Al 0.705703 4.18912 3.28025
6 Al 3.02889 5.49659 7.12355
7 Al 0.666722 4.54902 0.370509
8 Al 2.9621 5.4246 4.10864
9 Al 4.16565 2.18848 7.07447
10 Al 2.80227 3.40865 1.70835
11 Al 0.288259 6.62485 5.50672
12 Al 1.99681 3.27528 5.59347
13 Ni 2.08369 5.67739 1.77559
14 Ni 0.362581 2.37232 1.80937
15 Ni 2.64567 0.917748 5.53063
16 Ni 4.58218 4.17871 5.56706
17 Al 4.38582 -0.01746 9.19464
18 Al 1.79186 1.20332 10.6488
19 Al 1.67107 1.20341 7.77236
20 Al 4.02343 2.25239 11.4378
21 Al 0.500914 4.43244 10.7341
22 Al 3.04089 5.57154 14.4179
23 Al 0.608344 4.4927 7.80939
24 Al 3.04921 5.52895 11.4271
25 Al 4.07333 2.30134 14.3833
26 Al 2.69459 3.27463 9.21558
27 Al 0.313675 6.57964 12.9502
28 Al 1.85937 3.19617 12.9643
29 Ni 2.13841 5.81196 9.31897
30 Ni 0.244478 2.47165 9.22884
31 Ni 2.61923 0.88137 12.908
32 Ni 4.61595 4.23187 12.9759
33 Al 4.33436 6.69273 1.90471
34 Al 1.72265 7.67181 3.26992
35 Al 1.65953 7.75713 0.390587
36 Al 4.13332 8.7158 4.06847
37 Al 0.616677 10.9627 3.33445
38 Al 3.0422 12.154 6.89067
39 Al 0.654324 11.0186 0.449471
40 Al 3.09135 12.0873 4.0592
41 Al 4.18664 8.6398 7.08249
42 Al 2.86348 10.0558 1.8524
43 Al 0.371005 13.2701 5.6051
44 Al 2.06095 9.8434 5.60204
45 Ni 2.25881 12.3194 1.86991
46 Ni 0.130967 9.03922 1.90335
47 Ni 2.75002 7.43956 5.59583
48 Ni 4.5047 10.7414 5.57224
49 Al 4.52807 6.60852 9.22178
50 Al 1.62264 7.80266 10.7741
51 Al 1.67686 7.65723 7.80917
52 Al 4.08202 8.66894 11.3596
53 Al 0.617846 11.0175 10.6619
54 Al 2.91643 12.079 14.2978
55 Al 0.586611 11.1456 7.83306
56 Al 3.02533 12.0038 11.4467
57 Al 4.0372 8.75706 14.4263
58 Al 2.75962 9.93606 9.21126
59 Al 0.412709 13.2332 12.878
60 Al 2.10704 9.86194 13.0138
61 Ni 2.1431 12.3577 9.19055
62 Ni 0.265025 9.01633 9.21189
63 Ni 2.5968 7.45791 13.001
64 Ni 4.35925 10.6787 12.9099
65 Al 9.21875 0.0356143 1.88804
66 Al 6.57318 1.19559 3.21526
67 Al 6.5364 1.19378 0.321394
68 Al 8.94512 2.17945 4.23174
69 Al 5.4844 4.53096 3.24406
70 Al 7.87181 5.4448 6.92824
71 Al 5.58396 4.51613 0.4362
72 Al 7.85921 5.36177 4.11838
73 Al 8.93415 2.15255 7.01623
74 Al 7.62836 3.32231 1.76911
75 Al 5.2003 6.64547 5.49514
76 Al 6.78832 3.1149 5.59114
77 Ni 6.9438 5.72896 1.82927
78 Ni 5.06679 2.46793 1.78014
79 Ni 7.53043 0.848721 5.55009
80 Ni 9.35685 4.12098 5.51598
81 Al 9.23893 0.112638 9.28545
82 Al 6.51662 1.11293 10.7624
83 Al 6.56314 1.11798 7.8875
84 Al 8.92087 2.17422 11.4693
85 Al 5.47475 4.39593 10.7276
86 Al 7.8724 5.47573 14.389
87 Al 5.47318 4.31701 7.83994
88 Al 7.76267 5.41529 11.5607
89 Al 9.05218 2.03765 14.4171
90 Al 7.57667 3.26449 9.28755
91 Al 5.21866 6.7108 12.8661
92 Al 6.85377 3.27871 12.9899
93 Ni 6.97608 5.74363 9.23119
94 Ni 5.01747 2.42807 9.29288
95 Ni 7.45534 0.880635 13.005
96 Ni 9.34256 4.17356 12.8691
97 Al 9.26138 6.62056 1.98043
98 Al 6.61741 7.73795 3.28815
99 Al 6.55625 7.64841 0.372671
100 Al 8.95997 8.83 4.1672
101 Al 5.41784 11.0427 3.30276
102 Al 7.83834 12.1705 7.00273
103 Al 5.41332 10.9916 0.305923
104 Al 7.92298 12.1238 4.13727
105 Al 9.02148 8.87305 6.94271
106 Al 7.54361 9.94662 1.85943
107 Al 5.10677 13.1693 5.45839
108 Al 6.83287 9.92773 5.58994
109 Ni 6.86321 12.3441 1.9241
110 Ni 5.06309 9.11734 1.85011
111 Ni 7.41621 7.50813 5.57992
112 Ni 9.37526 10.8501 5.54707
113 Al 9.26456 6.60665 9.36826
114 Al 6.67712 7.76926 10.7137
115 Al 6.61602 7.78548 7.80531
116 Al 8.93641 8.87676 11.6164
117 Al 5.4183 11.095 10.7676
118 Al 7.79284 12.0623 14.4323
119 Al 5.37901 11.0776 7.73281
120 Al 7.90849 12.0995 11.6155
121 Al 8.93324 8.74497 14.4568
122 Al 7.64122 9.95488 9.19678
123 Al 5.13393 13.2467 13.0922
124 Al 6.75728 9.94558 12.9821
125 Ni 6.93074 12.2823 9.298
126 Ni 5.14952 8.98898 9.30549
127 Ni 7.51172 7.45533 13.0562
128 Ni 9.38516 10.7715 13.0685
ITEM: TIMESTEP
300
ITEM: NUMBER OF ATOMS
128
ITEM: BOX BOUNDS xy xz yz pp pp pp
-3.7847390073812548e-02 9.7241551593030113e+00 1.5355577999617981e-02
-8.6353651501669404e-03 1.3224679876786304e+01 3.9946368973256326e-02
-3.6808958733788977e-02 1.4890286718545370e+01 1.6176298343717730e-02
ITEM: ATOMS id element xu yu zu
1 Al 4.33505 0.200852 1.86247
2 Al 1.72974 1.06612 3.10538
3 Al 1.64326 1.11761 0.212161
4 Al 4.09286 2.2221 4.04037
5 Al 0.567056 4.4826 3.42356
6 Al 3.01066 5.60603 7.01097
7 Al 0.688129 4.36024 0.443933
8 Al 3.17462 5.52196 4.0742
9 Al 4.2561 2.24183 6.99508
10 Al 2.88101 3.4144 1.76767
11 Al 0.42487 6.56155 5.56131
12 Al 1.96998 3.2798 5.6458
13 Ni 2.053 5.7242 1.96178
14 Ni 0.196355 2.45251 1.73155
15 Ni 2.66938 0.8649 5.57732
16 Ni 4.48768 4.13148 5.58924
17 Al 4.42464 0.00299346 9.38836
18 Al 1.78576 1.11629 10.7923
19 Al 1.66578 1.1239 7.75067
20 Al 4.23644 2.12107 11.489
21 Al 0.700988 4.50798 10.8852
22 Al 3.04201 5.57209 14.5765
23 Al 0.663273 4.44476 7.90123
24 Al 3.02948 5.51374 11.5799
25 Al 4.24873 2.09457 14.4844
26 Al 2.99706 3.30154 9.26522
27 Al 0.411968 6.54662 13.0278
28 Al 2.03483 3.27101 12.9894
29 Ni 2.1891 5.7929 9.20833
30 Ni 0.247533 2.41182 9.29509
31 Ni 2.79315 0.903631 13.0085
32 Ni 4.58502 4.13237 12.9416
33 Al 4.45918 6.58398 1.84613
34 Al 1.63687 7.7162 3.35151
35 Al 1.61463 7.75512 0.365238
36 Al 4.20782 8.72278 4.14824
37 Al 0.54218 11.0906 3.25145
38 Al 3.17913 12.0897 7.09764
39 Al 0.622003 11.1213 0.272477
40 Al 3.07947 12.1251 3.99939
41 Al 4.23444 8.77619 6.8781
42 Al 2.81983 9.92548 1.78457
43 Al 0.388814 13.3016 5.35948
44 Al 2.05655 9.94648 5.45369
45 Ni 2.16911 12.3323 1.74536
46 Ni 0.295189 9.07747 1.81524
47 Ni 2.6128 7.52189 5.58804
48 Ni 4.56267 10.8837 5.54969
49 Al 4.37374 6.73002 9.3403
50 Al 1.75599 7.75554 10.6551
51 Al 1.80936 7.77948 7.87387
52 Al 4.25374 8.74532 11.74
53 Al 0.638209 11.1088 10.6558
54 Al 3.16276 11.9222 14.5223
55 Al 0.759416 11.0263 7.75454
56 Al 3.09534 11.9375 11.6262
57 Al 4.12496 8.68956 14.5175
58 Al 2.9696 10.0439 9.30473
59 Al 0.45353 13.1719 12.9952
60 Al 1.95091 9.80734 12.9691
61 Ni 2.16782 12.2992 9.29752
62 Ni 0.359307 9.17721 9.24424
63 Ni 2.58491 7.48824 13.009
64 Ni 4.67243 10.7658 13.0838
65 Al 9.2634 0.0744689 1.72045
66 Al 6.53041 1.20957 3.20937
67 Al 6.59345 1.15497 0.254775
68 Al 8.95426 2.12937 4.01501
69 Al 5.57092 4.57463 3.33222
70 Al 8.00802 5.51183 7.03277
71 Al 5.43663 4.53949 0.427073
72 Al 8.00618 5.54003 4.15779
73 Al 9.06052 2.21244 6.93434
74 Al 7.52675 3.43249 1.74655
75 Al 5.46793 6.53789 5.59738
76 Al 6.9855 3.3545 5.55572
77 Ni 7.02558 5.76218 1.87389
78 Ni 5.07004 2.44234 1.74198
79 Ni 7.55512 0.93302 5.46556
80 Ni 9.39857 4.18205 5.58541
81 Al 9.31576 -0.022155 9.14714
82 Al 6.66937 1.19195 10.7105
83 Al 6.5753 1.14739 7.74784
84 Al 9.07092 2.1872 11.5684
85 Al 5.52875 4.47964 10.7633
86 Al 7.99293 5.54166 14.4009
87 Al 5.4739 4.40059 7.88442
88 Al 8.04527 5.54738 11.5359
89 Al 9.02146 2.08822 14.4061
90 Al 7.70292 3.29652 9.34325
91 Al 5.39727 6.57769 13.1909
92 Al 6.87814 3.26181 12.9879
93 Ni 7.01955 5.7623 9.35539
94 Ni 5.16955 2.40588 9.25611
95 Ni 7.47348 0.688018 12.9101
96 Ni 9.34886 4.14828 13.0502
97 Al 9.2978 6.71248 1.79482
98 Al 6.60372 7.7706 3.38057
99 Al 6.71588 7.80636 0.378201
100 Al 8.98235 8.86308 3.99977
101 Al 5.45709 11.099 3.20708
102 Al 7.92707 12.1028 6.93554
103 Al 5.49778 10.887 0.408992
104 Al 7.83396 12.1369 4.04875
105 Al 9.0683 8.82411 6.98153
106 Al 7.66364 10.0081 1.84104
107 Al 5.1184 13.1107 5.55756
108 Al 6.91859 9.87954 5.46999
109 Ni 6.88734 12.4337 1.73076
110 Ni 5.13756 8.97329 1.87733
111 Ni 7.72676 7.42127 5.54974
112 Ni 9.48014 10.8136 5.51279
113 Al 9.36133 6.67793 9.20076
114 Al 6.57537 7.8155 10.7799
115 Al 6.53883 7.7371 7.83382
116 Al 9.00447 8.90251 11.5564
117 Al 5.56733 10.8759 10.6917
118 Al 7.84123 12.0586 14.4125
119 Al 5.56753 11.1086 7.70013
120 Al 7.82168 12.0347 11.505
121 Al 8.97673 8.89171 14.538
122 Al 7.7541 9.96448 9.25361
123 Al 5.36444 13.001 12.9297
124 Al 6.87641 9.97873 13.0307
125 Ni 6.98222 12.4004 9.17216
126 Ni 5.15908 9.0775 9.20993
127 Ni 7.65936 7.51459 12.9341
128 Ni 9.31455 10.7686 12.9303
ITEM: TIMESTEP
400
ITEM: NUMBER OF ATOMS
128
ITEM: BOX BOUNDS xy xz yz pp pp pp
-2.9021550941592977e-02 9.7188018947101504e+00 1.2658472230516896e-02
4.7765573641562753e-03 1.3209356218265434e+01 4.6116049281711494e-02
-3.6013068382332314e-02 1.4889490828193914e+01 1.4264562337168493e-02
ITEM: ATOMS id element xu yu zu
1 Al 4.42744 -0.100017 1.84109
2 Al 1.65569 1.17527 3.34217
3 Al 1.71442 1.19724 0.404442
4 Al 4.26536 2.17425 4.12972
5 Al 0.614927 4.66299 3.28436
6 Al 3.06081 5.44253 7.09668
7 Al 0.655045 4.46201 0.410168
8 Al 3.08162 5.49876 4.06039
9 Al 4.12956 2.31594 7.00506
10 Al 2.83236 3.28234 1.83842
11 Al 0.500983 6.57044 5.6088
12 Al 2.05361 3.32288 5.3649
13 Ni 2.25612 5.81644 1.65618
14 Ni 0.260701 2.47758 1.86254
15 Ni 2.69718 0.920966 5.49374
16 Ni 4.53678 4.24115 5.47462
17 Al 4.35891 0.172547 9.00653
18 Al 1.76207 1.15499 10.7989
19 Al 1.78112 1.0784 7.83682
20 Al 4.15859 2.25319 11.605
21 Al 0.641991 4.43825 10.7627
22 Al 3.10265 5.33767 14.4296
23 Al 0.699223 4.44855 7.78627
24 Al 3.06347 5.42358 11.5911
25 Al 4.0911 2.15539 14.6332
26 Al 3.02835 3.38919 9.39167
27 Al 0.487677 6.54122 13.0188
28 Al 1.98589 3.18278 12.9469
29 Ni 2.06629 5.71547 9.3469
30 Ni 0.259615 2.44608 9.24513
31 Ni 2.52473 0.865981 12.9615
32 Ni 4.51384 4.12162 13.0023
33 Al 4.48447 6.61139 1.76351
34 Al 1.79199 7.86875 3.21006
35 Al 1.87287 7.75141 0.369678
36 Al 4.20409 8.82839 4.09322
37 Al 0.661595 11.0857 3.3338
38 Al 3.21441 12.0485 6.95793
39 Al 0.655443 11.1082 0.435145
40 Al 3.16161 12.1667 4.03107
41 Al 4.04911 8.8819 7.00365
42 Al 2.81669 9.98126 1.7685
43 Al 0.538156 13.0931 5.65753
44 Al 1.83024 9.84264 5.58577
45 Ni 2.05065 12.5053 1.85501
46 Ni 0.324294 9.03254 1.72403
47 Ni 2.72295 7.5121 5.49481
48 Ni 4.57439 10.7336 5.53464
49 Al 4.44571 6.56045 9.18818
50 Al 1.76043 7.57622 10.7293
51 Al 1.75085 7.63607 7.88149
52 Al 4.22298 8.82798 11.5766
53 Al 0.758666 10.9606 10.711
54 Al 3.14782 12.0461 14.5531
55 Al 0.678254 11.082 7.93518
56 Al 3.1899 12.154 11.5084
57 Al 4.32224 8.82472 14.3372
58 Al 2.7331 9.86697 9.29469
59 Al 0.41355 13.2449 13.127
60 Al 2.0672 9.86469 13.0508
61 Ni 2.21171 12.3648 9.21012
62 Ni 0.222898 9.02232 9.32037
63 Ni 2.90282 7.47915 13.0445
64 Ni 4.55177 10.7398 12.9085
65 Al 9.28748 0.179906 1.80069
66 Al 6.64566 1.06036 3.29199
67 Al 6.55922 1.07332 0.395206
68 Al 8.86634 2.28145 4.18392
69 Al 5.42742 4.47431 3.18477
70 Al 7.88285 5.46334 6.84321
71 Al 5.49534 4.31598 0.429563
72 Al 7.94784 5.40135 4.15431
73 Al 9.12042 2.19557 6.95686
74 Al 7.70901 3.46366 1.8893
75 Al 5.16206 6.80934 5.57196
76 Al 6.76566 3.18964 5.62237
77 Ni 6.84044 5.70558 1.83707
78 Ni 5.14398 2.39825 1.88002
79 Ni 7.6208 0.905049 5.61687
80 Ni 9.55334 4.27042 5.51195
81 Al 9.20275 0.04733 9.34244
82 Al 6.54118 1.13152 10.7624
83 Al 6.54434 1.16995 7.8177
84 Al 9.08354 2.22807 11.484
85 Al 5.59485 4.42279 10.6879
86 Al 7.9454 5.39097 14.3493
87 Al 5.46136 4.49661 7.70174
88 Al 7.90649 5.35892 11.5905
89 Al 9.10728 2.34391 14.5243
90 Al 7.82169 3.44578 9.10579
91 Al 5.28136 6.50936 12.8285
92 Al 6.76245 3.29049 12.9545
93 Ni 7.00699 5.82861 9.21627
94 Ni 5.13238 2.58611 9.27494
95 Ni 7.63924 1.0791 13.0535
96 Ni 9.54024 4.22223 12.9471
97 Al 9.29532 6.71175 1.73638
98 Al 6.59364 7.7799 3.26724
99 Al 6.57578 7.80848 0.345048
100 Al 9.14227 8.67883 4.09661
101 Al 5.60731 10.9816 3.26568
102 Al 7.84611 12.0052 7.08722
103 Al 5.54293 11.1328 0.179982
104 Al 7.93828 12.0843 4.06285
105 Al 9.00474 8.80867 6.98822
106 Al 7.74215 9.91903 1.81315
107 Al 5.33551 12.9852 5.51406
108 Al 6.87078 9.84825 5.55554
109 Ni 7.02774 12.2293 1.81165
110 Ni 5.07391 9.09326 1.74002
111 Ni 7.40549 7.4983 5.50281
112 Ni 9.33977 10.715 5.51249
113 Al 9.2706 6.60029 9.31345
114 Al 6.56933 7.6647 10.7265
115 Al 6.57995 7.85507 7.89628
116 Al 8.98876 8.63218 11.6129
117 Al 5.56821 11.1554 10.7409
118 Al 8.03296 12.1992 14.4075
119 Al 5.44979 11.0425 7.88365
120 Al 7.91468 12.059 11.6476
121 Al 9.13451 8.80271 14.4131
122 Al 7.65746 9.93286 9.46508
123 Al 5.37129 13.3033 12.9482
124 Al 6.80649 9.80232 12.8809
125 Ni 7.00859 12.2903 9.24191
126 Ni 5.10216 9.06908 9.31811
127 Ni 7.48086 7.31306 13.0539
128 Ni 9.46598 10.7588 12.93
ITEM: TIMESTEP
500
ITEM: NUMBER OF ATOMS
128
ITEM: BOX BOUNDS xy xz yz pp pp pp
-1.1107857911424594e-01 9.6683912620491199e+00 4.7257115951208888e-03
-3.8070912670508168e-02 1.3231138113190987e+01 -7.8418850916574231e-02
-2.1877248866246646e-03 1.4855665484698207e+01 -6.8010127719365194e-03
ITEM: ATOMS id element xu yu zu
1 Al 4.37856 -0.018675 1.73802
2 Al 1.85129 1.03453 3.28662
3 Al 1.86358 1.10904 0.56207
4 Al 4.18749 2.07956 4.16581
5 Al 0.612513 4.36215 3.31902
6 Al 2.99421 5.48473 7.00442
7 Al 0.743565 4.50168 0.303699
8 Al 3.055 5.37634 4.24448
9 Al 4.17133 2.00679 7.01285
10 Al 2.91565 3.32631 1.88871
11 Al 0.242449 6.66335 5.29193
12 Al 1.98086 3.24259 5.63257
13 Ni 2.12257 5.76162 1.8146
14 Ni 0.307531 2.397 1.80396
15 Ni 2.64897 0.749175 5.63278
16 Ni 4.58806 4.03627 5.56214
17 Al 4.30545 -0.120686 9.34301
18 Al 1.68021 1.18383 10.7846
19 Al 1.77091 1.09756 7.80485
20 Al 4.05312 2.11544 11.4254
21 Al 0.550526 4.47139 10.6428
22 Al 3.00711 5.51957 14.3996
23 Al 0.644835 4.65623 7.67388
24 Al 2.95612 5.48688 11.43
25 Al 4.22904 2.2675 14.3816
26 Al 2.64985 3.26929 9.05163
27 Al 0.267652 6.5169 12.994
28 Al 2.04754 3.38289 13.0713
29 Ni 2.12892 5.86569 9.1368
30 Ni 0.145595 2.46417 9.21423
31 Ni 2.63479 0.903202 12.9841
32 Ni 4.50821 4.14098 12.9555
33 Al 4.29853 6.71614 1.75893
34 Al 1.62106 7.80338 3.27149
35 Al 1.69904 7.80246 0.428522
36 Al 4.0837 8.79886 4.03908
37 Al 0.778696 10.9481 3.41074
38 Al 2.93388 11.9992 7.06401
39 Al 0.763119 10.93 0.518108
40 Al 2.98798 12.0663 4.18874
41 Al 4.20008 8.69936 6.94961
42 Al 2.89448 9.83289 1.75378
43 Al 0.358845 13.2524 5.49006
44 Al 2.00833 9.84618 5.59561
45 Ni 2.16038 12.2542 1.8619
46 Ni 0.148988 9.04086 1.87223
47 Ni 2.66088 7.51442 5.46612
48 Ni 4.4713 10.7654 5.64891
49 Al 4.40072 6.67658 9.35373
50 Al 1.74559 7.78184 10.5989
51 Al 1.6757 7.81106 7.66923
52 Al 4.15666 8.85309 11.5228
53 Al 0.501634 11.0053 10.7521
54 Al 2.92842 12.2899 14.441
55 Al 0.510051 10.9039 7.90323
56 Al 2.93172 12.2077 11.6707
57 Al 4.06831 8.86731 14.2861
58 Al 2.64189 9.99189 9.19658
59 Al 0.435783 13.2698 12.8186
60 Al 2.00486 9.96139 12.9491
61 Ni 1.94242 12.3873 9.25875
62 Ni 0.162317 9.02253 9.27438
63 Ni 2.61394 7.49271 12.8691
64 Ni 4.4479 10.813 13.0319
65 Al 9.46044 -0.0483489 2.03112
66 Al 6.65002 1.09276 3.30633
67 Al 6.65871 1.02595 0.381296
68 Al 9.05865 2.08335 4.17403
69 Al 5.4665 4.29248 3.20835
70 Al 7.90137 5.48582 7.03333
71 Al 5.51179 4.44308 0.388438
72 Al 7.9126 5.49206 4.03911
73 Al 8.8852 2.1976 7.08958
74 Al 7.65382 3.18408 1.7976
75 Al 5.26479 6.46615 5.3588
76 Al 6.84719 3.28424 5.37218
77 Ni 6.95915 5.72705 1.79258
78 Ni 5.07896 2.50072 1.77191
79 Ni 7.5014 0.820212 5.47902
80 Ni 9.19409 4.16935 5.47381
81 Al 9.26335 0.029057 9.14659
82 Al 6.60931 1.07329 10.8645
83 Al 6.61868 1.10512 7.89333
84 Al 9.02199 2.18307 11.5617
85 Al 5.39859 4.38986 10.6727
86 Al 7.87787 5.44614 14.4104
87 Al 5.34324 4.51203 7.77088
88 Al 7.85022 5.6332 11.5479
89 Al 9.06885 2.12155 14.4774
90 Al 7.55693 3.27044 9.45372
91 Al 5.15374 6.67489 12.9739
92 Al 6.8701 3.30647 12.9645
93 Ni 6.85934 5.6694 9.29303
94 Ni 5.0114 2.36683 9.22346
95 Ni 7.47068 0.669425 12.9859
96 Ni 9.18678 4.1648 12.9995
97 Al 9.28095 6.66201 1.95634
98 Al 6.45903 7.77972 3.30866
99 Al 6.37484 7.80567 0.321728
100 Al 8.89039 8.93802 4.11177
101 Al 5.46424 11.2164 3.37878
102 Al 7.94043 12.1506 7.14696
103 Al 5.30098 11.1513 0.449895
104 Al 7.88626 11.8796 3.9927
105 Al 8.85691 8.74372 6.98049
106 Al 7.59561 10.0334 1.70613
107 Al 5.07002 13.2748 5.72993
108 Al 6.71983 9.92895 5.60538
109 Ni 7.02796 12.4796 1.90245
110 Ni 5.18093 9.11443 1.81935
111 Ni 7.43542 7.55539 5.50394
112 Ni 9.41117 10.7028 5.59142
113 Al 9.21532 6.67234 9.31561
114 Al 6.62809 7.73111 10.6275
115 Al 6.46198 7.51461 7.80651
116 Al 8.9179 8.80451 11.4892
117 Al 5.37714 11.1198 10.7189
118 Al 7.78601 12.033 14.4439
119 Al 5.40713 11.1192 7.82411
120 Al 7.90579 11.9986 11.4866
121 Al 8.99741 8.68271 14.4256
122 Al 7.54409 10.0475 9.12162
123 Al 5.16015 13.3119 13.0989
124 Al 6.74715 9.92988 12.9134
125 Ni 6.94289 12.4001 9.35979
126 Ni 5.14444 9.02051 9.23673
127 Ni 7.39614 7.61265 12.9477
128 Ni 9.38921 10.777 13.1245
ITEM: TIMESTEP
600
ITEM: NUMBER OF ATOMS
128
ITEM: BOX BOUNDS xy xz yz pp pp pp
-5.2245599404064300e-02 9.6658099355638303e+00 -2.5700705932926882e-02
-8.3355439372531537e-02 1.3256056417446061e+01 8.2592198363797276e-03
-2.9954611211402415e-02 1.4883432371022998e+01 -2.7167235218884086e-02
ITEM: ATOMS id element xu yu zu
1 Al 4.38169 -0.0355722 1.8688
2 Al 1.72565 1.07425 3.21511
3 Al 1.74753 0.976181 0.34427
4 Al 4.08374 2.31744 4.07286
5 Al 0.54796 4.33253 3.21999
6 Al 2.95257 5.28375 7.18662
7 Al 0.613637 4.44073 0.377054
8 Al 3.0647 5.51023 4.22771
9 Al 3.98539 2.08543 6.9794
10 Al 2.85144 3.27076 1.65042
11 Al 0.440615 6.35312 5.86408
12 Al 1.9467 3.19446 5.48502
13 Ni 1.97465 5.67401 1.8231
14 Ni 0.240234 2.4103 1.73114
15 Ni 2.70424 0.893721 5.49921
16 Ni 4.50333 4.22504 5.59518
17 Al 4.30288 0.114379 9.32506
18 Al 1.96129 1.10828 10.7745
19 Al 1.63488 1.09032 7.77528
20 Al 4.27813 2.15416 11.6868
21 Al 0.598109 4.38149 10.721
22 Al 2.97745 5.48399 14.5395
23 Al 0.62614 4.29544 7.93313
24 Al 3.04261 5.59 11.5671
25 Al 4.20275 2.21251 14.4219
26 Al 2.889 3.39695 9.41346
27 Al 0.305229 6.53703 12.8243
28 Al 1.94204 3.07929 13.0035
29 Ni 2.06441 5.69214 9.31829
30 Ni 0.308251 2.38106 9.35433
31 Ni 2.76352 0.697843 12.9602
32 Ni 4.61173 4.25397 13.0617
33 Al 4.27867 6.70766 1.89813
34 Al 1.71101 7.6971 3.22804
35 Al 1.47339 7.86157 0.299349
36 Al 4.17816 8.64656 4.19424
37 Al 0.40042 11.1832 3.18689
38 Al 3.18677 12.3888 6.8445
39 Al 0.628865 11.1501 0.392498
40 Al 2.88655 12.1178 4.11809
41 Al 4.04809 8.72864 7.06932
42 Al 2.78163 10.1432 1.94591
43 Al 0.353003 13.3253 5.54545
44 Al 2.07293 9.91855 5.47903
45 Ni 2.12804 12.4803 1.77318
46 Ni 0.202653 8.99007 1.78425
47 Ni 2.60542 7.37941 5.6248
48 Ni 4.50507 10.751 5.48988
49 Al 4.3857 6.73985 9.18168
50 Al 1.57523 7.85936 10.709
51 Al 1.77104 7.6704 7.96383
52 Al 4.05661 8.7475 11.5982
53 Al 0.515238 11.0381 10.659
54 Al 2.9718 12.0545 14.4549
55 Al 0.594211 11.1812 7.81049
56 Al 3.11682 12.1284 11.6166
57 Al 4.17788 8.64832 14.5439
58 Al 2.78648 10.168 9.20638
59 Al 0.550268 13.1721 13.0339
60 Al 1.91993 9.80691 12.9982
61 Ni 2.1947 12.4154 9.27081
62 Ni 0.282079 9.11801 9.21263
63 Ni 2.60341 7.44685 13.1042
64 Ni 4.5093 10.7165 12.986
65 Al 9.18452 0.0735953 1.70433
66 Al 6.65878 1.20387 3.17022
67 Al 6.59645 1.16104 0.384298
68 Al 8.95499 2.09977 4.04401
69 Al 5.59423 4.35314 3.28513
70 Al 7.76966 5.37767 7.08139
71 Al 5.44936 4.51791 0.380358
72 Al 7.95118 5.39077 4.19904
73 Al 9.004 2.01101 6.99102
74 Al 7.61993 3.42727 1.74131
75 Al 5.25862 6.51845 5.61622
76 Al 6.68167 3.20519 5.60611
77 Ni 7.00974 5.77785 1.75966
78 Ni 5.16564 2.58553 1.86507
79 Ni 7.53502 0.829656 5.52305
80 Ni 9.47282 4.01666 5.58483
81 Al 9.23425 0.100373 9.46851
82 Al 6.62725 1.05249 10.6423
83 Al 6.52563 0.999682 7.75214
84 Al 8.95554 2.06098 11.4952
85 Al 5.49365 4.56782 10.6506
86 Al 7.98254 5.37057 14.3463
87 Al 5.59481 4.20482 7.79919
88 Al 7.89896 5.38396 11.4779
89 Al 8.9738 2.15805 14.4435
90 Al 7.73395 3.3226 9.18041
91 Al 5.27505 6.64665 13.0052
92 Al 6.80028 3.15572 13.0987
93 Ni 7.00585 5.84013 9.24187
94 Ni 5.11359 2.41291 9.34523
95 Ni 7.47503 0.804841 12.982
96 Ni 9.42804 4.15472 13.0435
97 Al 9.18719 6.57745 1.78058
98 Al 6.67552 7.6802 3.31078
99 Al 6.56619 7.73547 0.419771
100 Al 9.14803 8.69227 4.20966
101 Al 5.46683 10.9863 3.29401
102 Al 7.88224 11.9748 7.00897
103 Al 5.42605 10.9614 0.260265
104 Al 7.88221 12.2675 4.02696
105 Al 9.20746 8.83057 6.87418
106 Al 7.71351 9.9156 1.97709
107 Al 5.29076 13.2008 5.27712
108 Al 6.84359 9.75796 5.44962
109 Ni 6.84701 12.3853 1.77535
110 Ni 5.00011 8.96567 1.88825
111 Ni 7.62244 7.32462 5.52109
112 Ni 9.41111 10.7957 5.48845
113 Al 9.25608 6.70845 9.18066
114 Al 6.58101 7.73947 10.7737
115 Al 6.70002 7.83245 7.77873
116 Al 8.9317 8.82003 11.4833
117 Al 5.56359 10.9035 10.6549
118 Al 7.70415 12.1647 14.3682
119 Al 5.40671 11.0472 7.71236
120 Al 7.89183 12.2879 11.5056
121 Al 8.95189 8.90762 14.4424
122 Al 7.72302 10.0629 9.33795
123 Al 5.27001 13.0766 12.9109
124 Al 6.78689 9.84865 13.1333
125 Ni 6.97349 12.3493 9.18881
126 Ni 5.1201 9.06556 9.21092
127 Ni 7.56834 7.42546 12.9115
128 Ni 9.27211 10.7575 12.8635
ITEM: TIMESTEP
700
ITEM: NUMBER OF ATOMS
128
ITEM: BOX BOUNDS xy xz yz pp pp pp
-3.3072663736767191e-02 9.7522729070569820e+00 -2.6916276454480238e-02
-3.1765849459703108e-02 1.3214288279479980e+01 1.1511069751838089e-01
-8.1054412370820117e-03 1.4861583201048667e+01 -1.7345783272127362e-02
ITEM: ATOMS id element xu yu zu
1 Al 4.27952 0.0783666 1.80409
2 Al 1.73872 1.11524 3.24783
3 Al 1.66163 1.08524 0.351456
4 Al 4.13373 2.16606 3.99393
5 Al 0.681454 4.47676 3.33323
6 Al 3.01942 5.64043 6.90996
7 Al 0.590956 4.42282 0.484304
8 Al 3.14338 5.54757 4.16218
9 Al 4.23743 2.26394 6.85143
10 Al 2.77223 3.38913 1.85947
11 Al 0.46029 6.71831 5.38429
12 Al 2.03378 3.23804 5.66919
13 Ni 2.22287 5.75291 1.79978
14 Ni 0.264496 2.49496 1.88092
15 Ni 2.76268 0.836115 5.51986
16 Ni 4.63787 4.15097 5.52252
17 Al 4.50006 0.0874318 9.19097
18 Al 1.68212 0.845419 10.7243
19 Al 1.91274 1.20523 7.73222
20 Al 4.16486 2.00242 11.433
21 Al 0.758997 4.32766 10.7539
22 Al 3.08738 5.48445 14.4656
23 Al 0.734772 4.34702 7.87709
24 Al 3.14399 5.40933 11.5431
25 Al 4.23901 2.1163 14.3672
26 Al 2.87853 3.32008 9.22399
27 Al 0.563592 6.53586 13.2161
28 Al 2.06065 3.29584 12.9666
29 Ni 2.1837 5.67208 9.28552
30 Ni 0.32528 2.39178 9.26658
31 Ni 2.78911 0.86432 12.973
32 Ni 4.56454 4.01716 12.9792
33 Al 4.57604 6.65881 1.76556
34 Al 1.79588 7.84444 3.33823
35 Al 1.79666 7.72857 0.466882
36 Al 4.21927 8.9071 4.13856
37 Al 0.636326 11.0563 3.35999
38 Al 3.17563 11.8902 6.91438
39 Al 0.623634 11.1116 0.419808
40 Al 3.19334 12.1874 4.04134
41 Al 4.26673 8.86778 6.95062
42 Al 2.75132 9.95622 1.81394
43 Al 0.512269 13.1489 5.47207
44 Al 2.01903 9.82315 5.53103
45 Ni 2.09299 12.3838 1.77469
46 Ni 0.339763 9.13021 1.87592
47 Ni 2.78099 7.49663 5.53406
48 Ni 4.68607 10.8308 5.51227
49 Al 4.40502 6.64718 9.37987
50 Al 1.75117 7.66337 10.6769
51 Al 1.75221 7.82525 7.88475
52 Al 4.26462 8.74362 11.6207
53 Al 0.697762 10.9757 10.7277
54 Al 3.06145 11.9921 14.515
55 Al 0.720126 10.9078 7.64963
56 Al 3.25747 12.1045 11.4884
57 Al 4.26215 8.79192 14.4357
58 Al 2.91622 9.89407 9.33124
59 Al 0.323838 13.1633 13.0306
60 Al 2.07255 9.80252 12.9537
61 Ni 2.23928 12.2984 9.19681
62 Ni 0.383809 9.06373 9.30931
63 Ni 2.79779 7.49011 12.9425
64 Ni 4.64838 10.7751 12.9905
65 Al 9.21211 0.0505481 1.81653
66 Al 6.56755 1.02688 3.22254
67 Al 6.599 1.15541 0.38044
68 Al 8.91796 2.11387 4.02569
69 Al 5.45863 4.50904 3.29047
70 Al 7.87546 5.56127 7.11026
71 Al 5.42738 4.26125 0.350656
72 Al 7.9906 5.56059 4.1433
73 Al 9.09246 2.105 6.92645
74 Al 7.47074 3.37265 1.84573
75 Al 5.25449 6.5803 5.67315
76 Al 6.89566 3.32989 5.59066
77 Ni 6.94969 5.74768 1.96154
78 Ni 5.0533 2.31684 1.77518
79 Ni 7.46974 0.836052 5.53172
80 Ni 9.42649 4.17458 5.58644
81 Al 9.32242 -0.130273 9.01219
82 Al 6.72885 1.19581 10.5823
83 Al 6.61846 1.28736 7.8174
84 Al 9.05036 2.09582 11.4187
85 Al 5.59355 4.3981 10.7674
86 Al 8.04706 5.50343 14.5754
87 Al 5.51066 4.47461 7.7206
88 Al 8.00025 5.51781 11.622
89 Al 9.04346 2.12972 14.4166
90 Al 7.74108 3.41066 9.27001
91 Al 5.29953 6.43003 12.9751
92 Al 6.97634 3.29316 12.8897
93 Ni 7.06214 5.69516 9.32543
94 Ni 5.20307 2.51807 9.2561
95 Ni 7.48807 0.947749 12.9214
96 Ni 9.46107 4.21944 12.9465
97 Al 9.23768 6.68487 1.84928
98 Al 6.64635 7.68824 3.35712
99 Al 6.60506 7.81125 0.42372
100 Al 8.83307 8.8493 4.04785
101 Al 5.38173 11.0496 3.19227
102 Al 7.87362 12.1292 6.86707
103 Al 5.53539 11.0401 0.231793
104 Al 7.81868 12.0357 4.07113
105 Al 9.01904 8.85644 7.07803
106 Al 7.6533 9.89006 1.86051
107 Al 5.23295 13.231 5.72996
108 Al 6.84996 9.91519 5.54172
109 Ni 6.90942 12.3219 1.84248
110 Ni 5.09762 9.02194 1.83919
111 Ni 7.58937 7.55115 5.59907
112 Ni 9.31895 10.8162 5.49457
113 Al 9.32386 6.59943 9.37301
114 Al 6.66768 7.65488 10.7848
115 Al 6.60186 7.70752 7.90902
116 Al 9.2324 8.75575 11.6175
117 Al 5.54245 11.0205 10.6597
118 Al 7.8926 12.039 14.4651
119 Al 5.61008 10.9406 7.76783
120 Al 7.87607 12.045 11.5061
121 Al 9.14453 8.75746 14.574
122 Al 7.67451 9.91141 9.29995
123 Al 5.17752 13.1534 12.9145
124 Al 6.91024 9.70252 12.7003
125 Ni 6.98695 12.4222 9.19551
126 Ni 5.16306 9.04166 9.27318
127 Ni 7.55159 7.43184 13.0931
128 Ni 9.40367 10.7467 12.999
ITEM: TIMESTEP
800
ITEM: NUMBER OF ATOMS
128
ITEM: BOX BOUNDS xy xz yz pp pp pp
-1.0826227901420730e-01 9.7192368204385104e+00 1.7154453337243188e-02
-1.5698964295867590e-02 1.3268655501485311e+01 -3.7185734169258008e-02
-6.4524988236114744e-02 1.4918002748047696e+01 5.3088323897041823e-02
ITEM: ATOMS id element xu yu zu
1 Al 4.39264 0.100179 1.79549
2 Al 1.79252 1.1529 3.30784
3 Al 1.72889 1.15472 0.348732
4 Al 4.24125 2.17463 4.1264
5 Al 0.586355 4.4669 3.15407
6 Al 3.21894 5.55614 7.00859
7 Al 0.608347 4.47027 0.211435
8 Al 3.05835 5.41351 4.09345
9 Al 4.11065 2.30458 6.95479
10 Al 2.69958 3.40152 1.81802
11 Al 0.397477 6.5589 5.40091
12 Al 1.94365 3.28968 5.4429
13 Ni 2.02054 5.79852 1.78297
14 Ni 0.297807 2.41003 1.81823
15 Ni 2.56349 0.904682 5.59264
16 Ni 4.56674 4.17841 5.55122
17 Al 4.33468 0.00828322 9.21657
18 Al 1.69589 1.36902 10.6837
19 Al 1.64755 1.10066 7.79099
20 Al 4.13045 2.24199 11.6914
21 Al 0.545387 4.45363 10.7461
22 Al 3.05276 5.46152 14.603
23 Al 0.664514 4.56622 7.67524
24 Al 2.98402 5.34864 11.5074
25 Al 4.16806 2.15784 14.4276
26 Al 2.58934 3.354 9.14108
27 Al 0.392338 6.51544 12.9596
28 Al 1.90753 3.36079 13.0621
29 Ni 2.11129 5.91164 9.2528
30 Ni 0.194952 2.55566 9.19673
31 Ni 2.45191 0.956246 12.9858
32 Ni 4.54661 4.20092 13.0023
33 Al 4.43461 6.69956 1.86056
34 Al 1.79696 7.80418 3.20592
35 Al 1.78271 7.69845 0.304767
36 Al 4.10272 8.96524 4.02796
37 Al 0.577046 10.8607 3.21891
38 Al 2.99795 11.96 7.03207
39 Al 0.807192 10.9195 0.303547
40 Al 3.07369 12.1677 4.03766
41 Al 4.18218 8.83119 6.97956
42 Al 2.93986 10.0653 1.68502
43 Al 0.330617 13.2006 5.58757
44 Al 1.9844 9.89066 5.58315
45 Ni 2.13133 12.383 1.77274
46 Ni 0.0405332 9.07061 1.71753
47 Ni 2.63104 7.57068 5.4938
48 Ni 4.44983 10.7413 5.68681
49 Al 4.43778 6.54308 9.30438
50 Al 1.82086 7.87391 10.7261
51 Al 1.63787 7.69618 7.74901
52 Al 4.20148 8.81444 11.6128
53 Al 0.582014 10.9703 10.777
54 Al 3.01825 12.3261 14.5069
55 Al 0.513085 10.9239 7.92345
56 Al 2.98994 12.1655 11.4828
57 Al 4.18955 8.94201 14.335
58 Al 2.83319 9.8992 9.35021
59 Al 0.290529 13.1685 12.9535
60 Al 2.07366 9.94727 12.9976
61 Ni 1.90135 12.4182 9.33456
62 Ni 0.181742 8.99566 9.28575
63 Ni 2.72499 7.41366 13.0454
64 Ni 4.51767 10.8565 12.9361
65 Al 9.3884 0.0182578 1.78889
66 Al 6.50472 1.10218 3.29898
67 Al 6.57108 1.19197 0.276882
68 Al 9.18283 2.21016 4.0734
69 Al 5.51321 4.46499 3.25673
70 Al 7.77832 5.57994 6.96155
71 Al 5.41676 4.34748 0.394785
72 Al 7.92547 5.49073 3.9203
73 Al 9.08425 2.35498 6.99782
74 Al 7.68493 3.37276 1.7629
75 Al 5.04644 6.64874 5.29039
76 Al 6.81936 3.30837 5.56965
77 Ni 6.98058 5.68369 1.72941
78 Ni 5.10982 2.38255 1.77773
79 Ni 7.65251 0.942452 5.56021
80 Ni 9.35397 4.28469 5.40742
81 Al 9.2255 0.192464 9.42399
82 Al 6.43884 1.15622 10.7947
83 Al 6.60376 1.13097 7.92439
84 Al 8.96971 2.32108 11.5157
85 Al 5.49292 4.31092 10.746
86 Al 7.90014 5.55375 14.4783
87 Al 5.54786 4.47506 7.79499
88 Al 7.87134 5.47335 11.5336
89 Al 8.98508 2.08279 14.6109
90 Al 7.66948 3.38699 9.32633
91 Al 5.19913 6.59171 13.054
92 Al 6.72568 3.14695 13.0753
93 Ni 6.92883 5.78819 9.25476
94 Ni 4.98726 2.35724 9.24916
95 Ni 7.71743 0.900759 13.0942
96 Ni 9.38361 4.09624 13.0306
97 Al 9.29831 6.62436 1.83271
98 Al 6.72018 7.71188 3.18404
99 Al 6.58738 7.66847 0.279098
100 Al 9.01598 8.61929 4.13175
101 Al 5.62408 11.1754 3.42446
102 Al 7.89025 12.1205 6.9717
103 Al 5.35366 11.2085 0.352181
104 Al 8.00846 12.0674 4.16849
105 Al 8.97277 8.739 7.09969
106 Al 7.68348 10.0166 1.67659
107 Al 5.22491 13.2559 5.50757
108 Al 6.84623 9.9631 5.49177
109 Ni 7.11645 12.5292 1.7573
110 Ni 5.18578 9.14481 1.71894
111 Ni 7.43579 7.49533 5.42984
112 Ni 9.47081 10.7777 5.68716
113 Al 9.30556 6.58966 9.26074
114 Al 6.5815 7.84434 10.7527
115 Al 6.47817 7.76735 7.76879
116 Al 9.11504 8.7686 11.5596
117 Al 5.42075 11.345 10.8085
118 Al 8.00204 12.056 14.6263
119 Al 5.42056 11.042 7.88511
120 Al 8.00388 12.109 11.5578
121 Al 9.00729 8.72232 14.4637
122 Al 7.60137 10.0849 9.23279
123 Al 5.18242 13.1182 13.0618
124 Al 6.85795 10.0554 13.1638
125 Ni 6.99488 12.3868 9.40015
126 Ni 5.15287 9.11664 9.35803
127 Ni 7.48452 7.514 12.9991
128 Ni 9.4621 10.8072 13.0227
ITEM: TIMESTEP
900
ITEM: NUMBER OF ATOMS
128
ITEM: BOX BOUNDS xy xz yz pp pp pp
-1.5906767579277173e-01 9.7454473273390647e+00 7.8208105930298324e-02
4.9447485914662082e-02 1.3170213216440324e+01 -1.2283427664031468e-01
2.3580103020857557e-02 1.4829897656790717e+01 1.9792489062602073e-02
ITEM: ATOMS id element xu yu zu
1 Al 4.47617 0.10882 1.92483
2 Al 1.70334 1.17921 3.32511
3 Al 1.78714 1.12527 0.463027
4 Al 4.12906 2.28196 4.17565
5 Al 0.64673 4.48494 3.30862
6 Al 3.02336 5.33888 7.03311
7 Al 0.733366 4.48314 0.318125
8 Al 3.14061 5.46434 4.03733
9 Al 4.04108 2.06425 7.15635
10 Al 2.7892 3.48359 1.8025
11 Al 0.37126 6.5177 5.61228
12 Al 2.04619 3.27982 5.63407
13 Ni 2.12421 5.78188 1.75974
14 Ni 0.21294 2.41735 1.79614
15 Ni 2.59856 0.922718 5.47764
16 Ni 4.41754 4.23855 5.49566
17 Al 4.41478 0.129473 9.47794
18 Al 1.61359 1.267 10.7254
19 Al 1.62098 1.37668 7.84153
20 Al 4.13128 2.34326 11.5716
21 Al 0.64393 4.55219 10.7822
22 Al 2.98937 5.57722 14.2982
23 Al 0.553126 4.41776 7.96406
24 Al 3.04421 5.64537 11.5415
25 Al 4.17903 2.34856 14.5211
26 Al 2.82854 3.44026 9.38696
27 Al 0.248499 6.60028 13.0128
28 Al 1.9031 3.31258 12.8769
29 Ni 2.17398 5.76043 9.20963
30 Ni 0.186982 2.58582 9.35031
31 Ni 2.8248 0.948235 13.0635
32 Ni 4.5007 4.19543 12.9568
33 Al 4.35773 6.69009 1.73973
34 Al 1.72454 7.59471 3.32981
35 Al 1.67135 7.76361 0.321569
36 Al 4.1793 8.64654 4.22126
37 Al 0.699941 10.9967 3.30716
38 Al 3.12472 12.2674 6.96954
39 Al 0.559221 10.9949 0.530849
40 Al 2.9828 12.0361 4.12891
41 Al 4.12876 8.82243 6.95011
42 Al 2.82259 9.93055 1.86234
43 Al 0.39642 13.144 5.62243
44 Al 2.02225 9.82894 5.62108
45 Ni 2.19152 12.2382 1.88762
46 Ni 0.330915 9.00869 1.85993
47 Ni 2.72616 7.46222 5.50222
48 Ni 4.59614 10.7709 5.48647
49 Al 4.27173 6.71085 9.19314
50 Al 1.57772 7.64557 10.6222
51 Al 1.70326 7.5372 7.79178
52 Al 3.94615 8.83945 11.3527
53 Al 0.646804 11.0923 10.7481
54 Al 3.05833 11.9997 14.587
55 Al 0.688095 11.0784 7.7794
56 Al 3.11228 11.9538 11.5338
57 Al 3.99974 8.76137 14.4648
58 Al 2.77368 10.0799 9.10008
59 Al 0.47967 13.0473 12.9683
60 Al 1.92471 9.8587 13.0327
61 Ni 2.16328 12.3935 9.33132
62 Ni 0.206831 9.09159 9.1909
63 Ni 2.60338 7.59266 12.8999
64 Ni 4.50514 10.7205 13.0365
65 Al 9.145 0.136181 1.83977
66 Al 6.37679 1.23744 3.41148
67 Al 6.5779 1.12696 0.562307
68 Al 9.14694 2.18564 4.20886
69 Al 5.51283 4.52032 3.24456
70 Al 7.87958 5.41362 7.01566
71 Al 5.54623 4.59921 0.35943
72 Al 7.85714 5.4944 4.14636
73 Al 8.88913 2.13047 7.11546
74 Al 7.7877 3.46046 1.84767
75 Al 5.16444 6.41427 5.62883
76 Al 6.75244 3.2757 5.43324
77 Ni 7.00993 5.83752 1.86429
78 Ni 5.19796 2.60944 1.9549
79 Ni 7.42499 0.828186 5.57386
80 Ni 9.4175 4.08368 5.63019
81 Al 9.12785 0.00161631 9.34827
82 Al 6.56658 1.186 10.6107
83 Al 6.46831 1.14873 7.81198
84 Al 8.97842 2.267 11.5808
85 Al 5.40356 4.55004 10.7848
86 Al 7.81799 5.49689 14.4158
87 Al 5.38287 4.41266 7.70508
88 Al 7.88401 5.46245 11.3061
89 Al 8.91036 2.24569 14.2915
90 Al 7.57275 3.40592 9.20911
91 Al 5.17429 6.70072 12.9112
92 Al 6.75466 3.34465 12.9077
93 Ni 6.84067 5.69818 9.1601
94 Ni 5.11468 2.49539 9.28956
95 Ni 7.37744 0.972424 12.9989
96 Ni 9.36455 4.23556 12.9624
97 Al 9.28603 6.61367 1.70806
98 Al 6.53442 7.72862 3.39343
99 Al 6.6315 7.67034 0.478399
100 Al 8.84891 8.84927 4.08889
101 Al 5.3904 10.9188 3.32017
102 Al 7.97877 12.0749 7.0571
103 Al 5.65832 10.9382 0.348682
104 Al 7.91467 12.0691 4.12672
105 Al 9.1764 8.82355 6.91746
106 Al 7.84217 9.87591 1.93188
107 Al 5.36092 13.0601 5.4834
108 Al 6.7756 9.86224 5.59371
109 Ni 7.06715 12.2278 1.87817
110 Ni 5.1262 9.06429 1.8431
111 Ni 7.55579 7.48636 5.54491
112 Ni 9.32391 10.7477 5.40308
113 Al 9.04093 6.83308 9.15589
114 Al 6.46644 7.77361 10.573
115 Al 6.57884 7.70055 7.71589
116 Al 8.88538 8.75368 11.414
117 Al 5.49783 10.9502 10.6834
118 Al 7.9793 12.1526 14.39
119 Al 5.40536 11.0936 7.82116
120 Al 7.85773 11.9601 11.5113
121 Al 8.74336 8.83581 14.3385
122 Al 7.63505 10.0184 9.18265
123 Al 5.06825 13.1096 13.0206
124 Al 6.58873 9.71377 13.0206
125 Ni 6.95862 12.2465 9.22815
126 Ni 4.99531 9.04658 9.14886
127 Ni 7.43473 7.38446 12.9065
128 Ni 9.4024 10.7424 12.9408
ITEM: TIMESTEP
1000
ITEM: NUMBER OF ATOMS
128
ITEM: BOX BOUNDS xy xz yz pp pp pp
-4.4877201754831120e-02 9.7512049616741958e+00 2.0023879425233225e-02
-1.1676595717507979e-01 1.3266205755632326e+01 5.5298058237819109e-02
-5.6248058110730526e-02 1.4909725817922297e+01 -5.0428414835147851e-02
ITEM: ATOMS id element xu yu zu
1 Al 4.44592 -0.0233174 1.62534
2 Al 1.67095 1.07999 3.4108
3 Al 1.63126 1.1115 0.358553
4 Al 4.27783 2.02426 4.00685
5 Al 0.753096 4.36249 3.33458
6 Al 3.09584 5.44317 6.99082
7 Al 0.586184 4.41017 0.441413
8 Al 3.08941 5.47504 4.22103
9 Al 4.16381 2.13039 7.05101
10 Al 2.87037 3.31585 1.76616
11 Al 0.436484 6.54286 5.70129
12 Al 2.03808 3.0687 5.46151
13 Ni 2.1106 5.67341 1.91264
14 Ni 0.246185 2.4795 1.8453
15 Ni 2.78333 0.754431 5.56249
16 Ni 4.61943 4.14838 5.5423
17 Al 4.44536 -0.0136292 9.06373
18 Al 1.64509 0.988026 10.6268
19 Al 1.76702 0.980198 7.7786
20 Al 4.14453 2.01211 11.5877
21 Al 0.557921 4.24818 10.7231
22 Al 3.06504 5.38541 14.4852
23 Al 0.703078 4.30052 7.86117
24 Al 3.0433 5.46843 11.4777
25 Al 4.20723 2.07017 14.3907
26 Al 2.86743 3.24077 9.24703
27 Al 0.397086 6.53617 12.9708
28 Al 2.10507 3.28533 13.0178
29 Ni 2.08622 5.63591 9.22994
30 Ni 0.297656 2.29482 9.24836
31 Ni 2.66973 0.728455 12.984
32 Ni 4.51896 4.14661 12.9992
33 Al 4.43914 6.44558 1.87685
34 Al 1.86572 7.72951 3.20126
35 Al 1.79879 7.71424 0.483923
36 Al 4.1 8.83936 4.19339
37 Al 0.670896 11.2657 3.31201
38 Al 3.08523 12.017 6.94783
39 Al 0.596848 11.2141 0.222368
40 Al 3.10527 12.1253 4.01245
41 Al 4.11164 8.69262 7.10037
42 Al 2.67445 10.0036 1.8282
43 Al 0.419238 13.2569 5.43509
44 Al 2.02454 9.87325 5.44126
45 Ni 2.16695 12.446 1.76358
46 Ni 0.244849 9.14198 1.84243
47 Ni 2.61205 7.47052 5.53405
48 Ni 4.58888 10.7602 5.48831
49 Al 4.3846 6.62816 9.19424
50 Al 1.75016 7.62687 10.8021
51 Al 1.80513 7.89893 7.82265
52 Al 4.25389 8.63185 11.6329
53 Al 0.733228 11.2328 10.6932
54 Al 3.12484 12.1073 14.375
55 Al 0.56423 11.1409 7.84565
56 Al 3.18567 12.1185 11.5523
57 Al 4.09899 8.62081 14.5172
58 Al 2.89608 10.0531 9.31441
59 Al 0.16759 13.2682 13.1506
60 Al 1.96152 9.78542 12.8355
61 Ni 2.27281 12.2619 9.24891
62 Ni 0.309028 9.11382 9.27118
63 Ni 2.60112 7.44195 13.001
64 Ni 4.663 10.8086 12.9529
65 Al 9.2868 -0.137667 1.76488
66 Al 6.60188 1.05538 3.10598
67 Al 6.56852 1.10728 0.246621
68 Al 8.91678 2.2459 4.05824
69 Al 5.47809 4.3803 3.33109
70 Al 8.01999 5.4715 7.11455
71 Al 5.53801 4.37905 0.313861
72 Al 7.93067 5.46326 4.0694
73 Al 9.12031 2.14137 6.91832
74 Al 7.60126 3.25044 1.78598
75 Al 5.26351 6.49925 5.50778
76 Al 6.90766 3.27901 5.61095
77 Ni 7.0395 5.71777 1.74024
78 Ni 5.07882 2.31176 1.65496
79 Ni 7.49825 0.792443 5.48238
80 Ni 9.42677 4.14539 5.50695
81 Al 9.22781 -0.188701 9.1942
82 Al 6.61702 1.0743 10.6545
83 Al 6.68311 1.21399 7.72543
84 Al 9.18448 2.03614 11.6605
85 Al 5.50203 4.39528 10.8264
86 Al 7.9914 5.51938 14.4977
87 Al 5.50274 4.4004 7.90619
88 Al 7.84931 5.46854 11.6363
89 Al 9.11289 2.26927 14.4242
90 Al 7.72075 3.35474 9.40468
91 Al 5.33361 6.53382 13.0164
92 Al 6.92026 3.30252 13.0398
93 Ni 7.15187 5.85544 9.3918
94 Ni 5.18604 2.36211 9.28816
95 Ni 7.68137 0.729063 13.0438
96 Ni 9.57277 4.17705 13.0276
97 Al 9.36428 6.6592 1.88344
98 Al 6.59449 7.73817 3.22723
99 Al 6.54847 7.82943 0.284853
100 Al 9.09228 8.88654 4.16588
101 Al 5.46546 10.9746 3.27284
102 Al 7.8974 12.1935 6.9614
103 Al 5.30153 10.9092 0.274885
104 Al 8.00904 12.1007 4.14702
105 Al 9.05168 8.7488 7.0361
106 Al 7.6758 9.90681 1.83516
107 Al 5.30161 13.3517 5.65301
108 Al 6.83732 9.80701 5.39561
109 Ni 6.84761 12.3886 1.69182
110 Ni 5.01395 8.93676 1.77044
111 Ni 7.56728 7.40801 5.50402
112 Ni 9.5079 10.7425 5.6114
113 Al 9.55071 6.56135 9.25535
114 Al 6.61846 7.69569 10.8278
115 Al 6.66796 7.68109 7.79678
116 Al 9.09 8.88846 11.5417
117 Al 5.59046 10.9775 10.6257
118 Al 7.85506 11.9983 14.5179
119 Al 5.65895 10.9678 7.83831
120 Al 8.07136 12.253 11.4323
121 Al 9.18609 8.77244 14.4321
122 Al 7.64663 9.88977 9.46112
123 Al 5.35561 13.1124 12.9871
124 Al 6.99092 9.99039 12.8422
125 Ni 6.98707 12.4892 9.29254
126 Ni 5.18631 9.02262 9.31973
127 Ni 7.67626 7.60181 13.0916
128 Ni 9.36611 10.8529 13.0646
ITEM: TIMESTEP
1100
ITEM: NUMBER OF ATOMS
128
ITEM: BOX BOUNDS xy xz yz pp pp pp
-5.2527009494393484e-02 9.7079838491436483e+00 -7.3324405605282417e-02
-5.9122104990617791e-02 1.3229220973045958e+01 9.7775422998228875e-02
-6.1702325216037579e-03 1.4859647992333173e+01 -2.9769345237062345e-02
ITEM: ATOMS id element xu yu zu
1 Al 4.39064 0.0367571 1.86936
2 Al 2.00527 1.0278 3.22766
3 Al 1.72256 1.07649 0.350872
4 Al 4.15767 2.18476 4.13829
5 Al 0.607382 4.43108 3.08986
6 Al 3.19975 5.60217 7.04998
7 Al 0.608888 4.38991 0.360653
8 Al 3.16578 5.55161 3.98826
9 Al 4.30442 2.15113 6.87523
10 Al 2.74833 3.34817 1.79634
11 Al 0.476499 6.66624 5.41244
12 Al 1.92599 3.32014 5.47542
13 Ni 2.16536 5.82635 1.80317
14 Ni 0.303409 2.46498 1.786
15 Ni 2.64081 0.893817 5.54527
16 Ni 4.60007 4.19325 5.56397
17 Al 4.34736 0.0347159 9.20827
18 Al 1.75404 1.24831 10.5535
19 Al 1.87963 1.19926 7.75635
20 Al 4.10249 2.21794 11.5902
21 Al 0.668252 4.51379 10.808
22 Al 3.23989 5.39896 14.4806
23 Al 0.762309 4.64581 7.85955
24 Al 3.10032 5.35093 11.6359
25 Al 4.20407 2.13083 14.4683
26 Al 2.79281 3.34187 9.16883
27 Al 0.57112 6.56948 13.0512
28 Al 1.94211 3.21004 13.0977
29 Ni 2.20663 5.82858 9.3924
30 Ni 0.460205 2.54549 9.2408
31 Ni 2.72536 0.876985 12.9068
32 Ni 4.67632 4.06244 12.9929
33 Al 4.42628 6.77571 1.84216
34 Al 1.79532 7.83817 3.3151
35 Al 1.75797 7.79095 0.379139
36 Al 4.08356 8.75379 4.02598
37 Al 0.661205 10.9563 3.23132
38 Al 3.0292 12.0912 6.99386
39 Al 0.622601 11.0435 0.29942
40 Al 2.9299 12.05 4.11539
41 Al 4.17512 8.68251 7.1128
42 Al 2.83271 9.95054 1.80322
43 Al 0.471546 13.0859 5.49523
44 Al 1.99484 9.9011 5.45148
45 Ni 2.04936 12.3636 1.79432
46 Ni 0.326367 8.93751 1.79738
47 Ni 2.80935 7.39485 5.6219
48 Ni 4.50063 10.667 5.52745
49 Al 4.56958 6.62813 9.52353
50 Al 1.97523 7.67177 10.9255
51 Al 1.6568 7.71909 7.74063
52 Al 4.37272 8.77952 11.5754
53 Al 0.581516 11.0184 10.4611
54 Al 3.11651 12.1356 14.4397
55 Al 0.768878 10.9135 7.77784
56 Al 2.9429 12.1039 11.5126
57 Al 4.36531 8.80634 14.4811
58 Al 2.80392 9.85306 9.31701
59 Al 0.394507 13.0102 12.7152
60 Al 2.13653 9.84083 13.1112
61 Ni 2.06071 12.4154 9.21659
62 Ni 0.290126 8.95821 9.28214
63 Ni 2.92781 7.43182 13.0385
64 Ni 4.48995 10.8213 12.9835
65 Al 9.22862 0.0415166 1.83444
66 Al 6.62273 1.17826 3.27411
67 Al 6.46355 1.11852 0.418412
68 Al 9.08836 2.01273 4.08894
69 Al 5.42202 4.44164 3.44202
70 Al 7.94468 5.57431 6.8521
71 Al 5.41771 4.27859 0.509258
72 Al 7.79818 5.37099 4.17086
73 Al 9.07152 2.20837 6.96501
74 Al 7.61349 3.31959 1.82141
75 Al 5.24805 6.60379 5.53806
76 Al 6.88831 3.09716 5.52506
77 Ni 6.80531 5.69765 1.86676
78 Ni 5.00567 2.34174 1.94479
79 Ni 7.55627 0.819516 5.59795
80 Ni 9.3239 4.16765 5.50781
81 Al 9.14449 0.0579606 9.18573
82 Al 6.50301 1.12984 10.5755
83 Al 6.58764 0.991808 7.75575
84 Al 8.96922 2.21237 11.5131
85 Al 5.5785 4.41046 10.7732
86 Al 7.83207 5.23331 14.4927
87 Al 5.44393 4.40412 7.76805
88 Al 7.95437 5.47386 11.4904
89 Al 9.06577 1.89033 14.3341
90 Al 7.65247 3.24354 9.10851
91 Al 5.23918 6.42249 12.9949
92 Al 6.80205 3.2315 12.9867
93 Ni 6.99231 5.64935 9.22683
94 Ni 5.03362 2.51985 9.17759
95 Ni 7.49838 0.842759 12.9166
96 Ni 9.24881 4.01308 12.9984
97 Al 9.05854 6.68971 1.87865
98 Al 6.56796 7.7817 3.15617
99 Al 6.49898 7.77216 0.362559
100 Al 8.93806 8.75835 4.08342
101 Al 5.39925 11.0237 3.37278
102 Al 7.86432 12.0663 7.02009
103 Al 5.48829 11.2491 0.307465
104 Al 7.87926 12.055 4.13015
105 Al 8.93822 8.78657 7.03561
106 Al 7.63878 9.9882 1.80912
107 Al 5.29571 13.2 5.59928
108 Al 6.89425 9.93526 5.60822
109 Ni 6.94949 12.4743 1.81207
110 Ni 5.177 9.139 1.78447
111 Ni 7.50434 7.5329 5.64982
112 Ni 9.24791 10.8206 5.50475
113 Al 9.20844 6.69321 9.33672
114 Al 6.70361 7.71712 10.6972
115 Al 6.58449 7.66116 7.91117
116 Al 9.07155 8.72849 11.7311
117 Al 5.50059 11.0226 10.7102
118 Al 8.01292 12.1803 14.3344
119 Al 5.38808 10.9647 7.84866
120 Al 7.75886 12.1171 11.5921
121 Al 8.88319 8.74754 14.4419
122 Al 7.70733 9.99926 9.22821
123 Al 5.14108 13.2546 12.975
124 Al 6.88032 9.75419 13.0199
125 Ni 6.92219 12.4012 9.24131
126 Ni 5.21421 9.09364 9.31731
127 Ni 7.44772 7.30529 13.0106
128 Ni 9.43237 10.6589 13.0229
ITEM: TIMESTEP
1200
ITEM: NUMBER OF ATOMS
128
ITEM: BOX BOUNDS xy xz yz pp pp pp
-1.4100013827926555e-01 9.6770990219829400e+00 -6.6387088307661171e-02
-4.1011305512437701e-02 1.3245506767084001e+01 -2.8519850244970085e-02
-2.3047328115470833e-02 1.4876525087927043e+01 4.6272482791507499e-03
ITEM: ATOMS id element xu yu zu
1 Al 4.35536 0.0800679 1.94569
2 Al 1.82394 1.10882 3.32106
3 Al 1.75437 1.08166 0.429376
4 Al 4.16257 2.15444 4.10138
5 Al 0.59418 4.39486 3.21731
6 Al 2.89479 5.53777 6.85781
7 Al 0.585526 4.32895 0.415561
8 Al 2.97282 5.51865 4.00681
9 Al 4.09775 2.15056 7.08257
10 Al 2.76056 3.26541 1.8521
11 Al 0.360523 6.58737 5.72968
12 Al 1.96205 3.22275 5.64691
13 Ni 2.07097 5.66106 1.81406
14 Ni 0.213666 2.37624 1.85257
15 Ni 2.60222 0.823604 5.51907
16 Ni 4.4127 4.13007 5.49958
17 Al 4.29915 -0.0586174 9.39393
18 Al 1.78169 1.25029 10.6412
19 Al 1.61945 1.20485 7.84831
20 Al 4.19974 2.12717 11.6535
21 Al 0.690323 4.40037 10.7144
22 Al 2.97357 5.47429 14.337
23 Al 0.709178 4.26859 7.78652
24 Al 3.12835 5.62989 11.5082
25 Al 4.14616 2.10754 14.5368
26 Al 2.91954 3.34537 9.34637
27 Al 0.378484 6.55335 12.9065
28 Al 1.93898 3.13687 12.8997
29 Ni 2.03181 5.74621 9.20101
30 Ni 0.0538375 2.3926 9.18842
31 Ni 2.72329 0.750999 13.0551
32 Ni 4.46999 4.12772 12.988
33 Al 4.31062 6.74532 1.79969
34 Al 1.6259 7.79477 3.2818
35 Al 1.74688 7.8148 0.411187
36 Al 4.03075 8.85069 4.0859
37 Al 0.622056 10.9531 3.36235
38 Al 2.91738 12.2441 7.06519
39 Al 0.598099 11.0053 0.368665
40 Al 2.87622 12.0669 4.11313
41 Al 4.21075 8.94784 6.83123
42 Al 2.91178 9.97505 1.83509
43 Al 0.247123 13.2896 5.6515
44 Al 1.91103 9.97957 5.71698
45 Ni 2.06457 12.3724 1.88819
46 Ni 0.160493 9.09502 1.82812
47 Ni 2.55866 7.50206 5.43645
48 Ni 4.37745 10.9757 5.65115
49 Al 4.34172 6.79337 9.13497
50 Al 1.73882 7.73079 10.6768
51 Al 1.74543 7.73834 7.87455
52 Al 4.01701 8.9562 11.4117
53 Al 0.754391 10.9608 10.7357
54 Al 2.95494 11.9243 14.4884
55 Al 0.462464 11.1264 7.92808
56 Al 2.92435 12.0385 11.6015
57 Al 4.17013 8.77836 14.4091
58 Al 2.76384 10.0196 9.14306
59 Al 0.263681 13.2151 13.1995
60 Al 1.80148 9.88283 12.9514
61 Ni 1.98447 12.4233 9.36347
62 Ni 0.16807 9.17794 9.22263
63 Ni 2.53231 7.43532 12.9437
64 Ni 4.49625 10.739 13.0261
65 Al 9.21225 0.0823219 1.83292
66 Al 6.64004 1.12521 3.27898
67 Al 6.55497 1.01721 0.427263
68 Al 8.84794 2.27277 4.08297
69 Al 5.3384 4.48761 3.20238
70 Al 7.88198 5.45884 6.8932
71 Al 5.50426 4.57317 0.268058
72 Al 8.05943 5.56471 3.97209
73 Al 8.81689 2.15205 6.94091
74 Al 7.63116 3.43341 1.85761
75 Al 5.04139 6.57912 5.54738
76 Al 6.73598 3.42137 5.43444
77 Ni 7.03336 5.81544 1.81795
78 Ni 5.12221 2.47307 1.74833
79 Ni 7.51187 0.862925 5.5124
80 Ni 9.39401 4.17726 5.65291
81 Al 9.17687 0.0239979 9.53686
82 Al 6.59105 0.96143 10.7118
83 Al 6.57664 0.999104 7.742
84 Al 8.99834 2.11922 11.5886
85 Al 5.36267 4.45709 10.6248
86 Al 7.84485 5.46663 14.3582
87 Al 5.4212 4.40393 7.74634
88 Al 7.8221 5.36284 11.5703
89 Al 8.88248 2.17741 14.4892
90 Al 7.62363 3.38921 9.33056
91 Al 5.24184 6.64666 13.0301
92 Al 6.66631 3.15481 13.0596
93 Ni 6.82312 5.76441 9.36355
94 Ni 5.18835 2.36182 9.28757
95 Ni 7.5151 0.772017 13.0294
96 Ni 9.33075 4.07587 12.979
97 Al 9.25507 6.74394 1.60885
98 Al 6.43978 7.75999 3.12343
99 Al 6.62943 7.90971 0.414263
100 Al 9.04428 8.67428 4.04188
101 Al 5.37354 11.092 3.39698
102 Al 7.83581 12.032 6.93035
103 Al 5.60341 11.1176 0.42081
104 Al 7.89739 11.9291 4.18153
105 Al 9.05697 8.76715 6.99909
106 Al 7.6751 10.0038 1.70734
107 Al 5.22891 13.2858 5.40181
108 Al 6.74803 9.82864 5.62242
109 Ni 6.9953 12.3597 1.83333
110 Ni 5.10581 9.09141 1.88193
111 Ni 7.52653 7.41454 5.51573
112 Ni 9.47042 10.7606 5.53892
113 Al 9.10058 6.66811 9.31544
114 Al 6.37336 7.71885 10.6575
115 Al 6.47727 7.7469 7.75854
116 Al 8.86358 8.76825 11.4373
117 Al 5.31062 11.1269 10.6362
118 Al 7.89867 12.0931 14.4432
119 Al 5.3197 11.2797 7.80677
120 Al 7.74745 12.0562 11.579
121 Al 9.08924 8.81053 14.2787
122 Al 7.62203 9.94672 9.22378
123 Al 5.08035 13.1997 12.8989
124 Al 6.85998 9.80434 13.1185
125 Ni 7.07906 12.3469 9.19297
126 Ni 4.92912 9.09706 9.22288
127 Ni 7.56967 7.5645 12.9557
128 Ni 9.29535 10.7628 12.959
ITEM: TIMESTEP
1300
ITEM: NUMBER OF ATOMS
128
ITEM: BOX BOUNDS xy xz yz pp pp pp
-1.2963331980676948e-01 9.7665829563697883e+00 6.2122840433659982e-02
-6.6084784885571679e-03 1.3243060643656943e+01 -5.6179026126935337e-02
4.1696675392435267e-03 1.4849308092272310e+01 3.6583951875982977e-02
ITEM: ATOMS id element xu yu zu
1 Al 4.47399 0.0479394 1.69968
2 Al 1.69661 1.25733 3.25132
3 Al 1.69641 1.3253 0.454166
4 Al 4.07837 2.23984 4.0658
5 Al 0.659075 4.5116 3.31497
6 Al 2.91792 5.34176 7.0643
7 Al 0.646481 4.41329 0.39972
8 Al 3.10799 5.47556 4.14123
9 Al 4.06158 2.3521 7.11755
10 Al 2.92911 3.5276 1.85914
11 Al 0.267625 6.61351 5.35853
12 Al 2.06418 3.30471 5.45783
13 Ni 2.12828 5.78703 1.80845
14 Ni 0.171812 2.49704 1.8336
15 Ni 2.6879 0.966866 5.57593
16 Ni 4.66118 4.16945 5.56664
17 Al 4.50551 0.0523831 9.29097
18 Al 1.65296 1.04765 10.8133
19 Al 1.74432 1.20885 7.95012
20 Al 4.16345 1.937 11.5419
21 Al 0.51853 4.44199 10.6151
22 Al 3.01917 5.61543 14.2636
23 Al 0.562659 4.37225 7.72986
24 Al 2.81997 5.46095 11.5543
25 Al 4.18367 2.19862 14.3429
26 Al 2.6471 3.37598 9.2888
27 Al 0.321692 6.73028 12.9118
28 Al 2.06908 3.33672 12.8711
29 Ni 2.05667 5.72432 9.23671
30 Ni 0.16079 2.40378 9.4161
31 Ni 2.54315 0.991197 13.0716
32 Ni 4.48012 4.2887 12.9231
33 Al 4.44854 6.51538 1.82725
34 Al 1.79024 7.66483 3.35245
35 Al 1.486 7.63119 0.254159
36 Al 4.19323 8.72482 4.13983
37 Al 0.612162 11.2253 3.41083
38 Al 3.17716 12.0444 7.00083
39 Al 0.651566 11.0198 0.4152
40 Al 3.25245 12.2388 3.98263
41 Al 4.20104 8.70126 7.09497
42 Al 2.70024 9.84317 1.75152
43 Al 0.48334 13.189 5.53666
44 Al 1.93339 9.87202 5.51428
45 Ni 2.17953 12.4433 1.85649
46 Ni 0.320754 9.03879 1.88982
47 Ni 2.66389 7.45127 5.5104
48 Ni 4.61455 10.6682 5.50636
49 Al 4.42495 6.72984 9.29888
50 Al 1.70507 7.80176 10.746
51 Al 1.61678 7.65729 7.71697
52 Al 4.14222 8.66311 11.4268
53 Al 0.698351 11.1145 10.7186
54 Al 3.04831 12.2763 14.3454
55 Al 0.642001 11.0896 7.69574
56 Al 3.27192 12.0718 11.3919
57 Al 4.08138 8.78893 14.3241
58 Al 2.78897 10.0232 9.36133
59 Al 0.317353 13.1852 12.9776
60 Al 2.00237 10.123 13.0063
61 Ni 2.16901 12.3909 9.28583
62 Ni 0.118447 9.07348 9.1968
63 Ni 2.48571 7.50195 12.9504
64 Ni 4.49595 10.7783 12.9464
65 Al 9.20605 -0.061945 1.80058
66 Al 6.55413 1.19469 3.39624
67 Al 6.7126 1.2736 0.383913
68 Al 9.0063 2.19049 4.11918
69 Al 5.53871 4.36655 3.30463
70 Al 7.936 5.3629 6.84102
71 Al 5.54074 4.45308 0.305335
72 Al 7.83583 5.45219 4.07529
73 Al 9.04858 2.1057 7.0372
74 Al 7.71702 3.36109 1.82825
75 Al 5.26034 6.47513 5.58678
76 Al 6.79717 3.21707 5.56497
77 Ni 7.03571 5.72546 1.7525
78 Ni 5.14576 2.50581 1.81996
79 Ni 7.45292 0.947421 5.58129
80 Ni 9.41778 4.17102 5.47597
81 Al 9.20043 -0.00383952 9.12421
82 Al 6.62121 1.13484 10.8386
83 Al 6.65691 1.34233 7.90148
84 Al 9.02552 2.13209 11.691
85 Al 5.45956 4.5265 10.6764
86 Al 7.91572 5.50212 14.4025
87 Al 5.54866 4.51126 7.85931
88 Al 7.92086 5.48163 11.4302
89 Al 9.09031 2.26406 14.293
90 Al 7.68685 3.37509 9.36266
91 Al 5.31723 6.52797 12.8057
92 Al 6.99507 3.40444 12.8782
93 Ni 7.10533 5.82738 9.17782
94 Ni 5.07769 2.54501 9.32784
95 Ni 7.55683 0.852041 13.0538
96 Ni 9.52635 4.3284 12.9435
97 Al 9.38099 6.50322 2.02236
98 Al 6.52258 7.78119 3.13593
99 Al 6.50267 7.69512 0.397252
100 Al 9.20672 8.84695 4.15438
101 Al 5.40767 11.0455 3.2072
102 Al 7.96247 12.2351 7.05559
103 Al 5.57051 10.9239 0.45177
104 Al 8.00256 12.2844 4.1004
105 Al 8.95154 8.90219 6.96582
106 Al 7.67755 9.85301 1.9714
107 Al 5.2612 13.2153 5.67446
108 Al 6.83585 9.9413 5.44819
109 Ni 6.90247 12.312 1.81395
110 Ni 4.97451 8.92743 1.81262
111 Ni 7.53167 7.47027 5.59179
112 Ni 9.37044 10.8585 5.54584
113 Al 9.38632 6.52841 9.17817
114 Al 6.61011 7.76099 10.5975
115 Al 6.58454 7.74477 7.74881
116 Al 9.02857 8.85712 11.5383
117 Al 5.55981 10.9923 10.7941
118 Al 7.81324 12.0056 14.5381
119 Al 5.48544 11.0142 7.72211
120 Al 8.05233 12.2292 11.5414
121 Al 8.84677 8.78536 14.5025
122 Al 7.70685 9.92547 9.20689
123 Al 5.44153 13.0906 13.1091
124 Al 6.92605 9.87483 12.9625
125 Ni 6.91788 12.3738 9.42077
126 Ni 5.10405 9.00162 9.3408
127 Ni 7.52716 7.50256 12.9292
128 Ni 9.44378 10.8332 13.0918
ITEM: TIMESTEP
1400
ITEM: NUMBER OF ATOMS
128
ITEM: BOX BOUNDS xy xz yz pp pp pp
-3.2032004822019289e-02 9.8080796247004205e+00 1.0523316883181086e-01
2.1670669121429002e-02 1.3171183222899522e+01 3.9808628790300997e-02
-2.2696447690305099e-02 1.4876174207501865e+01 -7.0143212714535224e-03
ITEM: ATOMS id element xu yu zu
1 Al 4.40975 -0.0767396 1.92303
2 Al 1.73018 1.14632 3.34615
3 Al 1.72235 1.12757 0.318646
4 Al 4.2559 2.21232 4.10571
5 Al 0.756432 4.42639 3.32061
6 Al 3.17611 5.55437 7.20953
7 Al 0.658537 4.65064 0.32452
8 Al 3.05634 5.4251 4.19597
9 Al 4.26889 2.14414 6.90163
10 Al 2.77373 3.25765 1.76488
11 Al 0.560725 6.38347 5.70152
12 Al 2.12293 3.20197 5.60012
13 Ni 2.16847 5.77794 1.8561
14 Ni 0.367688 2.52044 1.79777
15 Ni 2.77647 0.84839 5.55277
16 Ni 4.58261 4.22537 5.56493
17 Al 4.4172 0.108236 9.18502
18 Al 1.7896 1.16572 10.6805
19 Al 1.74618 1.06875 7.77569
20 Al 4.01048 2.3241 11.4673
21 Al 0.718928 4.57734 10.8072
22 Al 3.24325 5.46132 14.4877
23 Al 0.737403 4.59166 7.88679
24 Al 3.23841 5.46566 11.5599
25 Al 4.16329 2.14317 14.3537
26 Al 2.77276 3.49932 9.23406
27 Al 0.515088 6.58418 13.0671
28 Al 1.98663 3.34764 13.2026
29 Ni 2.2077 5.83295 9.31876
30 Ni 0.468169 2.53243 9.11414
31 Ni 2.68611 0.869385 12.9264
32 Ni 4.60499 4.17276 13.135
33 Al 4.45931 6.67622 1.84805
34 Al 1.64195 7.62057 3.35238
35 Al 1.87053 7.81961 0.460987
36 Al 4.12881 8.77414 4.02901
37 Al 0.602746 10.9637 3.18124
38 Al 3.19085 11.8986 7.00922
39 Al 0.675335 11.1433 0.29294
40 Al 3.09824 12.0137 4.02259
41 Al 4.23932 8.7532 6.95092
42 Al 3.05489 10.1829 1.92946
43 Al 0.407932 13.0024 5.48929
44 Al 2.04395 9.73354 5.37162
45 Ni 2.23624 12.3434 1.84438
46 Ni 0.160977 9.1719 1.66868
47 Ni 2.67928 7.43843 5.5658
48 Ni 4.63954 10.716 5.49608
49 Al 4.60964 6.63527 9.29999
50 Al 1.85187 7.74984 10.8365
51 Al 1.82964 7.84651 7.78773
52 Al 4.25565 8.78894 11.4433
53 Al 0.694036 11.1687 10.6636
54 Al 3.16422 11.9653 14.373
55 Al 0.675236 11.0485 7.69559
56 Al 3.06693 11.9344 11.5538
57 Al 4.20949 8.7951 14.4821
58 Al 2.9425 9.87538 9.22701
59 Al 0.457073 13.1548 12.9161
60 Al 1.96589 9.71331 13.0292
61 Ni 2.34797 12.1693 9.2202
62 Ni 0.374111 9.08627 9.32861
63 Ni 2.78131 7.44065 13.0016
64 Ni 4.58513 10.7991 12.967
65 Al 9.29521 0.0416247 1.817
66 Al 6.72389 1.07734 3.34485
67 Al 6.47851 1.20008 0.272651
68 Al 9.16227 1.99252 4.19723
69 Al 5.61378 4.51014 3.4123
70 Al 8.05444 5.57219 7.1232
71 Al 5.53901 4.32134 0.549689
72 Al 8.07759 5.46059 4.08924
73 Al 9.01549 2.20143 7.02043
74 Al 7.76667 3.36336 1.86824
75 Al 5.43939 6.62045 5.52693
76 Al 6.97788 3.3143 5.62093
77 Ni 6.94803 5.81498 1.87616
78 Ni 5.05182 2.36266 1.87607
79 Ni 7.61068 0.738233 5.5624
80 Ni 9.40205 4.11981 5.6041
81 Al 9.24702 0.16043 9.32527
82 Al 6.65944 1.24568 10.6572
83 Al 6.65026 1.15168 7.77748
84 Al 9.03364 2.2236 11.45
85 Al 5.76244 4.30363 10.7118
86 Al 7.93607 5.4651 14.5531
87 Al 5.61791 4.29459 7.86664
88 Al 7.90353 5.45548 11.6004
89 Al 9.03986 2.19116 14.4702
90 Al 7.92098 3.39961 9.089
91 Al 5.36984 6.52408 13.0918
92 Al 6.88099 3.18261 13.0308
93 Ni 7.04131 5.72778 9.33792
94 Ni 4.91363 2.35065 9.23775
95 Ni 7.59075 0.918332 12.8665
96 Ni 9.31485 4.13223 13.0313
97 Al 9.15776 6.7529 1.70495
98 Al 6.59324 7.75586 3.26063
99 Al 6.65133 7.75682 0.394119
100 Al 8.99311 8.86343 4.03022
101 Al 5.58973 10.9335 3.27204
102 Al 8.04113 11.9982 7.02078
103 Al 5.57262 11.098 0.491824
104 Al 8.05345 12.0505 4.06996
105 Al 9.06975 8.76462 6.94002
106 Al 7.67618 10.0254 1.66517
107 Al 5.28712 12.9739 5.54179
108 Al 6.79488 9.86896 5.58717
109 Ni 7.11569 12.374 1.76294
110 Ni 5.29159 9.08363 1.86144
111 Ni 7.67716 7.52505 5.57845
112 Ni 9.61067 10.6534 5.46255
113 Al 9.31666 6.76583 9.28239
114 Al 6.61595 7.84719 10.7239
115 Al 6.69858 7.82195 7.75031
116 Al 9.10151 8.77008 11.5974
117 Al 5.41255 11.1941 10.6721
118 Al 8.02707 12.1285 14.4626
119 Al 5.61019 10.9101 7.67199
120 Al 7.9068 12.0703 11.5283
121 Al 9.1011 8.75806 14.3913
122 Al 7.88739 10.0105 9.22914
123 Al 5.34481 13.3371 12.8696
124 Al 6.81379 9.84164 12.99
125 Ni 7.02737 12.3786 9.15504
126 Ni 5.28131 8.97719 9.2319
127 Ni 7.58541 7.46856 13.0246
128 Ni 9.58171 10.7661 12.9147
ITEM: TIMESTEP
1500
ITEM: NUMBER OF ATOMS
128
ITEM: BOX BOUNDS xy xz yz pp pp pp
-2.5731175970347096e-02 9.7548642005831852e+00 -8.2517942367751071e-04
-9.7121636540104500e-02 1.3267582927260767e+01 9.8952381780229734e-02
-4.8008211505500498e-02 1.4901485971317060e+01 -2.9406922571741344e-02
ITEM: ATOMS id element xu yu zu
1 Al 4.26152 0.0159099 1.75775
2 Al 1.74817 1.06848 3.16226
3 Al 1.63288 1.12526 0.298909
4 Al 4.15132 2.20756 4.08644
5 Al 0.697739 4.43312 3.3325
6 Al 3.05527 5.43514 6.96415
7 Al 0.579419 4.2443 0.424453
8 Al 3.20208 5.45691 4.03326
9 Al 4.21265 2.10866 6.98728
10 Al 2.85331 3.34196 1.90737
11 Al 0.439471 6.70904 5.5281
12 Al 1.98122 3.23441 5.63788
13 Ni 2.10636 5.73063 1.80704
14 Ni 0.161517 2.31914 1.87436
15 Ni 2.68674 0.777949 5.45878
16 Ni 4.59723 4.02101 5.49896
17 Al 4.44369 0.0117394 9.32403
18 Al 1.75067 1.19836 10.7769
19 Al 1.77625 1.11308 7.83834
20 Al 4.36978 2.14857 11.5391
21 Al 0.841942 4.30384 10.7498
22 Al 3.05063 5.1469 14.4498
23 Al 0.639046 4.45499 7.91549
24 Al 3.14093 5.51468 11.6881
25 Al 4.19229 2.10216 14.4655
26 Al 2.89697 3.22911 9.23818
27 Al 0.483696 6.55705 13.047
28 Al 1.99317 3.13215 12.8954
29 Ni 2.26312 5.58029 9.22663
30 Ni 0.19029 2.39118 9.28039
31 Ni 2.73885 0.807312 12.9934
32 Ni 4.59871 4.08878 12.9938
33 Al 4.52874 6.7247 1.80255
34 Al 2.12036 7.83772 3.26151
35 Al 1.81631 7.63159 0.25644
36 Al 4.29096 8.91003 4.09844
37 Al 0.810491 10.8596 3.37043
38 Al 3.11101 12.277 7.00312
39 Al 0.608323 11.0609 0.34132
40 Al 3.05211 12.0713 3.97496
41 Al 4.25571 8.79268 7.03379
42 Al 2.72069 9.94863 1.56289
43 Al 0.305586 13.1117 5.4465
44 Al 2.13782 9.92135 5.7422
45 Ni 2.10224 12.3114 1.6933
46 Ni 0.392282 8.90835 1.8657
47 Ni 2.78866 7.46476 5.56193
48 Ni 4.63391 10.7342 5.60086
49 Al 4.36735 6.75378 9.35306
50 Al 1.84625 7.69308 10.8191
51 Al 1.82758 7.62039 7.85609
52 Al 4.2334 8.78222 11.6323
53 Al 0.729954 11.0421 10.7501
54 Al 3.23504 12.1146 14.4163
55 Al 0.624724 10.9727 7.75394
56 Al 3.07191 12.1888 11.5445
57 Al 4.38946 8.77933 14.532
58 Al 2.84358 10.0308 9.34049
59 Al 0.4779 13.2003 12.9935
60 Al 2.06246 10.001 12.9543
61 Ni 2.02405 12.4556 9.27811
62 Ni 0.321766 8.94794 9.3065
63 Ni 2.8205 7.45251 13.0271
64 Ni 4.71128 10.7984 12.945
65 Al 9.19075 0.00328541 1.89101
66 Al 6.52734 0.986094 3.24661
67 Al 6.54628 1.03388 0.427062
68 Al 8.92789 2.26154 3.96593
69 Al 5.49899 4.37956 3.23342
70 Al 7.86392 5.32684 7.03487
71 Al 5.44146 4.62071 0.312438
72 Al 7.90146 5.31277 4.08889
73 Al 9.17778 2.19613 6.92458
74 Al 7.56753 3.41783 1.60552
75 Al 5.31709 6.59051 5.55124
76 Al 6.85793 3.19767 5.57903
77 Ni 7.01771 5.69909 1.84514
78 Ni 5.11002 2.5174 1.72361
79 Ni 7.68185 0.916234 5.45112
80 Ni 9.48335 4.2616 5.52074
81 Al 9.31243 0.0655212 9.20157
82 Al 6.59557 1.04411 10.7448
83 Al 6.65943 1.011 7.78404
84 Al 8.97199 2.16199 11.5839
85 Al 5.43663 4.54997 10.794
86 Al 8.08035 5.49597 14.4606
87 Al 5.4175 4.44963 7.83353
88 Al 8.03638 5.33132 11.569
89 Al 9.02329 2.07927 14.4484
90 Al 7.6389 3.34407 9.35666
91 Al 5.20697 6.56131 13.0388
92 Al 6.82876 3.14014 13.0115
93 Ni 6.97382 5.70458 9.29405
94 Ni 5.28976 2.44846 9.23604
95 Ni 7.44573 0.850151 12.9858
96 Ni 9.52631 4.11295 13.0853
97 Al 9.33825 6.56287 1.77673
98 Al 6.71865 7.73029 3.22689
99 Al 6.77017 7.77529 0.404806
100 Al 9.05971 8.78228 4.09383
101 Al 5.37731 11.123 3.21532
102 Al 7.87267 12.14 6.97401
103 Al 5.55132 11.2477 0.427669
104 Al 7.99422 12.202 3.94237
105 Al 8.93217 8.70547 6.98697
106 Al 7.72695 10.0575 1.89891
107 Al 5.19755 13.1757 5.45692
108 Al 6.92267 9.86968 5.5714
109 Ni 6.96873 12.4103 1.8086
110 Ni 5.12612 9.19668 1.70986
111 Ni 7.5278 7.38612 5.58904
112 Ni 9.39379 10.8152 5.60792
113 Al 9.31233 6.6371 9.28555
114 Al 6.50267 7.80477 10.7416
115 Al 6.65144 7.6657 7.85297
116 Al 9.10828 8.705 11.5307
117 Al 5.66083 10.9531 10.7713
118 Al 8.08962 12.2383 14.5376
119 Al 5.48287 11.1404 7.81925
120 Al 7.98009 12.1959 11.5433
121 Al 9.24019 8.75626 14.5024
122 Al 7.70492 9.93459 9.27682
123 Al 5.33878 13.2305 12.8637
124 Al 6.97474 9.93528 13.0177
125 Ni 7.0958 12.4216 9.21875
126 Ni 5.05686 9.0393 9.29432
127 Ni 7.6441 7.50724 13.0372
128 Ni 9.37519 10.822 12.9102
ITEM: TIMESTEP
1600
ITEM: NUMBER OF ATOMS
128
ITEM: BOX BOUNDS xy xz yz pp pp pp
-8.3463168342350472e-02 9.6465484812520508e+00 -9.1236985592208733e-02
-3.9861368747398096e-02 1.3252695158163311e+01 2.3316476245633180e-02
3.7718915940794240e-02 1.4815758843870771e+01 1.2965576123492695e-02
ITEM: ATOMS id element xu yu zu
1 Al 4.5842 -0.119177 1.77194
2 Al 1.61893 1.19397 3.32776
3 Al 1.8679 1.16925 0.452967
4 Al 4.10623 2.15508 4.09075
5 Al 0.503015 4.32708 3.1856
6 Al 2.98343 5.55943 7.03739
7 Al 0.620248 4.53744 0.316131
8 Al 3.00668 5.47171 4.06059
9 Al 4.08857 2.29762 7.05206
10 Al 2.8622 3.36569 1.63861
11 Al 0.470513 6.52729 5.45797
12 Al 1.97008 3.39564 5.38991
13 Ni 2.15458 5.64496 1.84112
14 Ni 0.293127 2.40239 1.7764
15 Ni 2.69777 0.9052 5.67861
16 Ni 4.41273 4.1654 5.55069
17 Al 4.46431 0.0388016 9.08882
18 Al 1.80199 1.05206 10.6459
19 Al 1.70551 1.21955 7.83067
20 Al 4.23019 1.98043 11.5795
21 Al 0.456595 4.34687 10.5043
22 Al 3.16241 5.84925 14.3078
23 Al 0.689221 4.16923 7.73568
24 Al 3.01961 5.4176 11.4434
25 Al 4.20451 2.20275 14.3184
26 Al 2.83742 3.45545 9.22914
27 Al 0.379154 6.47703 12.8783
28 Al 2.02147 3.39901 13.0285
29 Ni 1.95242 5.79944 9.23764
30 Ni 0.152637 2.34107 9.2945
31 Ni 2.73085 0.78963 12.9962
32 Ni 4.47666 4.27344 12.8391
33 Al 4.41708 6.5911 1.87733
34 Al 1.8212 7.7693 3.29469
35 Al 1.64966 7.8969 0.421562
36 Al 4.12606 8.81997 4.26368
37 Al 0.522035 11.2412 3.31864
38 Al 2.95721 12.1374 7.00707
39 Al 0.710478 10.8966 0.561984
40 Al 3.00114 12.2798 4.13552
41 Al 4.06859 8.92742 6.94013
42 Al 2.78313 10.0699 2.15477
43 Al 0.228876 13.2698 5.67635
44 Al 1.92025 9.90608 5.37229
45 Ni 2.11354 12.5053 2.0354
46 Ni 0.298729 9.16464 1.89618
47 Ni 2.6764 7.5159 5.49759
48 Ni 4.47552 10.9521 5.56571
49 Al 4.39707 6.59854 9.18166
50 Al 1.8413 7.81895 10.5796
51 Al 1.71941 7.72279 7.7348
52 Al 4.1397 8.78232 11.5298
53 Al 0.723504 11.0558 10.7795
54 Al 2.91671 12.0068 14.5118
55 Al 0.634962 11.126 7.72036
56 Al 2.89805 12.1062 11.5786
57 Al 4.13371 8.65568 14.4075
58 Al 2.7981 9.98632 9.19161
59 Al 0.376894 13.1053 13.0174
60 Al 1.97024 9.89226 12.9581
61 Ni 2.14674 12.4568 9.27468
62 Ni 0.253888 9.15276 9.20938
63 Ni 2.5314 7.51729 12.7918
64 Ni 4.36952 10.8222 12.9605
65 Al 9.12633 0.0659801 1.79022
66 Al 6.72536 1.06976 3.21521
67 Al 6.70986 1.07562 0.482219
68 Al 8.86932 2.17217 4.0725
69 Al 5.32153 4.41889 3.22332
70 Al 7.93821 5.58752 6.89775
71 Al 5.40261 4.37207 0.426176
72 Al 7.85151 5.59846 4.07138
73 Al 8.85815 2.16662 7.03684
74 Al 7.53674 3.38111 2.01183
75 Al 5.2086 6.53888 5.5782
76 Al 6.64308 3.2882 5.40689
77 Ni 6.8992 5.75253 1.7955
78 Ni 5.11147 2.37798 1.86687
79 Ni 7.34825 0.829129 5.60352
80 Ni 9.30085 4.03547 5.50946
81 Al 9.2456 -0.0294556 9.31207
82 Al 6.56846 1.09938 10.7988
83 Al 6.55119 1.04907 8.00321
84 Al 9.12933 2.13728 11.4973
85 Al 5.45113 4.26813 10.7362
86 Al 7.90166 5.62177 14.4425
87 Al 5.46378 4.4731 7.73907
88 Al 7.82004 5.55604 11.5537
89 Al 9.15419 2.14824 14.3134
90 Al 7.58971 3.41209 9.25692
91 Al 5.20036 6.52711 12.8285
92 Al 7.01094 3.26444 12.9057
93 Ni 6.994 5.78446 9.18604
94 Ni 5.06863 2.40773 9.28992
95 Ni 7.61557 0.798409 12.9197
96 Ni 9.38328 4.16967 12.8493
97 Al 9.19964 6.71219 1.99152
98 Al 6.52294 7.72609 3.32107
99 Al 6.43604 7.74385 0.264528
100 Al 9.08243 8.72236 4.10062
101 Al 5.38703 11.0142 3.33054
102 Al 7.86311 12.0932 7.13495
103 Al 5.43609 10.8433 0.5946
104 Al 7.78558 12.128 4.12282
105 Al 8.90158 8.7674 6.9436
106 Al 7.58928 9.97087 1.89265
107 Al 5.03636 13.3133 5.65379
108 Al 6.82523 9.80871 5.55489
109 Ni 6.90521 12.343 1.84877
110 Ni 4.93344 8.91128 1.97442
111 Ni 7.36928 7.56493 5.54527
112 Ni 9.29666 10.8208 5.56599
113 Al 9.31328 6.70733 9.24625
114 Al 6.60247 7.84215 10.5596
115 Al 6.59173 7.8173 7.77804
116 Al 9.04492 8.84538 11.5395
117 Al 5.46567 11.1072 10.8579
118 Al 7.7425 11.9164 14.3609
119 Al 5.49358 11.1033 7.74052
120 Al 7.83911 11.9147 11.581
121 Al 8.91311 8.6895 14.4335
122 Al 7.48549 10.007 9.34808
123 Al 5.1628 13.1879 13.2062
124 Al 6.73565 9.77358 12.872
125 Ni 6.87812 12.3318 9.30945
126 Ni 5.11521 9.10635 9.26463
127 Ni 7.55777 7.45524 12.9749
128 Ni 9.35481 10.7529 13.1115
ITEM: TIMESTEP
1700
ITEM: NUMBER OF ATOMS
128
ITEM: BOX BOUNDS xy xz yz pp pp pp
-2.5150230171115928e-01 9.6933650527744391e+00 -6.2767522807249787e-02
-4.4224022896121026e-02 1.3232799637357068e+01 -1.2637554838573709e-01
-5.5761045375045448e-02 1.4909238805186611e+01 -1.1292598831472251e-02
ITEM: ATOMS id element xu yu zu
1 Al 4.33279 0.135181 1.74471
2 Al 1.78706 1.04662 3.06978
3 Al 1.628 1.28891 0.316791
4 Al 4.09687 2.17942 4.17367
5 Al 0.497555 4.48888 3.35771
6 Al 2.92568 5.42115 6.98535
7 Al 0.644966 4.40166 0.285321
8 Al 2.95633 5.47773 4.17727
9 Al 4.01769 2.11907 6.98631
10 Al 2.81638 3.38875 1.98188
11 Al 0.145164 6.6234 5.66862
12 Al 1.78508 3.24375 5.58291
13 Ni 2.00842 5.81866 1.77224
14 Ni 0.328717 2.5668 1.87349
15 Ni 2.66028 0.798892 5.51769
16 Ni 4.63681 4.21983 5.5825
17 Al 4.29888 0.129719 9.46629
18 Al 1.5835 0.987118 10.7065
19 Al 1.67962 0.926002 7.82864
20 Al 4.1179 2.23065 11.5716
21 Al 0.637122 4.51195 10.8009
22 Al 2.84421 5.24474 14.4804
23 Al 0.465273 4.5958 7.894
24 Al 3.08607 5.54194 11.6432
25 Al 3.96913 1.99837 14.5299
26 Al 2.66768 3.3324 9.37715
27 Al 0.0658613 6.64909 13.0455
28 Al 1.72682 3.20881 12.9715
29 Ni 2.15241 5.79648 9.26601
30 Ni 0.331671 2.48538 9.28041
31 Ni 2.5489 0.918378 13.0005
32 Ni 4.50938 4.04993 13.0641
33 Al 4.208 6.70743 1.66624
34 Al 1.25442 7.77101 3.45564
35 Al 1.54182 7.75384 0.259018
36 Al 3.96429 8.542 4.00473
37 Al 0.504201 11.0906 3.14433
38 Al 2.93147 12.0757 6.98095
39 Al 0.574432 11.2093 0.218479
40 Al 2.95186 12.0203 4.03001
41 Al 4.09678 8.65995 6.85848
42 Al 2.64938 9.8618 1.58479
43 Al 0.440018 13.1268 5.45366
44 Al 1.85723 9.85534 5.51123
45 Ni 2.05983 12.35 1.75062
46 Ni 0.062757 9.08605 1.77098
47 Ni 2.38399 7.51557 5.5586
48 Ni 4.36077 10.6913 5.51035
49 Al 4.21593 6.68803 9.18151
50 Al 1.52309 7.6368 10.7422
51 Al 1.67683 7.82587 7.85487
52 Al 3.91492 8.73134 11.5172
53 Al 0.468928 11.082 10.73
54 Al 2.96067 12.2902 14.367
55 Al 0.422994 11.1855 7.77373
56 Al 2.87651 12.1574 11.5866
57 Al 4.06006 8.78657 14.5225
58 Al 2.70389 9.93905 9.33216
59 Al 0.258149 13.2008 13.0318
60 Al 1.83325 9.87815 13.0979
61 Ni 1.99964 12.2885 9.36283
62 Ni 0.0819375 9.01315 9.24746
63 Ni 2.67303 7.40154 13.1245
64 Ni 4.38248 10.679 12.9847
65 Al 9.26146 0.0160604 1.86858
66 Al 6.52928 1.05612 3.29425
67 Al 6.59755 1.02394 0.398524
68 Al 9.06079 2.12844 4.06455
69 Al 5.46317 4.31833 3.24894
70 Al 7.65606 5.43961 6.93599
71 Al 5.47696 4.32242 0.490924
72 Al 7.85875 5.5495 4.02033
73 Al 9.17132 2.23368 7.03842
74 Al 7.67503 3.2299 1.83327
75 Al 5.2057 6.53809 5.47828
76 Al 6.83621 3.17171 5.65417
77 Ni 6.94072 5.74627 1.82274
78 Ni 5.14238 2.50635 1.80167
79 Ni 7.58164 0.802944 5.5765
80 Ni 9.36635 4.14584 5.5885
81 Al 9.18046 0.0564479 9.35374
82 Al 6.59427 1.23268 10.7113
83 Al 6.38092 1.23458 7.83369
84 Al 8.88909 2.24256 11.4315
85 Al 5.22282 4.556 10.6942
86 Al 7.56597 5.39515 14.3239
87 Al 5.34887 4.23617 7.8544
88 Al 7.88123 5.4005 11.49
89 Al 8.80333 2.16621 14.5305
90 Al 7.68162 3.24313 9.31329
91 Al 5.03917 6.46562 13.2708
92 Al 6.66054 2.98627 12.879
93 Ni 6.79214 5.70187 9.28077
94 Ni 4.89564 2.40848 9.34141
95 Ni 7.47974 0.763379 13.1027
96 Ni 9.30814 4.09246 12.9945
97 Al 9.13918 6.62023 1.55113
98 Al 6.50027 7.72532 3.35955
99 Al 6.5109 7.68732 0.238617
100 Al 8.87852 8.97282 4.05752
101 Al 5.28983 11.0795 3.25923
102 Al 7.83075 12.2761 7.10402
103 Al 5.47377 11.1433 0.342487
104 Al 7.91054 12.1632 4.0247
105 Al 8.88611 8.86261 6.91922
106 Al 7.53951 9.99625 1.71447
107 Al 5.2228 13.112 5.63434
108 Al 6.75183 9.83937 5.61707
109 Ni 6.85723 12.4571 1.84788
110 Ni 5.003 9.13653 1.73581
111 Ni 7.57737 7.4089 5.53001
112 Ni 9.33036 10.8834 5.53646
113 Al 9.15728 6.69871 9.12013
114 Al 6.59454 7.80256 10.522
115 Al 6.5337 7.68884 7.67296
116 Al 8.76763 8.9289 11.5105
117 Al 5.42322 11.0084 10.7403
118 Al 7.72766 12.1051 14.408
119 Al 5.33209 11.0119 7.84745
120 Al 7.66954 12.0891 11.6076
121 Al 8.82127 8.92002 14.487
122 Al 7.53545 10.1784 9.0919
123 Al 5.22595 13.0059 12.8345
124 Al 6.75088 9.84616 13.1036
125 Ni 6.76144 12.3893 9.21273
126 Ni 5.03216 9.0175 9.21992
127 Ni 7.38339 7.40088 13.0113
128 Ni 9.30686 10.8096 12.9002
ITEM: TIMESTEP
1800
ITEM: NUMBER OF ATOMS
128
ITEM: BOX BOUNDS xy xz yz pp pp pp
-9.4834334258088251e-02 9.7082469337555679e+00 3.8517081060696720e-02
3.8108128113481854e-02 1.3173948524696463e+01 -5.6110303819492405e-02
-3.5891494173041494e-03 1.4857066909228863e+01 1.2188439517511970e-02
ITEM: ATOMS id element xu yu zu
1 Al 4.4361 -0.00337546 2.06266
2 Al 1.69915 1.25797 3.29815
3 Al 1.75785 1.04149 0.45703
4 Al 4.20261 2.21815 4.11282
5 Al 0.818134 4.39968 3.42916
6 Al 3.17428 5.56514 7.02242
7 Al 0.73135 4.35887 0.539674
8 Al 3.17791 5.57324 4.0923
9 Al 4.35812 2.0555 6.93265
10 Al 2.74464 3.21377 1.758
11 Al 0.403644 6.65653 5.42788
12 Al 2.15612 3.2755 5.53323
13 Ni 2.17555 5.73757 1.80447
14 Ni 0.100906 2.37363 1.83984
15 Ni 2.68148 0.843082 5.53879
16 Ni 4.46349 4.13305 5.52245
17 Al 4.51134 0.0651212 9.11421
18 Al 1.79594 1.28184 10.5611
19 Al 1.83866 1.18439 7.69507
20 Al 4.04094 2.32921 11.375
21 Al 0.475024 4.48593 10.7534
22 Al 2.98532 5.40237 14.4665
23 Al 0.815061 4.49752 7.70458
24 Al 3.03395 5.43187 11.4714
25 Al 3.99091 2.20891 14.4487
26 Al 2.90709 3.33491 9.16078
27 Al 0.473414 6.47945 12.9618
28 Al 1.93671 3.32463 13.056
29 Ni 2.15623 5.65836 9.27149
30 Ni 0.182348 2.54364 9.29832
31 Ni 2.52566 0.819947 13.0098
32 Ni 4.40594 4.23661 12.9414
33 Al 4.44218 6.63538 1.8218
34 Al 1.85594 7.88832 3.25811
35 Al 1.85631 7.7934 0.439175
36 Al 4.16551 8.95356 4.15459
37 Al 0.646951 10.9362 3.32696
38 Al 3.07686 12.0686 6.93614
39 Al 0.615072 10.9607 0.375427
40 Al 3.11691 11.9487 4.04627
41 Al 3.99648 8.70578 7.12569
42 Al 2.89358 10.0408 1.87178
43 Al 0.339689 13.2193 5.55023
44 Al 1.93097 9.75908 5.70751
45 Ni 2.05564 12.2645 1.83956
46 Ni 0.250001 8.86122 1.78961
47 Ni 2.71209 7.42437 5.52761
48 Ni 4.51277 10.7111 5.58041
49 Al 4.38439 6.47196 9.52093
50 Al 1.71729 7.68206 10.6238
51 Al 1.53771 7.54402 7.91454
52 Al 4.01318 8.73184 11.598
53 Al 0.585893 11.0435 10.7269
54 Al 2.94516 11.9379 14.2528
55 Al 0.563043 10.9501 7.84487
56 Al 3.03217 12.1487 11.3148
57 Al 4.21135 8.80407 14.3968
58 Al 2.71134 9.86265 9.30101
59 Al 0.297319 13.2027 13.0145
60 Al 1.85175 9.87812 12.7746
61 Ni 2.1155 12.4 9.17548
62 Ni 0.261915 9.00661 9.37466
63 Ni 2.53853 7.51174 13.007
64 Ni 4.5976 10.8404 12.9602
65 Al 9.37732 -0.0764318 1.85827
66 Al 6.66229 1.19305 3.18575
67 Al 6.48753 1.32084 0.281763
68 Al 9.01464 2.33958 4.10658
69 Al 5.50518 4.50863 3.33239
70 Al 8.01273 5.56997 7.10315
71 Al 5.57368 4.46991 0.454796
72 Al 7.90189 5.54611 4.20431
73 Al 9.0887 2.30497 6.98903
74 Al 7.68137 3.34995 1.80103
75 Al 5.15565 6.67716 5.64214
76 Al 6.85178 3.39662 5.50138
77 Ni 6.9762 5.78106 1.90007
78 Ni 5.03972 2.42217 1.83269
79 Ni 7.52161 0.883561 5.46965
80 Ni 9.47657 4.23717 5.54803
81 Al 9.31331 0.123625 9.0962
82 Al 6.47887 1.20894 10.723
83 Al 6.64927 1.14761 7.75148
84 Al 8.94083 2.23338 11.5357
85 Al 5.66595 4.27589 10.7111
86 Al 7.9904 5.72899 14.5621
87 Al 5.50893 4.5143 7.70968
88 Al 7.82168 5.54071 11.6187
89 Al 8.85127 2.2151 14.4577
90 Al 7.71317 3.36092 9.19643
91 Al 5.20358 6.52749 12.8817
92 Al 6.83509 3.45951 13.1497
93 Ni 6.89772 5.86525 9.30545
94 Ni 5.22689 2.40288 9.12243
95 Ni 7.43969 1.02121 12.8846
96 Ni 9.27232 4.23734 13.0837
97 Al 9.20159 6.64676 1.98671
98 Al 6.5256 7.68609 3.43123
99 Al 6.76985 7.79803 0.381493
100 Al 9.03997 8.67398 3.99513
101 Al 5.57205 10.9707 3.22627
102 Al 7.8363 11.9029 7.01513
103 Al 5.55736 11.1221 0.316631
104 Al 7.89603 12.0328 4.08541
105 Al 9.03839 8.70503 6.93259
106 Al 7.82728 9.98814 1.77703
107 Al 5.3263 13.198 5.38679
108 Al 6.81452 9.86227 5.60225
109 Ni 7.02087 12.3426 1.81895
110 Ni 5.09292 9.11083 1.72021
111 Ni 7.45105 7.54891 5.56217
112 Ni 9.36815 10.6253 5.49583
113 Al 9.1452 6.78962 9.4901
114 Al 6.45395 7.70368 10.7459
115 Al 6.61483 7.81005 7.8248
116 Al 8.92034 8.70074 11.6705
117 Al 5.4089 11.1335 10.6756
118 Al 7.88201 12.2402 14.3826
119 Al 5.58432 10.9412 7.80064
120 Al 7.93015 12.1318 11.4753
121 Al 9.08888 8.86931 14.405
122 Al 7.60137 9.89143 9.4831
123 Al 5.08894 13.2682 13.082
124 Al 6.8593 10.0217 12.9311
125 Ni 7.03742 12.2814 9.2414
126 Ni 4.99625 9.02685 9.26277
127 Ni 7.38216 7.56933 13.0572
128 Ni 9.31782 10.7844 12.9557
ITEM: TIMESTEP
1900
ITEM: NUMBER OF ATOMS
128
ITEM: BOX BOUNDS xy xz yz pp pp pp
-4.9582323623273972e-02 9.8176512488726804e+00 4.3430748723447446e-02
-4.6916890418024160e-02 1.3264470226242727e+01 9.3632354269687509e-02
-4.1835096090015789e-02 1.4895312855901562e+01 1.7685122532269372e-02
ITEM: ATOMS id element xu yu zu
1 Al 4.4101 0.0831515 1.63088
2 Al 1.68905 1.02083 3.23792
3 Al 1.79465 1.02267 0.328671
4 Al 4.12872 2.1277 4.04691
5 Al 0.581537 4.33478 3.2466
6 Al 3.09769 5.41356 6.98843
7 Al 0.709668 4.42358 0.29706
8 Al 3.1339 5.4377 4.1117
9 Al 4.19828 2.28942 7.01509
10 Al 2.84114 3.40331 1.76288
11 Al 0.708008 6.36182 5.60008
12 Al 1.96944 3.2156 5.46231
13 Ni 2.16173 5.73146 1.79745
14 Ni 0.31132 2.40972 1.72316
15 Ni 2.65768 0.910053 5.58159
16 Ni 4.70629 4.17101 5.48422
17 Al 4.25474 0.134231 9.26457
18 Al 1.66502 1.07541 10.7581
19 Al 1.8025 1.21027 7.73511
20 Al 4.32506 2.10787 11.4475
21 Al 0.672308 4.23063 10.7282
22 Al 3.15361 5.56101 14.4436
23 Al 0.568503 4.34261 7.87317
24 Al 3.02904 5.39963 11.599
25 Al 4.32977 2.2195 14.4591
26 Al 2.8569 3.43892 9.25868
27 Al 0.51182 6.57353 12.9841
28 Al 2.10213 3.21946 13.0544
29 Ni 2.14902 5.82698 9.36202
30 Ni 0.153071 2.35216 9.18846
31 Ni 2.77912 0.846064 13.0332
32 Ni 4.72142 4.1916 13.0616
33 Al 4.50407 6.61892 1.90229
34 Al 1.87302 7.67066 3.25153
35 Al 1.70811 7.72099 0.325417
36 Al 4.33514 8.78689 4.18484
37 Al 0.771077 11.0678 3.31551
38 Al 3.15336 12.1815 6.98983
39 Al 0.583346 11.005 0.405576
40 Al 3.16487 12.2123 4.11994
41 Al 4.26384 9.02263 7.08554
42 Al 2.7784 9.93628 1.84008
43 Al 0.568871 13.1451 5.59099
44 Al 2.15216 9.93354 5.3485
45 Ni 2.19108 12.374 1.83347
46 Ni 0.35636 9.14722 1.85281
47 Ni 2.80446 7.46359 5.53479
48 Ni 4.69639 10.7319 5.5464
49 Al 4.4337 6.61888 9.20261
50 Al 1.87987 7.84478 10.643
51 Al 1.7948 7.8156 7.86891
52 Al 4.21719 8.94161 11.6879
53 Al 0.647034 11.0656 10.6739
54 Al 3.28921 12.1498 14.4957
55 Al 0.835777 10.9677 7.74751
56 Al 3.05049 12.0207 11.5766
57 Al 4.22047 8.9493 14.5549
58 Al 2.89942 9.95839 9.30558
59 Al 0.522421 13.1543 12.9491
60 Al 2.04735 9.90482 13.1813
61 Ni 2.10085 12.5116 9.30176
62 Ni 0.397374 9.08991 9.19394
63 Ni 2.87036 7.53583 12.8776
64 Ni 4.65183 10.9708 13.0741
65 Al 9.17244 0.14395 1.69808
66 Al 6.40784 1.08359 3.35206
67 Al 6.59113 1.07547 0.372083
68 Al 9.04366 2.08481 4.12636
69 Al 5.55793 4.50565 3.26893
70 Al 8.02705 5.50941 6.94749
71 Al 5.47413 4.61313 0.353783
72 Al 8.0347 5.50797 4.06998
73 Al 9.00884 2.03259 6.93232
74 Al 7.75451 3.35565 1.71135
75 Al 5.38939 6.46568 5.47088
76 Al 6.8488 3.13958 5.48131
77 Ni 6.98342 5.80752 1.72542
78 Ni 5.12745 2.37763 1.74741
79 Ni 7.50181 0.808883 5.55314
80 Ni 9.37224 4.09385 5.45958
81 Al 9.20315 0.0982316 9.18694
82 Al 6.59391 1.09393 10.6784
83 Al 6.47985 1.08579 7.8696
84 Al 8.97664 2.09897 11.5669
85 Al 5.42177 4.53726 10.6837
86 Al 7.93953 5.39279 14.4835
87 Al 5.6046 4.54347 7.80947
88 Al 7.96826 5.45822 11.4859
89 Al 9.08406 2.11748 14.4418
90 Al 7.67924 3.35979 9.33869
91 Al 5.28369 6.73722 12.9761
92 Al 7.00427 3.29768 12.9417
93 Ni 7.06632 5.72006 9.3339
94 Ni 5.12646 2.49552 9.27456
95 Ni 7.54941 0.845809 12.9879
96 Ni 9.42141 4.21089 12.8749
97 Al 9.36479 6.74911 1.84655
98 Al 6.92011 7.71212 3.24068
99 Al 6.57629 7.65881 0.209257
100 Al 9.26535 8.6921 4.19691
101 Al 5.45853 11.2164 3.26327
102 Al 7.96677 12.1207 6.96041
103 Al 5.52402 10.9566 0.378656
104 Al 8.03638 12.107 4.01239
105 Al 8.93876 8.7914 7.04233
106 Al 7.69148 9.93567 1.91001
107 Al 5.29865 13.3697 5.65549
108 Al 6.86778 9.87218 5.44064
109 Ni 6.94849 12.2788 1.80452
110 Ni 5.0892 9.07345 1.95607
111 Ni 7.52183 7.48816 5.54856
112 Ni 9.52525 10.746 5.57423
113 Al 9.51696 6.59329 9.1983
114 Al 6.75468 7.81521 10.7436
115 Al 6.60605 7.68604 7.953
116 Al 9.32774 8.78169 11.6504
117 Al 5.6263 11.1573 10.7107
118 Al 8.07824 11.9757 14.5354
119 Al 5.64144 11.1926 7.80996
120 Al 8.10277 12.2203 11.5528
121 Al 9.10481 8.7194 14.6437
122 Al 7.85279 9.95353 9.16278
123 Al 5.38963 13.1909 12.9512
124 Al 6.93374 9.96153 12.9859
125 Ni 7.1367 12.4505 9.24973
126 Ni 5.15581 9.2 9.36138
127 Ni 7.62978 7.45273 12.9798
128 Ni 9.45561 10.7448 13.0424
ITEM: TIMESTEP
2000
ITEM: NUMBER OF ATOMS
128
ITEM: BOX BOUNDS xy xz yz pp pp pp
-3.3039147438446027e-02 9.6327055935165316e+00 -1.6579177460845976e-02
-4.1102282257547529e-02 1.3269162232358678e+01 -1.4760198717353821e-02
1.2400523336263625e-02 1.4841077236475300e+01 2.8191736808683074e-02
ITEM: ATOMS id element xu yu zu
1 Al 4.54904 0.0904915 1.92465
2 Al 1.79876 1.12896 3.28212
3 Al 1.73816 1.19759 0.355754
4 Al 4.14305 2.15617 4.17038
5 Al 0.454157 4.4155 3.26037
6 Al 2.95499 5.43864 6.98254
7 Al 0.591803 4.50106 0.395739
8 Al 3.0311 5.38079 4.02383
9 Al 4.0146 2.18722 7.03487
10 Al 2.73944 3.45598 1.80923
11 Al 0.35366 6.50491 5.56139
12 Al 1.87493 3.20429 5.53462
13 Ni 2.07335 5.71173 1.78758
14 Ni 0.260364 2.4882 1.81431
15 Ni 2.63462 0.891852 5.5172
16 Ni 4.56526 4.26556 5.61875
17 Al 4.40709 0.0574178 9.43836
18 Al 1.76311 1.06239 10.6917
19 Al 1.63972 1.11726 7.798
20 Al 4.21925 2.3346 11.4717
21 Al 0.633257 4.69585 10.6981
22 Al 3.11037 5.56456 14.4604
23 Al 0.531935 4.39871 7.87746
24 Al 3.08649 5.63694 11.4444
25 Al 4.12627 2.14603 14.5424
26 Al 2.72532 3.39635 9.35408
27 Al 0.311618 6.57008 12.9814
28 Al 1.98845 3.3117 12.9105
29 Ni 2.10714 5.79744 9.11522
30 Ni 0.354635 2.49803 9.34775
31 Ni 2.66211 0.937486 12.9566
32 Ni 4.46641 4.19335 12.9843
33 Al 4.38421 6.6204 1.76043
34 Al 1.67245 7.67895 3.363
35 Al 1.77238 7.79094 0.485159
36 Al 3.94781 8.85059 4.0308
37 Al 0.619584 10.9922 3.16537
38 Al 2.87737 12.1605 6.9753
39 Al 0.612616 10.9363 0.429401
40 Al 2.89433 12.0765 4.13293
41 Al 4.27746 8.85394 6.81602
42 Al 2.85625 10.0248 1.87193
43 Al 0.407076 13.4162 5.5349
44 Al 1.97228 9.91664 5.67328
45 Ni 2.22208 12.4832 1.84589
46 Ni 0.231076 9.10576 1.86209
47 Ni 2.65347 7.38324 5.51689
48 Ni 4.43157 10.8687 5.5642
49 Al 4.34774 6.81329 9.20142
50 Al 1.62579 7.83383 10.7321
51 Al 1.78284 7.75839 7.92772
52 Al 4.11976 8.64753 11.4645
53 Al 0.8076 11.0337 10.7757
54 Al 3.11136 12.0691 14.39
55 Al 0.549468 11.0271 7.95484
56 Al 3.06117 12.1685 11.6375
57 Al 4.26632 8.74526 14.3491
58 Al 2.98535 9.96707 9.15491
59 Al 0.399547 13.2079 13.0689
60 Al 2.06813 9.83406 12.869
61 Ni 2.17801 12.2986 9.31782
62 Ni 0.220168 9.0465 9.26141
63 Ni 2.57114 7.46929 13.1065
64 Ni 4.5089 10.5948 12.9496
65 Al 9.36559 0.146044 1.80606
66 Al 6.5535 1.29538 3.35197
67 Al 6.55447 1.08429 0.392274
68 Al 9.01191 2.17856 4.14318
69 Al 5.42679 4.49332 3.39218
70 Al 7.73166 5.38028 6.89898
71 Al 5.52159 4.40144 0.286121
72 Al 7.86813 5.49675 4.08084
73 Al 8.86937 2.0912 7.12692
74 Al 7.64694 3.35629 1.85742
75 Al 5.28951 6.54254 5.58356
76 Al 6.77045 3.15728 5.57031
77 Ni 6.93331 5.65258 1.89968
78 Ni 5.11245 2.41266 1.86867
79 Ni 7.50891 0.877433 5.58631
80 Ni 9.26017 4.11904 5.54867
81 Al 9.21222 -0.0751111 9.5312
82 Al 6.5289 1.16836 10.8313
83 Al 6.41498 1.11199 7.88316
84 Al 9.01705 2.18536 11.5455
85 Al 5.53824 4.60676 10.6151
86 Al 7.80214 5.45068 14.3502
87 Al 5.3852 4.44902 7.99262
88 Al 7.90536 5.48089 11.5031
89 Al 8.90342 2.16687 14.4618
90 Al 7.66324 3.35127 9.20812
91 Al 5.34585 6.54205 12.9966
92 Al 6.7599 3.16118 12.852
93 Ni 6.89272 5.7771 9.14875
94 Ni 5.05173 2.4288 9.28768
95 Ni 7.53694 0.812514 12.9672
96 Ni 9.44485 4.1336 12.9577
97 Al 9.32466 6.59271 1.73163
98 Al 6.51536 7.6553 3.31251
99 Al 6.72477 7.69858 0.462318
100 Al 8.78173 8.93481 4.0434
101 Al 5.61917 10.9537 3.36602
102 Al 7.85247 12.1891 7.06478
103 Al 5.34895 11.0462 0.412307
104 Al 7.73037 12.0932 4.19586
105 Al 9.09444 8.87553 6.98646
106 Al 7.66254 10.1041 1.80178
107 Al 5.24803 13.2291 5.51659
108 Al 6.87229 10.0051 5.7252
109 Ni 6.99078 12.4286 1.81139
110 Ni 5.12194 9.07928 1.77235
111 Ni 7.63597 7.44424 5.48272
112 Ni 9.44302 10.9081 5.52526
113 Al 9.23094 6.65418 9.04767
114 Al 6.57144 7.65138 10.6824
115 Al 6.7032 7.87172 7.73859
116 Al 8.84129 8.86843 11.3903
117 Al 5.40803 11.0278 10.6932
118 Al 7.83919 11.9928 14.4359
119 Al 5.3812 11.1042 7.74874
120 Al 7.85364 12.0634 11.527
121 Al 9.0599 8.78481 14.3595
122 Al 7.62533 10.0061 9.16064
123 Al 5.22159 13.0999 12.9694
124 Al 6.70918 9.76942 13.0278
125 Ni 6.86561 12.4285 9.2928
126 Ni 5.22791 9.13179 9.09499
127 Ni 7.53131 7.52468 12.9449
128 Ni 9.40347 10.9127 12.9259
ITEM: TIMESTEP
2100
ITEM: NUMBER OF ATOMS
128
ITEM: BOX BOUNDS xy xz yz pp pp pp
-1.9030173323219521e-01 9.6546699993482950e+00 -4.1581953413844804e-02
-3.2735499116750333e-02 1.3278796379962881e+01 -1.2505560272633989e-01
-3.5689251225999641e-02 1.4889167011037566e+01 4.6192667553681274e-02
ITEM: ATOMS id element xu yu zu
1 Al 4.28284 0.0492498 1.82156
2 Al 1.64975 1.0801 3.41289
3 Al 1.71299 1.10507 0.333508
4 Al 4.11475 2.0639 4.02107
5 Al 0.727581 4.50159 3.35749
6 Al 3.05524 5.64962 7.09585
7 Al 0.642039 4.39664 0.494551
8 Al 3.0717 5.70124 4.02959
9 Al 4.15507 2.02714 6.9895
10 Al 2.7774 3.28502 1.82693
11 Al 0.0794494 6.83544 5.42233
12 Al 1.99545 3.22729 5.67626
13 Ni 2.17984 5.79578 1.83187
14 Ni 0.21306 2.32925 1.82698
15 Ni 2.6918 0.832156 5.56817
16 Ni 4.31386 4.12066 5.4427
17 Al 4.58159 0.0352961 9.2274
18 Al 1.60574 1.2147 10.712
19 Al 1.77477 1.08364 7.90381
20 Al 4.21351 1.91849 11.5523
21 Al 0.568967 4.40812 10.659
22 Al 2.86589 5.55369 14.407
23 Al 0.685809 4.55457 7.86389
24 Al 2.94642 5.50417 11.5102
25 Al 4.12537 2.10263 14.4037
26 Al 2.83468 3.28422 9.15005
27 Al 0.237701 6.57583 12.9405
28 Al 1.78078 3.27246 12.9965
29 Ni 2.02113 5.72519 9.30543
30 Ni 0.178127 2.50848 9.22941
31 Ni 2.52278 0.795367 13.0147
32 Ni 4.41475 4.14664 12.9835
33 Al 4.32965 6.76045 1.83684
34 Al 1.84247 7.9041 3.23829
35 Al 1.63125 7.67524 0.347906
36 Al 4.15911 8.81562 4.07633
37 Al 0.615358 11.0592 3.35816
38 Al 3.0998 12.0515 6.99682
39 Al 0.49361 11.1438 0.361508
40 Al 3.01707 12.2231 4.11083
41 Al 4.00643 8.7784 7.11818
42 Al 2.82046 10.0207 1.69787
43 Al 0.391965 13.3461 5.61357
44 Al 1.92138 10.1093 5.48288
45 Ni 1.97407 12.2981 1.83878
46 Ni 0.14433 9.06094 1.74204
47 Ni 2.56007 7.65793 5.45418
48 Ni 4.47674 10.7379 5.55869
49 Al 4.42174 6.49408 9.35261
50 Al 1.63502 7.75245 10.6485
51 Al 1.50145 7.6606 7.85921
52 Al 3.97491 8.92582 11.5208
53 Al 0.380652 11.2741 10.6286
54 Al 2.97297 12.1887 14.4864
55 Al 0.635872 11.2644 7.70829
56 Al 2.98479 12.1887 11.3566
57 Al 4.03883 8.8246 14.291
58 Al 2.55113 9.99889 9.31575
59 Al 0.212593 13.2484 12.8851
60 Al 2.00562 9.99264 13.0922
61 Ni 2.16731 12.3724 9.22933
62 Ni 0.121852 9.16561 9.22113
63 Ni 2.565 7.54369 12.8974
64 Ni 4.40826 10.8853 13.0421
65 Al 9.33797 -0.00098365 1.80413
66 Al 6.51394 1.07086 3.23045
67 Al 6.61673 1.13222 0.421259
68 Al 8.90851 2.22568 4.04518
69 Al 5.35327 4.43089 3.2567
70 Al 7.94846 5.5292 7.0652
71 Al 5.33071 4.44994 0.314475
72 Al 7.70662 5.4573 4.10279
73 Al 9.02071 2.32982 6.92522
74 Al 7.63211 3.35614 1.84909
75 Al 5.03124 6.57178 5.53567
76 Al 6.87188 3.28984 5.47366
77 Ni 6.81248 5.80689 1.82856
78 Ni 5.09021 2.35751 1.82061
79 Ni 7.44836 0.853781 5.49809
80 Ni 9.45121 4.23646 5.58568
81 Al 9.07168 0.16141 9.14176
82 Al 6.62123 1.16459 10.796
83 Al 6.67132 1.22617 7.80336
84 Al 8.90097 2.19166 11.542
85 Al 5.37404 4.25523 10.6793
86 Al 7.84745 5.55222 14.6183
87 Al 5.52795 4.41162 7.75226
88 Al 7.77787 5.53017 11.614
89 Al 8.95565 2.30512 14.4462
90 Al 7.55928 3.35338 9.40682
91 Al 5.09794 6.5547 12.9932
92 Al 6.7547 3.30704 13.1501
93 Ni 6.83203 5.71498 9.33347
94 Ni 5.07747 2.41792 9.21086
95 Ni 7.42133 0.957762 13.0095
96 Ni 9.20584 4.23579 12.984
97 Al 9.15542 6.70551 1.9692
98 Al 6.54784 7.80588 3.23906
99 Al 6.3992 7.87426 0.284058
100 Al 8.95902 8.88949 4.05725
101 Al 5.44987 11.0032 3.22098
102 Al 7.75115 12.0163 7.03024
103 Al 5.39155 11.0711 0.275269
104 Al 7.76465 12.0451 4.18469
105 Al 8.78981 8.90914 7.08594
106 Al 7.52095 9.97421 1.81143
107 Al 5.22964 13.1962 5.41711
108 Al 6.76635 9.93639 5.43473
109 Ni 6.81702 12.3138 1.81211
110 Ni 5.05988 9.0585 1.76809
111 Ni 7.23818 7.55465 5.56379
112 Ni 9.16798 10.749 5.52744
113 Al 9.04711 6.76979 9.42675
114 Al 6.54207 7.84233 10.825
115 Al 6.44378 7.82827 7.79078
116 Al 8.92721 8.65757 11.4713
117 Al 5.39951 11.067 10.7729
118 Al 7.77609 12.4087 14.5118
119 Al 5.36021 10.9133 7.83405
120 Al 7.76061 12.084 11.5681
121 Al 8.88378 8.84601 14.3543
122 Al 7.55327 9.9355 9.29516
123 Al 5.13184 13.2517 13.0385
124 Al 6.78124 9.93623 13.1031
125 Ni 6.88691 12.3433 9.32042
126 Ni 4.90533 8.93589 9.33194
127 Ni 7.41201 7.45838 13.0139
128 Ni 9.30721 10.8599 12.9988
ITEM: TIMESTEP
2200
ITEM: NUMBER OF ATOMS
128
ITEM: BOX BOUNDS xy xz yz pp pp pp
-5.8521538460502759e-02 9.7258015021359032e+00 -1.8206439759805581e-03
-7.5998264947461334e-03 1.3179930275414105e+01 3.8094785395087018e-02
-3.5793454048500983e-02 1.4889271213860068e+01 -2.7537764373096765e-02
ITEM: ATOMS id element xu yu zu
1 Al 4.50607 0.0867993 1.65139
2 Al 1.83161 1.14988 3.27335
3 Al 1.7063 1.13865 0.374422
4 Al 4.21644 2.25668 4.07475
5 Al 0.672938 4.49368 3.16341
6 Al 3.02704 5.41655 7.06023
7 Al 0.636534 4.42415 0.291866
8 Al 3.06649 5.41589 4.08191
9 Al 4.18093 2.2301 7.02124
10 Al 2.77389 3.38429 1.80063
11 Al 0.424649 6.30511 5.67313
12 Al 1.94161 3.22832 5.41748
13 Ni 2.05514 5.7859 1.83905
14 Ni 0.271716 2.56877 1.82574
15 Ni 2.65962 0.87865 5.4503
16 Ni 4.70239 4.23215 5.58047
17 Al 4.32588 0.118544 9.2322
18 Al 1.70558 1.10499 10.6846
19 Al 1.75591 1.27991 7.70206
20 Al 4.04787 2.24824 11.5063
21 Al 0.699172 4.33339 10.6945
22 Al 3.10298 5.39489 14.5782
23 Al 0.665522 4.44101 7.83033
24 Al 2.99808 5.41322 11.6407
25 Al 4.1648 2.17404 14.4433
26 Al 2.81717 3.26211 9.19835
27 Al 0.322275 6.54804 12.9448
28 Al 1.95488 3.23508 13.1193
29 Ni 2.12878 5.72095 9.32637
30 Ni 0.300352 2.4119 9.2398
31 Ni 2.76272 0.92165 12.9888
32 Ni 4.57301 4.18061 13.1031
33 Al 4.36449 6.55821 1.79053
34 Al 1.67079 7.55619 3.44636
35 Al 1.78813 7.73765 0.474587
36 Al 4.09238 8.67014 4.07796
37 Al 0.670796 11.1316 3.26172
38 Al 3.00092 11.9124 6.98583
39 Al 0.727416 11.1442 0.227845
40 Al 3.06242 12.0526 4.13409
41 Al 4.24521 8.81049 7.10102
42 Al 2.77878 9.98927 2.05307
43 Al 0.57722 13.1155 5.48254
44 Al 1.86958 9.66118 5.45309
45 Ni 2.13912 12.3752 1.7283
46 Ni 0.267438 8.97266 1.84834
47 Ni 2.71987 7.32599 5.59782
48 Ni 4.5471 10.7703 5.55773
49 Al 4.30343 6.78205 9.38891
50 Al 1.71069 7.62363 10.7752
51 Al 1.81889 7.78953 7.82278
52 Al 4.23409 8.76349 11.676
53 Al 0.698182 10.9544 10.7805
54 Al 3.14372 12.0278 14.3557
55 Al 0.680212 10.8989 7.82903
56 Al 3.03949 12.002 11.4917
57 Al 4.10283 8.88083 14.4679
58 Al 2.76835 10.0528 9.28477
59 Al 0.422294 13.2067 13.069
60 Al 1.84368 9.55975 12.9833
61 Ni 1.96203 12.3592 9.21086
62 Ni 0.286167 8.90724 9.37681
63 Ni 2.69164 7.42928 13.0376
64 Ni 4.6855 10.7927 13.0305
65 Al 9.32392 0.273634 1.69686
66 Al 6.62301 1.3259 3.28468
67 Al 6.56199 1.13126 0.237677
68 Al 9.08554 2.18875 4.13844
69 Al 5.56823 4.53811 3.28652
70 Al 7.92131 5.43142 6.97715
71 Al 5.53641 4.35979 0.298574
72 Al 7.9917 5.52841 3.95238
73 Al 9.06219 2.25697 6.94609
74 Al 7.77406 3.30629 1.75882
75 Al 5.25386 6.59191 5.49227
76 Al 6.96835 3.19293 5.57925
77 Ni 7.07705 5.73985 1.82447
78 Ni 5.0471 2.55294 1.82553
79 Ni 7.54209 0.907886 5.52299
80 Ni 9.36149 4.14399 5.4844
81 Al 9.30223 0.032728 9.08325
82 Al 6.58038 1.17616 10.7656
83 Al 6.55057 1.04888 7.83011
84 Al 9.04833 2.13983 11.4896
85 Al 5.54682 4.4245 10.7307
86 Al 7.88309 5.40238 14.2799
87 Al 5.40894 4.52523 7.98505
88 Al 8.0794 5.46604 11.5184
89 Al 9.11291 2.12888 14.5139
90 Al 7.72972 3.34614 9.1267
91 Al 5.12866 6.56397 13.0556
92 Al 6.88919 3.14887 12.9599
93 Ni 7.02081 5.76216 9.30274
94 Ni 5.14852 2.50887 9.27981
95 Ni 7.60013 0.834043 12.9652
96 Ni 9.47103 4.09719 13.022
97 Al 9.17867 6.66196 1.60279
98 Al 6.43342 7.7416 3.33904
99 Al 6.40614 7.83163 0.50534
100 Al 9.09592 8.73492 4.11069
101 Al 5.5307 11.1171 3.18656
102 Al 7.96647 11.8936 6.8361
103 Al 5.51749 11.052 0.285613
104 Al 8.03009 12.0263 4.07386
105 Al 9.01919 8.58418 7.08979
106 Al 7.6267 9.93196 1.80895
107 Al 5.23006 13.2258 5.64159
108 Al 6.69293 9.70109 5.41951
109 Ni 6.99459 12.4393 1.77923
110 Ni 5.03323 9.05071 1.91075
111 Ni 7.69377 7.42726 5.5788
112 Ni 9.42711 10.6629 5.51657
113 Al 9.369 6.61615 9.29025
114 Al 6.63987 7.72845 10.6947
115 Al 6.45122 7.61604 7.8249
116 Al 8.98043 8.65745 11.5618
117 Al 5.43279 11.1061 10.6935
118 Al 7.81662 12.0281 14.4744
119 Al 5.57344 11.0701 7.76527
120 Al 8.11666 12.2172 11.3216
121 Al 8.9796 8.79674 14.4832
122 Al 7.79149 9.93825 9.42014
123 Al 5.2409 13.3181 12.9943
124 Al 6.84549 9.7816 12.7629
125 Ni 7.05941 12.2885 9.209
126 Ni 5.02653 9.09161 9.39196
127 Ni 7.52321 7.46371 12.9593
128 Ni 9.26701 10.7577 12.9916
ITEM: TIMESTEP
2300
ITEM: NUMBER OF ATOMS
128
ITEM: BOX BOUNDS xy xz yz pp pp pp
-5.6641135839496037e-02 9.8318943833719263e+00 5.2228979202071320e-02
-5.1889518407047551e-02 1.3201522134142836e+01 9.2018446074058804e-02
2.4509316313793050e-02 1.4828968443497786e+01 -5.0235597556658594e-02
ITEM: ATOMS id element xu yu zu
1 Al 4.46288 0.0359457 2.00481
2 Al 1.77694 1.16484 3.41151
3 Al 1.69229 1.09941 0.352213
4 Al 4.10974 2.36648 4.04061
5 Al 0.7054 4.31919 3.25216
6 Al 3.00644 5.33317 6.98042
7 Al 0.693742 4.31539 0.343431
8 Al 3.04208 5.41262 4.15624
9 Al 4.15174 2.29333 7.02932
10 Al 2.87265 3.3597 1.85889
11 Al 0.463013 6.51449 5.57594
12 Al 1.90798 3.1558 5.63293
13 Ni 2.2284 5.69977 1.82146
14 Ni 0.236313 2.41634 1.75877
15 Ni 2.7947 0.842667 5.55007
16 Ni 4.66536 4.24553 5.58375
17 Al 4.16761 0.138742 9.19956
18 Al 1.83618 1.13215 10.6107
19 Al 1.64503 1.14291 7.72185
20 Al 4.21031 2.15752 11.5505
21 Al 0.640994 4.54024 10.6804
22 Al 3.14901 5.42499 14.3937
23 Al 0.623535 4.22982 7.8364
24 Al 3.17574 5.58737 11.421
25 Al 4.2637 2.16133 14.3071
26 Al 2.78245 3.35886 9.37531
27 Al 0.533414 6.45567 13.2569
28 Al 2.10217 3.30664 12.8322
29 Ni 2.12772 5.70218 9.21958
30 Ni 0.252903 2.30852 9.266
31 Ni 2.77307 0.761097 12.9232
32 Ni 4.66558 4.17388 12.9305
33 Al 4.45255 6.6308 1.91165
34 Al 1.83304 7.7345 3.30087
35 Al 1.79969 7.85893 0.411768
36 Al 4.28966 8.56193 4.06334
37 Al 0.690932 11.0221 3.38542
38 Al 3.06741 12.1033 6.87948
39 Al 0.695734 11.1139 0.411515
40 Al 3.00731 11.9415 4.17072
41 Al 4.25397 8.81957 7.01123
42 Al 2.82645 9.91491 1.74971
43 Al 0.400368 13.1575 5.49804
44 Al 2.13687 9.86235 5.54571
45 Ni 2.15955 12.3487 1.89108
46 Ni 0.261513 9.09466 1.85002
47 Ni 2.73598 7.3909 5.55018
48 Ni 4.59778 10.8265 5.55111
49 Al 4.5333 6.68353 9.06993
50 Al 1.73071 7.75096 10.7644
51 Al 1.81346 7.68677 7.77138
52 Al 4.24441 8.76467 11.4877
53 Al 0.688191 10.9066 10.6855
54 Al 3.15909 12.0098 14.4997
55 Al 0.731512 10.9995 7.85497
56 Al 3.15344 12.0227 11.5433
57 Al 4.38457 8.72638 14.3842
58 Al 2.94402 9.89234 9.20253
59 Al 0.573097 13.0821 12.9155
60 Al 2.28839 9.94506 12.936
61 Ni 2.21943 12.1944 9.30797
62 Ni 0.266768 8.9569 9.22106
63 Ni 2.79405 7.49608 13.0249
64 Ni 4.60689 10.7093 12.9411
65 Al 9.28384 -0.030195 1.89404
66 Al 6.59159 1.10243 3.2949
67 Al 6.68408 1.13637 0.390713
68 Al 9.03663 2.06023 4.05359
69 Al 5.65729 4.44016 3.30203
70 Al 8.03978 5.5481 6.91777
71 Al 5.37528 4.55228 0.45656
72 Al 7.99745 5.47351 4.14892
73 Al 9.0132 1.94581 7.03437
74 Al 7.8391 3.39117 1.95184
75 Al 5.38254 6.49656 5.68397
76 Al 6.94375 3.10268 5.5428
77 Ni 7.08811 5.77828 1.87586
78 Ni 5.19696 2.51463 1.87907
79 Ni 7.4354 0.833314 5.49367
80 Ni 9.29485 3.98059 5.67465
81 Al 9.43913 -0.123808 9.53077
82 Al 6.50772 0.962837 10.6129
83 Al 6.34233 1.1205 7.79706
84 Al 9.0152 2.09649 11.4454
85 Al 5.51989 4.54251 10.5876
86 Al 8.03786 5.34821 14.4085
87 Al 5.67932 4.28639 7.78425
88 Al 8.12966 5.61151 11.5637
89 Al 9.10776 2.12421 14.3764
90 Al 7.6814 3.32256 9.38141
91 Al 5.30709 6.50694 12.8628
92 Al 6.92707 3.30689 12.8784
93 Ni 7.11317 5.74943 9.2172
94 Ni 5.06185 2.46447 9.23803
95 Ni 7.4702 0.892795 12.9749
96 Ni 9.47333 4.11567 12.9537
97 Al 9.37841 6.63536 1.80998
98 Al 6.6584 7.80406 3.1713
99 Al 6.66527 7.79443 0.566847
100 Al 9.06869 8.72825 4.07594
101 Al 5.59399 10.9225 3.31332
102 Al 7.98046 12.1941 7.03319
103 Al 5.50998 11.0892 0.401051
104 Al 7.98053 11.9645 4.08551
105 Al 9.23497 8.7376 6.8708
106 Al 7.76794 10.0239 1.93538
107 Al 5.19719 13.1622 5.4429
108 Al 7.02712 10.0622 5.82715
109 Ni 7.01344 12.267 1.84279
110 Ni 5.17205 9.02496 1.82053
111 Ni 7.55025 7.4886 5.57364
112 Ni 9.54911 10.7981 5.56839
113 Al 9.44987 6.61158 9.18899
114 Al 6.6153 7.73356 10.8307
115 Al 6.78438 7.65494 7.84856
116 Al 9.08305 8.77626 11.5767
117 Al 5.54772 10.9224 10.6442
118 Al 8.04531 12.0662 14.4751
119 Al 5.46342 11.248 7.79952
120 Al 7.9292 12.0335 11.6239
121 Al 9.14077 8.77293 14.4106
122 Al 7.73499 10.0104 9.13335
123 Al 5.43809 13.0579 12.9722
124 Al 6.88603 9.83092 13.1513
125 Ni 7.1574 12.3819 9.21036
126 Ni 5.38198 9.1373 9.07711
127 Ni 7.7012 7.48682 12.9795
128 Ni 9.63544 10.657 12.9419
ITEM: TIMESTEP
2400
ITEM: NUMBER OF ATOMS
128
ITEM: BOX BOUNDS xy xz yz pp pp pp
-4.8182327373493108e-02 9.6591542513765809e+00 4.1335466794369955e-03
-6.7898329365549515e-02 1.3283996168004126e+01 -2.4167444932650727e-02
-2.9579965773027794e-02 1.4883057725584610e+01 1.6229625346128432e-02
ITEM: ATOMS id element xu yu zu
1 Al 4.31871 0.0993415 1.7518
2 Al 1.69193 1.11659 3.27519
3 Al 1.61406 1.10281 0.310836
4 Al 4.16401 2.01534 4.04983
5 Al 0.676867 4.32926 3.26951
6 Al 3.05954 5.56436 6.90106
7 Al 0.529223 4.41493 0.452209
8 Al 3.08812 5.49979 4.02245
9 Al 4.19856 2.15545 7.1046
10 Al 2.77372 3.4237 1.82995
11 Al 0.417365 6.70168 5.27056
12 Al 2.11668 3.23342 5.50643
13 Ni 2.10416 5.65006 1.81056
14 Ni 0.0966671 2.38645 1.86863
15 Ni 2.57497 0.867432 5.61485
16 Ni 4.34095 4.05847 5.49867
17 Al 4.56721 -0.152912 9.45081
18 Al 1.62036 1.14754 10.7561
19 Al 1.69464 1.0705 7.86605
20 Al 4.13202 2.16288 11.5463
21 Al 0.649946 4.41508 10.7385
22 Al 3.15294 5.48928 14.5123
23 Al 0.701133 4.63937 7.6842
24 Al 3.04954 5.35929 11.4638
25 Al 4.03974 2.24 14.3518
26 Al 2.78513 3.34472 9.1999
27 Al 0.280964 6.63157 12.6041
28 Al 1.96114 3.28669 13.1313
29 Ni 2.12286 5.76651 9.23552
30 Ni 0.202211 2.53138 9.32685
31 Ni 2.62406 0.862853 13.0361
32 Ni 4.49685 4.16291 12.943
33 Al 4.41788 6.70365 1.78475
34 Al 1.9376 7.79519 3.14772
35 Al 1.72373 7.64507 0.217915
36 Al 4.12383 9.01806 4.05803
37 Al 0.566788 11.1035 3.32454
38 Al 3.19567 12.1608 7.02867
39 Al 0.57847 11.0026 0.530797
40 Al 3.10349 12.3193 4.11825
41 Al 4.03711 8.74037 7.04291
42 Al 2.90561 10.0669 1.76014
43 Al 0.223679 13.1963 5.53442
44 Al 1.92309 9.99753 5.69224
45 Ni 2.11073 12.4398 1.77747
46 Ni 0.309087 9.03458 1.77958
47 Ni 2.70918 7.49794 5.49327
48 Ni 4.5219 10.8301 5.63432
49 Al 4.50974 6.60635 9.37596
50 Al 1.82389 7.77338 10.5823
51 Al 1.67154 7.6747 7.74009
52 Al 4.13221 8.91908 11.648
53 Al 0.726205 11.0853 10.7567
54 Al 2.91936 12.1342 14.4714
55 Al 0.661769 11.1964 7.92019
56 Al 3.06492 12.1389 11.5671
57 Al 4.09558 8.81138 14.404
58 Al 2.80084 10.0769 9.19445
59 Al 0.381996 13.2457 13.0092
60 Al 1.98103 9.94479 13.1688
61 Ni 2.14314 12.5249 9.30657
62 Ni 0.329485 9.21038 9.22458
63 Ni 2.61863 7.36458 12.8617
64 Ni 4.51756 10.7429 13.0098
65 Al 9.18223 -0.175644 1.90542
66 Al 6.54853 1.02227 3.31612
67 Al 6.56349 0.996106 0.290737
68 Al 8.86255 2.11646 4.05931
69 Al 5.40513 4.35436 3.08678
70 Al 7.92589 5.48611 7.02891
71 Al 5.50736 4.49641 0.256759
72 Al 7.75774 5.45624 4.11211
73 Al 9.09265 2.35934 6.95556
74 Al 7.5504 3.20626 1.74107
75 Al 5.22116 6.59977 5.39211
76 Al 6.77639 3.32925 5.46536
77 Ni 6.92977 5.72584 1.75042
78 Ni 5.04941 2.34406 1.82872
79 Ni 7.54744 0.86534 5.67621
80 Ni 9.49699 4.20988 5.49413
81 Al 9.21421 0.127212 9.16343
82 Al 6.79696 1.18118 10.6897
83 Al 6.57544 1.14332 7.9403
84 Al 9.02997 2.20652 11.6726
85 Al 5.44128 4.37344 10.7351
86 Al 8.14317 5.55678 14.5207
87 Al 5.30683 4.46832 7.79327
88 Al 7.76057 5.23455 11.6351
89 Al 8.90198 2.20921 14.539
90 Al 7.51698 3.35263 9.30121
91 Al 5.31093 6.52255 12.9548
92 Al 6.80066 3.20466 13.0828
93 Ni 6.84497 5.69889 9.23396
94 Ni 5.15631 2.3838 9.27968
95 Ni 7.52052 0.730831 13.0445
96 Ni 9.40379 4.22513 12.9528
97 Al 9.20989 6.70886 1.98359
98 Al 6.61814 7.71685 3.10805
99 Al 6.60023 7.7446 0.361468
100 Al 9.01695 8.83839 4.06569
101 Al 5.50987 11.1975 3.29802
102 Al 7.80732 12.1257 7.14489
103 Al 5.46707 10.9972 0.384952
104 Al 7.79584 12.1704 4.24389
105 Al 8.94508 8.96247 7.0286
106 Al 7.6778 9.88689 1.7417
107 Al 5.31724 13.1393 5.66781
108 Al 6.82321 9.83543 5.26336
109 Ni 6.96002 12.3979 1.85247
110 Ni 5.16494 9.04979 1.84556
111 Ni 7.61132 7.32562 5.56513
112 Ni 9.39731 10.8319 5.50674
113 Al 9.22554 6.67484 9.30049
114 Al 6.67503 7.7149 10.6416
115 Al 6.57118 7.79513 7.7721
116 Al 9.08137 8.98777 11.5291
117 Al 5.48924 11.0263 10.8671
118 Al 7.87182 12.1467 14.5628
119 Al 5.61471 10.8422 7.81284
120 Al 8.00347 12.1142 11.5623
121 Al 8.97228 8.82184 14.3272
122 Al 7.61481 10.0196 9.36
123 Al 5.28332 13.2877 12.9012
124 Al 6.87523 9.95532 12.9608
125 Ni 7.00187 12.4447 9.40077
126 Ni 4.95915 9.04422 9.29269
127 Ni 7.58476 7.40717 12.8656
128 Ni 9.37827 10.895 13.0162
ITEM: TIMESTEP
2500
ITEM: NUMBER OF ATOMS
128
ITEM: BOX BOUNDS xy xz yz pp pp pp
-7.7076836841892343e-02 9.6312165023383223e+00 -4.4867790810687376e-02
2.2983463198844589e-04 1.3221009109146550e+01 -3.1998365949170673e-02
-2.3506334308859067e-02 1.4876984094120436e+01 2.1370730486099360e-02
ITEM: ATOMS id element xu yu zu
1 Al 4.42045 0.00605607 1.94373
2 Al 1.71065 1.09748 3.21482
3 Al 1.89297 1.14067 0.458794
4 Al 4.16087 2.21136 4.09499
5 Al 0.679983 4.54037 3.17477
6 Al 3.06307 5.4992 7.02129
7 Al 0.603446 4.45614 0.255214
8 Al 3.02111 5.50083 4.14698
9 Al 4.23849 2.19009 6.99892
10 Al 2.74465 3.40546 1.90839
11 Al 0.504359 6.53779 5.7143
12 Al 1.99519 3.36505 5.54472
13 Ni 2.14278 5.83348 1.79342
14 Ni 0.367109 2.56086 1.85897
15 Ni 2.65194 0.905174 5.52949
16 Ni 4.57364 4.19929 5.64767
17 Al 4.37887 0.118789 9.0994
18 Al 1.70868 1.08066 10.775
19 Al 1.87228 1.14606 7.83686
20 Al 4.20249 2.2395 11.698
21 Al 0.651343 4.39761 10.7974
22 Al 3.00561 5.47638 14.426
23 Al 0.589895 4.50696 7.83421
24 Al 2.94212 5.41684 11.6242
25 Al 4.22624 2.05338 14.4658
26 Al 2.94982 3.53669 9.2985
27 Al 0.395136 6.50018 13.1725
28 Al 1.94524 3.09535 12.8234
29 Ni 2.13102 5.79337 9.2731
30 Ni 0.35755 2.46609 9.2546
31 Ni 2.61191 0.917865 13.0462
32 Ni 4.42153 4.10471 13.047
33 Al 4.49141 6.62061 1.82421
34 Al 1.56395 7.74455 3.37538
35 Al 1.74869 7.66769 0.46227
36 Al 4.14904 8.74398 4.04344
37 Al 0.536761 10.8479 3.2446
38 Al 3.0726 12.0971 6.92126
39 Al 0.688017 11.1268 0.25414
40 Al 3.02084 12.1481 4.13039
41 Al 4.21272 8.76934 6.90895
42 Al 2.73829 9.88226 1.77975
43 Al 0.32131 13.0991 5.7406
44 Al 1.91187 9.86572 5.49865
45 Ni 2.04258 12.3455 1.87565
46 Ni 0.177772 9.13689 1.79099
47 Ni 2.59947 7.55391 5.53915
48 Ni 4.51978 10.7552 5.54525
49 Al 4.37917 6.6434 9.15061
50 Al 1.73688 7.66682 10.7193
51 Al 1.83886 7.80984 7.78516
52 Al 4.12627 8.84222 11.5253
53 Al 0.499193 11.0775 10.6993
54 Al 3.08764 12.1204 14.4939
55 Al 0.700319 10.922 7.88187
56 Al 3.02459 12.0505 11.52
57 Al 3.94207 8.91929 14.4633
58 Al 2.76354 9.89896 9.32465
59 Al 0.329054 13.1688 13.0157
60 Al 1.87271 9.86039 12.8145
61 Ni 2.0697 12.3965 9.24073
62 Ni 0.278421 9.08874 9.31193
63 Ni 2.62044 7.54607 13.0381
64 Ni 4.48803 10.747 12.9289
65 Al 9.15018 0.0479305 1.62486
66 Al 6.57478 1.18725 3.30553
67 Al 6.74383 1.11388 0.346933
68 Al 9.00225 2.38957 4.05828
69 Al 5.42022 4.52627 3.26477
70 Al 7.67534 5.52639 6.87038
71 Al 5.34855 4.29518 0.502025
72 Al 7.84486 5.54593 4.08171
73 Al 8.89525 2.30364 6.99872
74 Al 7.6032 3.36296 1.84245
75 Al 5.10718 6.55134 5.59945
76 Al 6.75937 3.15312 5.63172
77 Ni 6.88431 5.79307 1.81585
78 Ni 5.15653 2.43614 1.94042
79 Ni 7.64399 0.750053 5.3848
80 Ni 9.29235 4.28301 5.5537
81 Al 9.16494 0.110143 9.24699
82 Al 6.4923 1.17084 10.7881
83 Al 6.71438 1.1095 7.90888
84 Al 8.88374 2.20456 11.4364
85 Al 5.46345 4.47712 10.8
86 Al 7.56249 5.29422 14.3343
87 Al 5.43943 4.39179 7.95461
88 Al 7.93005 5.62157 11.5933
89 Al 9.05488 2.12404 14.5608
90 Al 7.64906 3.42234 9.19995
91 Al 5.18683 6.56136 13.063
92 Al 6.79945 3.26879 12.8971
93 Ni 6.9166 5.79683 9.29673
94 Ni 5.12369 2.44009 9.1693
95 Ni 7.53737 0.968318 12.956
96 Ni 9.22161 4.10243 13.0229
97 Al 9.15635 6.66707 1.60668
98 Al 6.56513 7.70147 3.19169
99 Al 6.58046 7.72676 0.459328
100 Al 8.87267 8.78839 4.26231
101 Al 5.40729 10.9995 3.30382
102 Al 7.7813 12.1137 6.91804
103 Al 5.44003 10.9525 0.321184
104 Al 7.99813 12.1565 3.91326
105 Al 8.87704 8.7394 7.09104
106 Al 7.56255 9.92185 1.90143
107 Al 5.2144 13.1478 5.4665
108 Al 6.61424 9.84888 5.61374
109 Ni 6.90989 12.4505 1.83428
110 Ni 5.00499 9.08862 1.77975
111 Ni 7.36424 7.5525 5.50177
112 Ni 9.32304 10.7389 5.49492
113 Al 9.17228 6.78746 9.22912
114 Al 6.5798 7.75334 10.6429
115 Al 6.56169 7.71186 7.84306
116 Al 9.00519 8.70703 11.554
117 Al 5.35467 11.1302 10.7833
118 Al 7.76288 12.0485 14.3013
119 Al 5.29586 11.2197 7.84142
120 Al 7.77333 11.9953 11.5193
121 Al 8.88563 8.85841 14.4034
122 Al 7.54742 9.98045 9.14714
123 Al 5.28646 13.2551 13.0897
124 Al 6.70433 9.82705 12.868
125 Ni 6.87121 12.2399 9.14727
126 Ni 5.03253 9.02079 9.27932
127 Ni 7.38917 7.55638 13.0296
128 Ni 9.28101 10.7147 12.9025
ITEM: TIMESTEP
2600
ITEM: NUMBER OF ATOMS
128
ITEM: BOX BOUNDS xy xz yz pp pp pp
-1.2230460723200585e-01 9.6831888884857626e+00 -4.2116660207431461e-02
-5.3293097439250481e-02 1.3260424803209995e+01 -2.8004880795091738e-02
-2.7838783021156388e-02 1.4881316542832732e+01 7.2634924782975932e-03
ITEM: ATOMS id element xu yu zu
1 Al 4.43568 -0.0394828 1.74324
2 Al 1.93927 1.11867 3.09778
3 Al 1.7148 1.09988 0.230897
4 Al 4.22964 2.17967 4.07026
5 Al 0.643116 4.35471 3.30918
6 Al 3.01526 5.4191 7.10178
7 Al 0.593199 4.35418 0.386474
8 Al 3.06795 5.37708 4.10711
9 Al 3.99373 2.25608 7.08428
10 Al 2.64814 3.25034 1.7981
11 Al 0.339864 6.57309 5.57289
12 Al 1.90725 3.24511 5.57894
13 Ni 2.0005 5.72824 1.87738
14 Ni 0.339991 2.33432 1.76661
15 Ni 2.7824 0.786451 5.4875
16 Ni 4.55421 4.21884 5.50319
17 Al 4.44462 0.0237697 9.1957
18 Al 1.74653 1.01997 10.6864
19 Al 1.79449 1.02845 7.79342
20 Al 4.14017 2.18823 11.6447
21 Al 0.501862 4.40352 10.7679
22 Al 2.81638 5.52986 14.4775
23 Al 0.628594 4.15303 7.80815
24 Al 2.99903 5.56514 11.5443
25 Al 4.13161 2.28496 14.4023
26 Al 2.68094 3.29423 9.34421
27 Al 0.359609 6.64484 12.9904
28 Al 2.09904 3.34731 13.0399
29 Ni 2.05389 5.67828 9.32065
30 Ni 0.112304 2.35758 9.21926
31 Ni 2.72932 0.77464 12.9115
32 Ni 4.55317 4.18319 12.9626
33 Al 4.3286 6.6531 1.85917
34 Al 1.68448 7.63525 3.3382
35 Al 1.68425 7.9668 0.331013
36 Al 4.0546 8.79 4.14449
37 Al 0.477775 11.2111 3.28739
38 Al 3.0462 12.1545 6.94775
39 Al 0.685968 10.93 0.408974
40 Al 3.07181 12.1627 3.97247
41 Al 3.99254 8.85285 7.07817
42 Al 2.80078 9.93328 1.87921
43 Al 0.336394 13.1495 5.42854
44 Al 1.87544 9.81006 5.42344
45 Ni 2.13136 12.45 1.7364
46 Ni 0.19439 9.02568 1.79432
47 Ni 2.63402 7.37814 5.63646
48 Ni 4.40826 10.8354 5.46634
49 Al 4.19866 6.71528 9.29979
50 Al 1.4926 7.8595 10.8207
51 Al 1.67984 7.72876 7.86685
52 Al 4.03114 8.78608 11.5046
53 Al 0.459769 10.9285 10.7653
54 Al 2.92509 12.1361 14.3847
55 Al 0.478479 10.9486 7.87507
56 Al 2.98703 12.1027 11.4378
57 Al 4.19775 8.79475 14.4554
58 Al 2.82703 10.0278 9.31035
59 Al 0.460155 13.19 13.0198
60 Al 1.9826 9.90276 13.007
61 Ni 2.00993 12.3446 9.1897
62 Ni -0.0266341 8.96044 9.22693
63 Ni 2.60832 7.52271 13.0751
64 Ni 4.44972 10.8506 12.9598
65 Al 9.24945 0.0510148 1.93875
66 Al 6.62983 1.12183 3.15609
67 Al 6.56567 1.11756 0.235027
68 Al 9.16151 2.10109 4.06301
69 Al 5.59762 4.35355 3.23987
70 Al 7.95472 5.39321 7.07481
71 Al 5.6126 4.55905 0.33269
72 Al 7.83975 5.52756 4.16772
73 Al 8.8794 1.93689 7.03403
74 Al 7.85988 3.46678 1.86168
75 Al 5.08116 6.63028 5.66579
76 Al 6.8809 3.33942 5.58503
77 Ni 6.92625 5.79905 1.90916
78 Ni 5.0554 2.48935 1.71524
79 Ni 7.45735 0.894611 5.58769
80 Ni 9.36813 4.04311 5.60134
81 Al 9.35651 -0.0310591 9.24965
82 Al 6.51299 1.18701 10.857
83 Al 6.41277 1.15388 7.81047
84 Al 9.06005 2.08081 11.5969
85 Al 5.4236 4.35724 10.6992
86 Al 8.00038 5.48737 14.4786
87 Al 5.54721 4.3957 7.78928
88 Al 7.82347 5.50527 11.5111
89 Al 8.99073 2.22363 14.3674
90 Al 7.59311 3.24585 9.33881
91 Al 5.14968 6.59142 13.0614
92 Al 6.78774 3.16619 12.9866
93 Ni 7.01109 5.71154 9.29957
94 Ni 5.06916 2.48638 9.27628
95 Ni 7.42687 0.765799 12.9924
96 Ni 9.41357 4.23988 12.9606
97 Al 9.30675 6.58378 1.88323
98 Al 6.48781 7.72783 3.45965
99 Al 6.54037 7.67162 0.383153
100 Al 8.99994 8.83768 4.00825
101 Al 5.40859 10.9948 3.26477
102 Al 7.9565 12.3209 6.99846
103 Al 5.27207 11.1065 0.340011
104 Al 7.77927 12.2547 4.12343
105 Al 9.08309 8.66781 6.96056
106 Al 7.71198 10.0279 1.77543
107 Al 5.13997 13.1902 5.47471
108 Al 6.85417 9.93722 5.52459
109 Ni 7.02099 12.4081 1.79062
110 Ni 5.03097 9.16507 1.80024
111 Ni 7.51054 7.56602 5.56041
112 Ni 9.40076 10.8082 5.51506
113 Al 9.27449 6.55121 9.28503
114 Al 6.43688 7.72656 10.7704
115 Al 6.52513 7.67374 7.84271
116 Al 8.82094 8.84675 11.6344
117 Al 5.39776 11.1052 10.6879
118 Al 8.04764 12.2747 14.4743
119 Al 5.53674 11.2584 7.66018
120 Al 7.91294 12.1786 11.5338
121 Al 8.83518 8.79869 14.4852
122 Al 7.68204 10.0992 9.40062
123 Al 5.15077 13.2794 12.9409
124 Al 6.71669 10.0563 12.9972
125 Ni 6.95156 12.4932 9.14049
126 Ni 5.10293 9.10589 9.26918
127 Ni 7.48599 7.42206 13.017
128 Ni 9.33722 10.8066 13.0097
ITEM: TIMESTEP
2700
ITEM: NUMBER OF ATOMS
128
ITEM: BOX BOUNDS xy xz yz pp pp pp
-4.2620205132956335e-02 9.7017259855456981e+00 3.4127746039078088e-02
-4.5403730193099873e-02 1.3180751843834352e+01 -6.0277878826058857e-03
2.1904977029072015e-02 1.4831572782782501e+01 -6.4520099651192792e-02
ITEM: ATOMS id element xu yu zu
1 Al 4.30127 0.136156 1.93385
2 Al 1.57135 1.23186 3.34465
3 Al 1.76721 1.21205 0.521312
4 Al 4.07554 2.236 4.0354
5 Al 0.70528 4.43732 3.21026
6 Al 2.9732 5.54618 6.8795
7 Al 0.68722 4.45485 0.469055
8 Al 3.08168 5.61834 4.1365
9 Al 4.19057 1.97818 7.04565
10 Al 2.99172 3.4578 1.75105
11 Al 0.409432 6.53121 5.4156
12 Al 1.9071 3.25736 5.50157
13 Ni 2.17228 5.7103 1.85123
14 Ni 0.111156 2.51516 1.88187
15 Ni 2.73924 0.860001 5.61964
16 Ni 4.48538 4.18174 5.51269
17 Al 4.40062 0.0296873 9.38838
18 Al 1.73618 1.08685 10.7336
19 Al 1.7102 1.08361 7.82934
20 Al 4.10196 2.19309 11.4518
21 Al 0.675597 4.35542 10.7292
22 Al 3.14523 5.59115 14.3702
23 Al 0.580413 4.44862 7.80054
24 Al 3.02218 5.44632 11.4219
25 Al 4.18332 2.15287 14.3332
26 Al 2.70049 3.3245 9.00544
27 Al 0.355033 6.51456 12.7701
28 Al 1.94181 3.22833 13.1014
29 Ni 2.13349 5.75383 9.1998
30 Ni 0.284157 2.4323 9.28495
31 Ni 2.59792 0.80334 12.9591
32 Ni 4.54914 4.16358 12.9442
33 Al 4.41957 6.75848 1.85511
34 Al 1.88182 7.80794 3.17906
35 Al 1.66686 7.63203 0.287684
36 Al 4.22334 8.79975 4.14606
37 Al 0.754197 10.9965 3.44858
38 Al 3.09393 12.0739 7.01817
39 Al 0.583012 11.083 0.399341
40 Al 3.05379 11.9666 4.14092
41 Al 4.15014 8.52442 6.9618
42 Al 2.93991 9.95725 1.78674
43 Al 0.409003 13.0283 5.48346
44 Al 2.07484 9.78921 5.68449
45 Ni 2.17413 12.3202 1.90701
46 Ni 0.244321 8.98952 1.86675
47 Ni 2.7018 7.48303 5.51139
48 Ni 4.69562 10.7406 5.59242
49 Al 4.41085 6.58719 9.22006
50 Al 1.85371 7.71516 10.5998
51 Al 1.56098 7.71375 7.69445
52 Al 4.24347 8.69225 11.5682
53 Al 0.657615 11.0496 10.7646
54 Al 3.12422 11.9517 14.5056
55 Al 0.628302 11.1676 7.75795
56 Al 3.06232 12.0423 11.6672
57 Al 3.99248 8.68296 14.4941
58 Al 2.80191 9.9169 9.08001
59 Al 0.320553 13.2 12.872
60 Al 2.02083 9.76186 13.0595
61 Ni 2.14582 12.2736 9.29185
62 Ni 0.364924 9.10165 9.21446
63 Ni 2.64404 7.40229 12.8199
64 Ni 4.66823 10.738 13.077
65 Al 9.325 -0.0233372 1.7659
66 Al 6.49475 1.00055 3.29925
67 Al 6.50743 1.21091 0.366289
68 Al 8.97979 2.14612 4.03568
69 Al 5.50542 4.53396 3.38363
70 Al 7.91877 5.37212 7.04652
71 Al 5.54457 4.47305 0.480677
72 Al 7.94492 5.34696 4.01909
73 Al 9.02235 2.12644 6.81897
74 Al 7.58154 3.30679 1.69229
75 Al 5.31951 6.39368 5.43207
76 Al 6.81099 3.32365 5.50352
77 Ni 7.11448 5.61656 1.78091
78 Ni 5.12328 2.48093 1.87768
79 Ni 7.37332 0.829597 5.59015
80 Ni 9.43815 4.10085 5.48932
81 Al 9.2521 0.0129201 9.27589
82 Al 6.65656 1.11538 10.6481
83 Al 6.6599 1.12872 7.79535
84 Al 8.88306 2.25562 11.5228
85 Al 5.41707 4.45454 10.775
86 Al 8.03559 5.63539 14.4069
87 Al 5.38389 4.41978 7.77742
88 Al 7.91922 5.35941 11.4354
89 Al 9.1362 2.14194 14.394
90 Al 7.73011 3.35018 9.19534
91 Al 5.22871 6.64833 12.8739
92 Al 6.77924 3.25428 13.0974
93 Ni 7.02295 5.73431 9.23722
94 Ni 5.07129 2.38159 9.25304
95 Ni 7.51391 0.867322 12.962
96 Ni 9.38769 4.0314 13.0118
97 Al 9.3022 6.69326 1.98368
98 Al 6.74727 7.65521 3.38786
99 Al 6.58731 7.81628 0.304131
100 Al 9.11411 8.69513 4.11555
101 Al 5.40925 11.1195 3.35776
102 Al 7.81145 11.9685 7.07669
103 Al 5.48061 10.947 0.427641
104 Al 7.97834 12.0522 4.03127
105 Al 9.00917 8.90994 7.04441
106 Al 7.73801 9.97047 1.92281
107 Al 5.10252 13.0824 5.57008
108 Al 6.97904 9.76883 5.42982
109 Ni 6.95761 12.3323 1.9157
110 Ni 5.13803 9.0083 1.86784
111 Ni 7.58799 7.30471 5.57992
112 Ni 9.37256 10.7708 5.59056
113 Al 9.27397 6.64992 9.46212
114 Al 6.62497 7.68017 10.7177
115 Al 6.57061 7.71801 7.71666
116 Al 9.11311 8.82646 11.5527
117 Al 5.55487 10.9178 10.8072
118 Al 7.90621 11.9926 14.3638
119 Al 5.46296 10.9216 7.89542
120 Al 7.91014 11.9966 11.5989
121 Al 9.16612 8.62079 14.385
122 Al 7.74118 9.72697 9.29911
123 Al 5.34874 13.1548 12.8463
124 Al 6.92489 9.73413 13.0161
125 Ni 6.92263 12.2251 9.35611
126 Ni 5.05689 9.00094 9.26885
127 Ni 7.59145 7.44588 12.9803
128 Ni 9.36506 10.7328 12.9488
ITEM: TIMESTEP
2800
ITEM: NUMBER OF ATOMS
128
ITEM: BOX BOUNDS xy xz yz pp pp pp
-3.8363197556879669e-02 9.7788133704263522e+00 4.1071452551880307e-02
-6.8922785617250293e-02 1.3231521912654811e+01 6.8372898061340018e-02
-5.5676744630969388e-02 1.4909154504442546e+01 -3.7269086254879229e-02
ITEM: ATOMS id element xu yu zu
1 Al 4.42133 -0.134014 1.89201
2 Al 1.67152 1.07387 3.34846
3 Al 1.56295 0.994458 0.308734
4 Al 4.17081 2.02782 4.13132
5 Al 0.622929 4.4183 3.25892
6 Al 3.21057 5.48005 7.01734
7 Al 0.648319 4.32986 0.308604
8 Al 3.09981 5.46055 4.06324
9 Al 4.21557 2.00052 7.02077
10 Al 2.80318 3.23318 1.88807
11 Al 0.464834 6.48948 5.55603
12 Al 1.91698 3.2873 5.61846
13 Ni 2.09051 5.79069 1.74231
14 Ni 0.365808 2.43859 1.81968
15 Ni 2.5446 0.882989 5.58829
16 Ni 4.66084 4.15561 5.55063
17 Al 4.42892 0.0341187 9.28987
18 Al 1.81988 1.11415 10.7816
19 Al 1.68756 1.15806 7.83308
20 Al 4.24067 2.04542 11.551
21 Al 0.599132 4.50549 10.6192
22 Al 3.10769 5.37619 14.3954
23 Al 0.758937 4.58628 7.79228
24 Al 3.22156 5.54681 11.5788
25 Al 4.21959 2.09995 14.6007
26 Al 2.94068 3.34353 9.49405
27 Al 0.418683 6.61346 13.1341
28 Al 1.83593 3.14278 12.8335
29 Ni 2.17958 5.72659 9.33317
30 Ni 0.30524 2.49446 9.3089
31 Ni 2.77728 0.879093 13.0808
32 Ni 4.64306 4.01488 13.001
33 Al 4.43285 6.64852 1.66944
34 Al 1.66823 7.74732 3.25421
35 Al 1.95092 7.90753 0.297419
36 Al 4.13156 8.68935 3.99166
37 Al 0.5772 11.1625 3.25192
38 Al 3.11955 12.1598 7.0664
39 Al 0.715239 11.1897 0.294968
40 Al 3.1003 11.9948 4.00834
41 Al 4.23573 8.7693 6.83759
42 Al 2.97729 9.97217 1.82948
43 Al 0.471444 13.117 5.58731
44 Al 2.07101 9.90612 5.51768
45 Ni 2.12117 12.3704 1.82739
46 Ni 0.313748 9.06814 1.76184
47 Ni 2.68062 7.49864 5.50972
48 Ni 4.50885 10.7661 5.56065
49 Al 4.55832 6.46139 9.34904
50 Al 1.84688 7.55759 10.7552
51 Al 1.96555 7.7982 7.88648
52 Al 4.22786 8.71252 11.52
53 Al 0.665551 11.1094 10.6899
54 Al 3.19868 12.0402 14.5454
55 Al 0.743181 11.142 7.79813
56 Al 3.14866 12.1562 11.5529
57 Al 4.48496 8.71703 14.3954
58 Al 2.86877 9.95203 9.29805
59 Al 0.491415 13.1293 13.0513
60 Al 2.07852 9.82606 13.0246
61 Ni 2.25281 12.4839 9.28933
62 Ni 0.375985 9.0533 9.24339
63 Ni 2.86808 7.48347 13.1239
64 Ni 4.50439 10.7016 12.932
65 Al 9.26713 0.0406314 1.95352
66 Al 6.73299 1.18066 3.24768
67 Al 6.57961 1.10058 0.365317
68 Al 9.14964 2.19004 4.17257
69 Al 5.41562 4.34013 3.38217
70 Al 7.89979 5.57845 6.81925
71 Al 5.50152 4.2417 0.376016
72 Al 7.86265 5.45644 4.0079
73 Al 8.88282 2.33398 6.9665
74 Al 7.66156 3.38818 1.82334
75 Al 5.29823 6.59178 5.55722
76 Al 6.69461 3.1459 5.70849
77 Ni 6.87969 5.75322 1.78993
78 Ni 5.06157 2.35644 1.7674
79 Ni 7.68631 0.851357 5.56404
80 Ni 9.45699 4.1435 5.59571
81 Al 9.15893 0.0755758 9.3227
82 Al 6.59777 1.04756 10.7731
83 Al 6.53014 0.967671 7.66431
84 Al 9.08389 2.12928 11.6245
85 Al 5.53296 4.35206 10.8884
86 Al 7.86061 5.29862 14.4726
87 Al 5.59224 4.52369 7.79248
88 Al 7.99078 5.55438 11.4632
89 Al 9.00228 2.19994 14.5703
90 Al 7.73691 3.32929 9.24236
91 Al 5.4228 6.4247 13.0231
92 Al 6.92892 3.21268 12.8588
93 Ni 7.05976 5.69604 9.26108
94 Ni 5.11309 2.34625 9.25389
95 Ni 7.61661 0.796656 13.0055
96 Ni 9.5097 4.17604 12.901
97 Al 9.39061 6.65694 1.62752
98 Al 6.63692 7.8454 3.34531
99 Al 6.73305 7.73807 0.229555
100 Al 8.97759 8.78458 3.98411
101 Al 5.57833 11.0051 3.37472
102 Al 8.02417 12.0549 6.96482
103 Al 5.51542 11.1555 0.180308
104 Al 7.94802 12.0515 4.02911
105 Al 9.12097 8.8517 7.02646
106 Al 7.5612 9.86246 1.74685
107 Al 5.3562 13.0869 5.54528
108 Al 6.80537 9.7953 5.66751
109 Ni 7.05997 12.374 1.87194
110 Ni 5.10294 9.03899 1.72863
111 Ni 7.57546 7.49154 5.41715
112 Ni 9.46582 10.7487 5.51973
113 Al 9.26547 6.71003 9.03729
114 Al 6.661 7.78445 10.7236
115 Al 6.69367 7.87257 7.87576
116 Al 9.16414 8.76306 11.4749
117 Al 5.63139 11.056 10.7098
118 Al 8.05666 11.8831 14.4755
119 Al 5.68955 10.8711 7.84022
120 Al 8.01345 12.1211 11.5678
121 Al 9.11008 8.88606 14.517
122 Al 7.92737 10 9.18674
123 Al 5.27157 13.2053 13.1577
124 Al 6.88646 9.82683 12.8641
125 Ni 6.99015 12.4168 9.23554
126 Ni 5.11262 8.92362 9.29224
127 Ni 7.55566 7.44343 12.9965
128 Ni 9.47484 10.7284 12.9822
ITEM: TIMESTEP
2900
ITEM: NUMBER OF ATOMS
128
ITEM: BOX BOUNDS xy xz yz pp pp pp
-5.4408311092624118e-02 9.6222124265887956e+00 -4.0235168071389125e-02
-3.2326007072675189e-02 1.3276378147418274e+01 -2.2966538688696279e-02
-1.8049150732407426e-02 1.4871526910543977e+01 4.4183927053157886e-02
ITEM: ATOMS id element xu yu zu
1 Al 4.393 -0.0633476 1.66522
2 Al 1.91463 1.16158 3.16875
3 Al 1.82119 1.19687 0.354473
4 Al 4.23148 2.27266 4.23485
5 Al 0.542007 4.52249 3.30905
6 Al 3.09368 5.36288 7.02829
7 Al 0.602829 4.41499 0.405462
8 Al 3.12933 5.43683 4.01586
9 Al 4.17468 2.29354 7.04205
10 Al 2.76206 3.35701 1.87458
11 Al 0.338954 6.59005 5.58924
12 Al 1.8853 3.30633 5.40488
13 Ni 2.16208 5.71723 1.89311
14 Ni 0.323036 2.41745 1.73475
15 Ni 2.77437 0.906837 5.43702
16 Ni 4.48706 4.16484 5.52771
17 Al 4.43282 0.110353 9.23176
18 Al 1.80358 1.10074 10.6593
19 Al 1.90161 1.06292 7.81355
20 Al 4.1932 2.13057 11.554
21 Al 0.646292 4.41214 10.8324
22 Al 3.12831 5.50852 14.4844
23 Al 0.701073 4.43218 7.86226
24 Al 3.10178 5.46584 11.4564
25 Al 4.25951 2.18307 14.5591
26 Al 2.84913 3.25535 9.28197
27 Al 0.491732 6.34139 12.9923
28 Al 2.0523 3.33476 13.0696
29 Ni 2.16264 5.76931 9.25297
30 Ni 0.203373 2.44796 9.27096
31 Ni 2.60519 0.784958 12.858
32 Ni 4.52185 4.25294 12.9919
33 Al 4.38558 6.62837 1.97122
34 Al 1.68381 7.69258 3.31198
35 Al 1.61829 7.62221 0.320768
36 Al 4.16265 8.76586 4.13582
37 Al 0.647128 11.1703 3.24488
38 Al 2.90271 12.0515 6.95893
39 Al 0.645247 11.0784 0.352676
40 Al 3.05674 12.2309 4.07376
41 Al 4.03027 8.96647 6.9827
42 Al 2.77781 9.77061 1.74032
43 Al 0.401779 13.3751 5.47197
44 Al 1.99641 9.87858 5.5468
45 Ni 2.14503 12.3944 1.72832
46 Ni 0.215145 8.97625 1.80132
47 Ni 2.71232 7.46734 5.58434
48 Ni 4.55491 10.7437 5.46669
49 Al 4.28335 6.89582 9.21225
50 Al 1.81811 7.77622 10.7122
51 Al 1.70464 7.63435 7.86691
52 Al 4.15878 8.82574 11.5671
53 Al 0.599898 10.9679 10.7358
54 Al 2.93134 12.1818 14.3013
55 Al 0.553427 10.911 7.79744
56 Al 3.03911 12.0636 11.3337
57 Al 3.96051 8.82664 14.419
58 Al 2.75897 9.91827 9.36027
59 Al 0.334585 13.2505 13.0101
60 Al 1.9741 9.94049 12.8141
61 Ni 2.02914 12.3484 9.17715
62 Ni 0.139256 9.08986 9.31461
63 Ni 2.59324 7.3813 13.0128
64 Ni 4.62715 10.8312 13.0106
65 Al 9.1598 0.0431472 1.77272
66 Al 6.59684 1.08509 3.28693
67 Al 6.58154 1.24396 0.446486
68 Al 9.0286 2.1284 4.08211
69 Al 5.45586 4.36963 3.32886
70 Al 7.95759 5.30155 7.11284
71 Al 5.5554 4.38953 0.33744
72 Al 7.76897 5.6967 4.1609
73 Al 9.02452 2.06458 6.88151
74 Al 7.59475 3.32342 1.8415
75 Al 5.16983 6.64453 5.58179
76 Al 6.91555 3.45066 5.38131
77 Ni 6.96952 5.69162 1.81549
78 Ni 5.01412 2.46399 1.85214
79 Ni 7.48245 0.920759 5.59359
80 Ni 9.36223 4.23862 5.59684
81 Al 9.26703 -0.123884 9.17831
82 Al 6.56043 1.10713 10.8094
83 Al 6.57385 1.27687 7.8702
84 Al 8.95009 2.24359 11.6281
85 Al 5.3215 4.64596 10.8055
86 Al 7.76918 5.55746 14.4722
87 Al 5.65419 4.56497 7.70964
88 Al 7.72107 5.52172 11.6472
89 Al 9.0043 2.1464 14.4677
90 Al 7.64195 3.51413 9.41013
91 Al 5.14699 6.66533 12.9566
92 Al 6.78706 3.29884 13.0389
93 Ni 6.84894 5.83039 9.28592
94 Ni 5.09216 2.46195 9.35225
95 Ni 7.49223 0.897548 12.9829
96 Ni 9.25298 4.1553 13.0243
97 Al 9.12956 6.76838 1.87426
98 Al 6.51992 7.7937 3.2269
99 Al 6.355 7.75656 0.29277
100 Al 8.89698 8.75131 4.0709
101 Al 5.38123 11.0444 3.19363
102 Al 7.80159 12.1032 6.88657
103 Al 5.39406 11.04 0.375646
104 Al 7.85116 12.1273 3.92209
105 Al 8.83892 8.7415 7.17887
106 Al 7.72312 10.1142 1.82254
107 Al 5.20307 13.3244 5.67515
108 Al 6.75732 9.91638 5.5307
109 Ni 6.83342 12.3761 1.73524
110 Ni 4.96496 8.99028 1.85138
111 Ni 7.45348 7.56523 5.55288
112 Ni 9.37075 10.8828 5.56833
113 Al 9.2335 6.54073 9.4611
114 Al 6.48198 7.83353 10.6968
115 Al 6.48834 7.73071 7.87886
116 Al 8.8013 8.88525 11.496
117 Al 5.38911 11.1684 10.6139
118 Al 7.84947 12.2289 14.4389
119 Al 5.39933 11.2309 7.72027
120 Al 7.7788 12.0736 11.4913
121 Al 8.84292 8.81302 14.4735
122 Al 7.54505 9.98328 9.30781
123 Al 5.15261 13.1315 12.8474
124 Al 6.81401 10.0219 13.2105
125 Ni 6.96468 12.3744 9.27197
126 Ni 5.14291 9.25694 9.23085
127 Ni 7.39422 7.50158 13.0387
128 Ni 9.3602 10.9389 13.0444
ITEM: TIMESTEP
3000
ITEM: NUMBER OF ATOMS
128
ITEM: BOX BOUNDS xy xz yz pp pp pp
-1.8004230336946092e-01 9.6555264165693906e+00 -6.4312290194467048e-02
-7.0796147405946641e-02 1.3298565736390179e+01 -9.1209418861853964e-02
-6.0076651110030355e-04 1.4854078526322667e+01 2.7901375691776930e-02
ITEM: ATOMS id element xu yu zu
1 Al 4.33798 0.0475278 1.80766
2 Al 1.69953 1.03272 3.38993
3 Al 1.76275 1.06178 0.452886
4 Al 3.99393 2.26041 4.06316
5 Al 0.972706 4.11936 3.43927
6 Al 2.82048 5.5934 7.02373
7 Al 0.597646 4.39027 0.327168
8 Al 2.98503 5.48861 4.12891
9 Al 4.19735 2.08366 6.9141
10 Al 2.85343 3.33906 1.59048
11 Al 0.278701 6.45983 5.30651
12 Al 2.10776 3.32145 5.68843
13 Ni 2.08787 5.77688 1.88419
14 Ni 0.289564 2.40423 1.89716
15 Ni 2.68876 0.679921 5.56496
16 Ni 4.55625 4.17309 5.6068
17 Al 4.37388 0.00327198 9.23868
18 Al 1.8019 1.02648 10.7208
19 Al 1.69132 1.00456 7.83698
20 Al 3.97513 2.29434 11.3291
21 Al 0.470151 4.33927 10.7496
22 Al 2.89952 5.53471 14.3379
23 Al 0.430421 4.45281 7.78549
24 Al 2.81628 5.27449 11.5906
25 Al 4.10309 2.33372 14.5043
26 Al 2.72974 3.33779 9.09263
27 Al 0.268721 6.66091 12.9281
28 Al 1.89266 3.14696 13.0861
29 Ni 1.93333 5.81256 9.33466
30 Ni 0.308744 2.38888 9.20679
31 Ni 2.74198 0.877285 13.0051
32 Ni 4.40947 4.2594 12.9669
33 Al 4.33957 6.77176 1.82844
34 Al 1.82572 7.78724 3.18563
35 Al 1.63459 7.77246 0.436613
36 Al 4.21605 8.90719 4.12717
37 Al 0.449436 11.1556 3.24444
38 Al 2.94757 12.1685 7.08071
39 Al 0.456231 11.1069 0.313724
40 Al 2.95556 12.1415 4.12894
41 Al 4.03987 8.79862 6.98028
42 Al 2.82857 10.1085 1.90436
43 Al 0.389743 13.1978 5.54768
44 Al 1.88883 9.89343 5.4848
45 Ni 2.08339 12.4232 1.84345
46 Ni 0.232832 9.16276 1.89607
47 Ni 2.62115 7.57047 5.5704
48 Ni 4.53224 10.864 5.61057
49 Al 4.31636 6.54621 9.44484
50 Al 1.66209 7.7668 10.6757
51 Al 1.65768 7.81525 7.87909
52 Al 3.84622 8.8744 11.4243
53 Al 0.497221 11.0497 10.6767
54 Al 2.85704 12.0925 14.5719
55 Al 0.481753 11.113 7.75655
56 Al 2.87452 12.128 11.6243
57 Al 4.01706 8.82313 14.4544
58 Al 2.71542 10.0975 9.17571
59 Al 0.30714 13.1046 13
60 Al 1.6651 9.93949 13.1588
61 Ni 2.02036 12.399 9.30928
62 Ni 0.147755 9.16444 9.19164
63 Ni 2.52379 7.64329 12.9376
64 Ni 4.34465 10.8738 13.0207
65 Al 9.19876 -0.0877171 1.71696
66 Al 6.55914 1.12854 3.25842
67 Al 6.54753 1.1439 0.352726
68 Al 8.85625 2.14283 4.14528
69 Al 5.37969 4.41593 3.32019
70 Al 7.84127 5.47865 7.08537
71 Al 5.52488 4.58553 0.33715
72 Al 7.7728 5.32857 4.1539
73 Al 8.89582 1.9645 6.9065
74 Al 7.62764 3.42812 1.71329
75 Al 5.18716 6.56249 5.50655
76 Al 6.7137 3.26607 5.81058
77 Ni 6.98406 5.85984 1.89696
78 Ni 5.24438 2.48436 1.73153
79 Ni 7.42836 0.753052 5.49244
80 Ni 9.35273 4.09782 5.50383
81 Al 9.18209 0.0174364 9.23353
82 Al 6.38994 1.11036 10.6966
83 Al 6.43137 1.11277 7.77329
84 Al 8.8834 2.03615 11.4319
85 Al 5.49543 4.51246 10.8475
86 Al 7.78112 5.57159 14.4601
87 Al 5.31841 4.51251 7.93174
88 Al 7.80758 5.40137 11.5761
89 Al 8.99443 2.08988 14.4387
90 Al 7.57407 3.2486 9.0067
91 Al 5.06419 6.63863 13.0384
92 Al 6.71909 3.29369 13.0475
93 Ni 6.91074 5.7284 9.2592
94 Ni 5.02135 2.36708 9.1151
95 Ni 7.40818 0.834749 12.9316
96 Ni 9.2868 4.13025 12.9536
97 Al 9.32166 6.62149 1.95893
98 Al 6.51976 7.6581 3.27454
99 Al 6.60256 7.79243 0.485748
100 Al 8.90421 8.64359 4.01539
101 Al 5.52869 11.1104 3.25826
102 Al 7.87998 12.1994 7.04917
103 Al 5.48861 11.1428 0.442404
104 Al 7.80248 12.2929 4.13734
105 Al 8.9898 8.78626 6.8755
106 Al 7.71145 9.9834 1.77601
107 Al 5.20207 13.3299 5.39945
108 Al 6.7986 10.0558 5.46733
109 Ni 6.97506 12.4093 1.9234
110 Ni 5.04298 9.15879 1.83899
111 Ni 7.43132 7.46549 5.5496
112 Ni 9.20706 10.7836 5.52133
113 Al 9.20088 6.64884 9.29811
114 Al 6.54415 7.72385 10.683
115 Al 6.514 7.87376 7.89712
116 Al 8.90022 8.84488 11.367
117 Al 5.33587 11.1725 10.6874
118 Al 7.64776 12.1747 14.4047
119 Al 5.24334 11.0882 7.91496
120 Al 7.75104 12.2763 11.4203
121 Al 8.81918 8.71425 14.4853
122 Al 7.59397 9.96079 9.31993
123 Al 5.00865 13.2309 12.9687
124 Al 6.56102 9.8859 12.7537
125 Ni 6.84951 12.3729 9.23761
126 Ni 4.92723 9.00853 9.35167
127 Ni 7.40778 7.46803 12.9743
128 Ni 9.12464 10.6983 12.947
ITEM: TIMESTEP
3100
ITEM: NUMBER OF ATOMS
128
ITEM: BOX BOUNDS xy xz yz pp pp pp
-7.0823271395620419e-02 9.7445140567410480e+00 -3.1251100279275600e-02
-1.6347085287006458e-02 1.3261143281800482e+01 7.3936063368449864e-02
-1.5239293154374778e-02 1.4868717052965938e+01 4.4927983221020137e-02
ITEM: ATOMS id element xu yu zu
1 Al 4.38418 0.0456923 1.96941
2 Al 1.81522 1.21139 3.29422
3 Al 1.81518 1.19184 0.405687
4 Al 4.2041 2.17887 4.12467
5 Al 0.478856 4.64686 3.22532
6 Al 3.02802 5.48248 6.96474
7 Al 0.688721 4.36927 0.282566
8 Al 2.8804 5.54182 4.02753
9 Al 4.28306 2.17715 7.04054
10 Al 2.72835 3.43838 1.97182
11 Al 0.464613 6.58206 5.7217
12 Al 2.07545 3.20049 5.51914
13 Ni 2.03026 5.80649 1.83638
14 Ni 0.25814 2.4572 1.73239
15 Ni 2.60023 0.939977 5.52517
16 Ni 4.46541 4.17277 5.47993
17 Al 4.437 0.0864645 9.35549
18 Al 1.75639 1.22377 10.671
19 Al 1.71465 1.1911 7.87214
20 Al 4.20521 2.1308 11.5205
21 Al 0.728658 4.52101 10.7119
22 Al 3.10064 5.37318 14.4609
23 Al 0.539093 4.56872 7.82011
24 Al 3.18155 5.67027 11.5736
25 Al 4.29029 2.16316 14.402
26 Al 2.87735 3.46905 9.45175
27 Al 0.476915 6.61321 13.1381
28 Al 2.14191 3.40391 12.9081
29 Ni 2.16159 5.8002 9.17475
30 Ni 0.107687 2.38502 9.33159
31 Ni 2.64367 0.967964 12.9458
32 Ni 4.63647 4.18833 12.9592
33 Al 4.46673 6.74217 1.75795
34 Al 1.64255 7.79039 3.23907
35 Al 1.78419 7.73317 0.438152
36 Al 4.10276 8.77454 3.93932
37 Al 0.703677 10.857 3.30489
38 Al 3.18186 12.174 7.01627
39 Al 0.642974 11.0669 0.3268
40 Al 2.98286 12.125 4.13182
41 Al 4.19799 8.67939 6.96088
42 Al 2.82443 10.0607 1.77839
43 Al 0.365557 13.223 5.51399
44 Al 2.03015 9.80722 5.75981
45 Ni 2.03603 12.4509 1.80146
46 Ni 0.183217 9.03461 1.74642
47 Ni 2.68015 7.47436 5.5586
48 Ni 4.53417 10.735 5.51165
49 Al 4.34711 6.70129 9.12379
50 Al 1.75395 7.77475 10.8675
51 Al 1.70053 7.80929 7.84098
52 Al 4.22772 8.64704 11.5072
53 Al 0.617762 11.1283 10.6586
54 Al 3.07626 12.1509 14.5409
55 Al 0.619529 11.1615 7.82303
56 Al 3.07943 12.2595 11.5933
57 Al 4.24922 8.81808 14.4847
58 Al 2.78413 9.96931 9.3744
59 Al 0.275083 13.2804 12.9483
60 Al 1.99259 9.91241 12.9043
61 Ni 2.11978 12.4029 9.24301
62 Ni 0.301354 9.00726 9.37708
63 Ni 2.79346 7.48999 13.0722
64 Ni 4.67213 10.889 12.9354
65 Al 9.28203 -0.152775 1.93774
66 Al 6.60715 1.11403 3.33322
67 Al 6.51321 1.14404 0.343601
68 Al 9.1686 2.14949 4.09566
69 Al 5.50745 4.62289 3.39717
70 Al 7.92902 5.51733 6.93714
71 Al 5.42964 4.37242 0.518298
72 Al 8.04016 5.55353 4.05702
73 Al 8.9047 2.2674 7.02506
74 Al 7.51902 3.26465 1.82249
75 Al 5.29854 6.50127 5.62987
76 Al 6.64468 3.22871 5.41257
77 Ni 7.05135 5.72037 1.70172
78 Ni 5.01682 2.3708 1.78768
79 Ni 7.6478 0.823938 5.53693
80 Ni 9.43444 4.1583 5.5295
81 Al 9.17512 0.063087 9.24549
82 Al 6.72295 1.19765 10.5812
83 Al 6.59744 1.2195 7.87136
84 Al 8.98781 2.30404 11.5962
85 Al 5.47687 4.41147 10.6532
86 Al 7.95651 5.47732 14.3858
87 Al 5.67594 4.3076 7.78625
88 Al 8.10412 5.64482 11.5064
89 Al 9.0711 2.26285 14.3993
90 Al 7.68624 3.37985 9.37822
91 Al 5.32403 6.44246 13.0118
92 Al 6.86504 3.40819 12.9447
93 Ni 7.07208 5.72704 9.26393
94 Ni 5.11793 2.45698 9.37689
95 Ni 7.57195 0.900621 12.9802
96 Ni 9.49333 4.23722 12.9611
97 Al 9.2979 6.69515 1.65109
98 Al 6.72285 7.65903 3.17181
99 Al 6.68248 7.63673 0.427232
100 Al 8.96307 8.95726 4.15786
101 Al 5.47237 11.0196 3.23609
102 Al 7.93175 12.0226 6.94201
103 Al 5.49051 11.1363 0.41644
104 Al 7.8011 11.9574 4.10605
105 Al 9.06344 8.82989 6.93767
106 Al 7.56181 9.85801 1.81102
107 Al 5.29468 13.2566 5.5526
108 Al 6.74373 9.68678 5.64599
109 Ni 6.89471 12.4131 1.76228
110 Ni 5.12533 9.07875 1.84543
111 Ni 7.60255 7.41243 5.45998
112 Ni 9.46777 10.7791 5.52577
113 Al 9.28552 6.84302 9.11115
114 Al 6.6164 7.7106 10.7067
115 Al 6.49508 7.63857 7.88292
116 Al 9.04074 8.8317 11.5466
117 Al 5.58863 11.0354 10.7054
118 Al 7.97114 12.1514 14.6023
119 Al 5.51567 11.0148 7.75139
120 Al 7.81371 12.1957 11.5718
121 Al 9.12629 8.94056 14.3956
122 Al 7.79201 9.84507 9.24058
123 Al 5.34227 13.1445 12.9455
124 Al 6.90779 9.93617 13.1349
125 Ni 6.89451 12.4396 9.32338
126 Ni 5.12217 9.14244 9.21052
127 Ni 7.56652 7.5482 13.0035
128 Ni 9.56631 10.8851 13.0101
ITEM: TIMESTEP
3200
ITEM: NUMBER OF ATOMS
128
ITEM: BOX BOUNDS xy xz yz pp pp pp
-4.4683189370578802e-02 9.8137500450082946e+00 3.2361425328800722e-02
2.1855552192855399e-02 1.3185651192741835e+01 1.0569960805267417e-01
-3.0709791329073255e-02 1.4884187551140634e+01 7.6385316422278434e-03
ITEM: ATOMS id element xu yu zu
1 Al 4.51661 0.0292952 1.70844
2 Al 1.73299 1.10946 3.26762
3 Al 1.62488 1.05604 0.363972
4 Al 4.17396 2.06165 4.15873
5 Al 0.697551 4.62831 3.2866
6 Al 3.23255 5.61174 6.96803
7 Al 0.640959 4.56222 0.363877
8 Al 3.13977 5.52293 3.97844
9 Al 4.19059 2.31317 7.00033
10 Al 2.81432 3.2926 1.73547
11 Al 0.344775 6.71521 5.45559
12 Al 1.9198 3.14366 5.37401
13 Ni 2.14962 5.72171 1.74542
14 Ni 0.221653 2.42901 1.85247
15 Ni 2.70097 0.914554 5.46019
16 Ni 4.66449 4.10515 5.51951
17 Al 4.46298 0.146143 9.20365
18 Al 1.82636 1.1843 10.7558
19 Al 1.71105 1.17198 7.81605
20 Al 4.20696 2.25452 11.5349
21 Al 0.739222 4.4557 10.6892
22 Al 3.13013 5.63435 14.4374
23 Al 0.876395 4.49236 7.61865
24 Al 3.16872 5.48182 11.5337
25 Al 4.12496 2.07603 14.5121
26 Al 2.94013 3.29326 9.29899
27 Al 0.45181 6.56717 12.8462
28 Al 1.98521 3.32697 12.9692
29 Ni 2.26152 5.64845 9.26581
30 Ni 0.296368 2.51822 9.22976
31 Ni 2.73297 0.88925 12.9291
32 Ni 4.56742 4.13321 13.0191
33 Al 4.48882 6.61408 1.78592
34 Al 1.75807 7.67058 3.26955
35 Al 1.7387 7.86273 0.292783
36 Al 4.15227 8.80263 4.08519
37 Al 0.689085 11.026 3.31292
38 Al 2.98529 12.0037 6.93765
39 Al 0.732973 10.9852 0.39538
40 Al 3.221 12.1551 3.90553
41 Al 4.20357 8.77258 7.01181
42 Al 2.80941 9.78968 1.87356
43 Al 0.416684 13.1872 5.52765
44 Al 2.1212 9.85786 5.3292
45 Ni 2.29658 12.1789 1.77029
46 Ni 0.303318 9.02784 1.83825
47 Ni 2.66513 7.42605 5.61449
48 Ni 4.45113 10.7952 5.60604
49 Al 4.47265 6.71979 9.28908
50 Al 1.8442 7.86525 10.7078
51 Al 1.75995 7.80539 7.82741
52 Al 4.32771 8.73047 11.5451
53 Al 0.931772 11.0321 10.779
54 Al 3.10693 12.1878 14.4781
55 Al 0.846482 11.0088 7.87686
56 Al 3.31652 12.1072 11.4935
57 Al 4.20717 8.67814 14.4742
58 Al 2.9994 9.90166 9.29469
59 Al 0.424401 13.1012 13.0104
60 Al 2.12413 9.94592 13.0118
61 Ni 2.23986 12.3722 9.2851
62 Ni 0.289131 9.09012 9.26452
63 Ni 2.78918 7.40754 12.7955
64 Ni 4.5787 10.762 12.9909
65 Al 9.09353 0.211313 1.82476
66 Al 6.4779 1.03949 3.4301
67 Al 6.61931 1.09456 0.472256
68 Al 9.08063 2.08639 4.05515
69 Al 5.45937 4.2372 3.23882
70 Al 8.01373 5.49179 7.11332
71 Al 5.58008 4.34924 0.26887
72 Al 7.90701 5.61127 4.05141
73 Al 9.11397 2.27027 6.92464
74 Al 7.70771 3.40086 1.91121
75 Al 5.22894 6.59873 5.62107
76 Al 6.81011 3.28706 5.43477
77 Ni 6.81941 5.70975 1.87278
78 Ni 5.11282 2.41221 1.84008
79 Ni 7.53322 0.902498 5.61462
80 Ni 9.38507 4.30482 5.5113
81 Al 9.43225 0.0878436 9.30734
82 Al 6.65364 1.05479 10.6473
83 Al 6.73125 1.11559 7.82534
84 Al 9.12794 2.17142 11.5583
85 Al 5.51933 4.36394 10.7179
86 Al 8.03302 5.54888 14.5265
87 Al 5.53078 4.52933 7.85986
88 Al 7.92279 5.49213 11.6027
89 Al 9.00859 2.35591 14.5131
90 Al 7.58498 3.2778 9.26159
91 Al 5.26927 6.58515 12.8721
92 Al 6.88747 3.21087 12.9108
93 Ni 6.9489 5.90244 9.20184
94 Ni 5.27031 2.50938 9.25334
95 Ni 7.74618 0.886214 13.0894
96 Ni 9.45212 4.19835 13.0702
97 Al 9.29307 6.67823 1.88909
98 Al 6.5499 7.81071 3.27538
99 Al 6.65973 7.6795 0.411845
100 Al 8.97335 8.85966 4.11101
101 Al 5.49151 10.9303 3.23292
102 Al 8.07386 11.9542 6.96162
103 Al 5.52424 11.0171 0.350043
104 Al 8.00802 12.0517 4.12304
105 Al 9.18448 8.80942 6.99626
106 Al 7.84906 10.026 1.81314
107 Al 5.19419 13.101 5.67006
108 Al 6.94004 9.91424 5.49704
109 Ni 7.01774 12.3049 1.82736
110 Ni 5.06426 8.97256 1.78999
111 Ni 7.50301 7.51928 5.56246
112 Ni 9.58125 10.7639 5.63486
113 Al 9.49002 6.67638 9.27946
114 Al 6.79422 7.82064 10.7773
115 Al 6.64666 7.78087 7.82978
116 Al 9.18648 8.83921 11.4854
117 Al 5.60774 11.1479 10.7937
118 Al 8.10449 12.1133 14.5179
119 Al 5.53474 10.995 7.78405
120 Al 8.07946 12.0452 11.4729
121 Al 9.13338 8.87197 14.4745
122 Al 7.74087 9.95714 9.27876
123 Al 5.38449 13.1627 13.1016
124 Al 6.98252 9.86699 13.0123
125 Ni 7.12877 12.3568 9.32727
126 Ni 5.27713 9.02048 9.28471
127 Ni 7.7204 7.50056 12.9616
128 Ni 9.61853 10.7937 13.0793
ITEM: TIMESTEP
3300
ITEM: NUMBER OF ATOMS
128
ITEM: BOX BOUNDS xy xz yz pp pp pp
-1.7224470662005203e-01 9.7148246890997889e+00 2.3343897327916082e-02
-8.0068957772578636e-02 1.3203272310683598e+01 -1.1176973710443211e-01
-3.5225728859751726e-02 1.4888703488671316e+01 -7.6664860381438410e-02
ITEM: ATOMS id element xu yu zu
1 Al 4.52504 -0.020792 1.85517
2 Al 1.62169 1.13212 3.41884
3 Al 1.83085 1.13636 0.413132
4 Al 3.98267 2.27634 4.13533
5 Al 0.58206 4.35601 3.21029
6 Al 3.01243 5.46103 7.10911
7 Al 0.549791 4.52192 0.286808
8 Al 2.91587 5.4908 4.0497
9 Al 4.13088 2.20192 6.89706
10 Al 2.83628 3.28526 1.73441
11 Al 0.381632 6.45841 5.47307
12 Al 1.9342 3.24979 5.75707
13 Ni 2.09882 5.62814 1.86694
14 Ni 0.158874 2.41713 1.85214
15 Ni 2.70357 0.887428 5.56666
16 Ni 4.53966 4.20824 5.61992
17 Al 4.41608 -0.113829 9.3766
18 Al 1.66292 1.01299 10.8189
19 Al 1.6446 1.16898 7.7579
20 Al 4.00001 2.10612 11.535
21 Al 0.642572 4.35762 10.6607
22 Al 2.90846 5.3989 14.4896
23 Al 0.358971 4.32662 7.95507
24 Al 2.93851 5.38508 11.6755
25 Al 4.09092 2.12139 14.3894
26 Al 2.76229 3.41905 9.16976
27 Al 0.165627 6.48015 12.9704
28 Al 1.75888 3.14649 13.0411
29 Ni 1.91711 5.81033 9.35828
30 Ni 0.272118 2.36646 9.27534
31 Ni 2.68123 0.789845 13.1336
32 Ni 4.50161 4.09299 12.9168
33 Al 4.34752 6.7877 1.82823
34 Al 1.74332 7.76124 3.17633
35 Al 1.61587 7.57062 0.461734
36 Al 4.18084 8.79165 4.14495
37 Al 0.570531 11.0434 3.26196
38 Al 3.10919 12.0436 7.04319
39 Al 0.624512 11.0168 0.275636
40 Al 2.91381 11.9264 4.19278
41 Al 4.13467 8.82971 6.95973
42 Al 2.80319 9.98629 1.69964
43 Al 0.466039 13.1497 5.58801
44 Al 1.89748 9.82225 5.73519
45 Ni 2.09662 12.4144 1.84115
46 Ni 0.283012 9.08151 1.79698
47 Ni 2.66905 7.43527 5.4546
48 Ni 4.70017 10.7134 5.57434
49 Al 4.29943 6.5936 9.38634
50 Al 1.61715 7.66777 10.8227
51 Al 1.58094 7.70425 7.67879
52 Al 3.93373 8.75386 11.5086
53 Al 0.503598 10.9604 10.6575
54 Al 2.94415 11.9649 14.5106
55 Al 0.569157 11.0281 7.83915
56 Al 2.96755 11.866 11.5781
57 Al 3.94835 8.70385 14.4142
58 Al 2.67691 9.87793 9.05796
59 Al 0.371044 12.9822 12.977
60 Al 1.75733 9.84081 13.0381
61 Ni 1.98782 12.3442 9.27851
62 Ni 0.245833 8.94408 9.25749
63 Ni 2.52794 7.40079 13.1041
64 Ni 4.60076 10.6843 12.9258
65 Al 9.26382 0.0747625 1.71086
66 Al 6.68604 1.22935 3.13223
67 Al 6.55896 1.04639 0.324464
68 Al 8.96779 2.12226 4.03377
69 Al 5.42875 4.43928 3.2223
70 Al 7.83124 5.58281 6.99167
71 Al 5.43884 4.63739 0.426342
72 Al 7.95673 5.35592 4.05711
73 Al 9.0233 1.96187 7.01674
74 Al 7.64813 3.42386 1.70549
75 Al 5.17323 6.55072 5.45459
76 Al 6.88574 3.3212 5.76285
77 Ni 6.98779 5.8406 1.77532
78 Ni 5.10053 2.50204 1.84274
79 Ni 7.49145 0.873231 5.48988
80 Ni 9.42445 4.06593 5.64764
81 Al 9.26402 0.0305181 9.27469
82 Al 6.46414 1.14562 10.6181
83 Al 6.55604 1.20636 7.83496
84 Al 8.91627 2.11034 11.4877
85 Al 5.37866 4.31006 10.728
86 Al 7.68282 5.43036 14.459
87 Al 5.46855 4.32927 7.9647
88 Al 7.77191 5.45731 11.6795
89 Al 8.99241 1.96654 14.4116
90 Al 7.73141 3.34199 9.226
91 Al 5.10467 6.44801 13.0968
92 Al 6.86583 3.2161 13.1879
93 Ni 6.9553 5.6246 9.23487
94 Ni 4.83665 2.41864 9.23218
95 Ni 7.44677 0.814866 12.9562
96 Ni 9.34857 4.05319 12.9369
97 Al 9.22604 6.65037 1.89455
98 Al 6.58741 7.73739 3.23219
99 Al 6.4711 7.82193 0.240878
100 Al 9.12708 8.70402 4.02264
101 Al 5.47065 10.9508 3.32212
102 Al 7.93006 12.2416 6.9203
103 Al 5.52868 10.9634 0.315042
104 Al 7.9524 12.1236 4.02049
105 Al 9.04628 8.82159 7.00384
106 Al 7.66226 9.966 1.75555
107 Al 5.28889 13.0907 5.2433
108 Al 7.03558 9.7925 5.52599
109 Ni 6.95754 12.3086 1.80724
110 Ni 5.07796 9.02627 1.83926
111 Ni 7.62721 7.50355 5.48705
112 Ni 9.30536 10.803 5.48583
113 Al 9.25673 6.72918 9.37058
114 Al 6.52302 7.70408 10.7523
115 Al 6.48529 7.65731 7.85953
116 Al 8.97507 8.61533 11.4718
117 Al 5.42716 11.0279 10.7689
118 Al 7.77171 12.0515 14.3348
119 Al 5.44852 11.1067 7.79571
120 Al 7.85806 12.0741 11.4869
121 Al 8.94805 8.65369 14.5218
122 Al 7.64704 9.96759 9.30002
123 Al 5.09995 13.0306 12.9491
124 Al 6.83251 9.62865 12.8127
125 Ni 6.95249 12.331 9.29024
126 Ni 4.94121 9.03584 9.2719
127 Ni 7.39254 7.35461 12.9421
128 Ni 9.32251 10.6406 12.923
ITEM: TIMESTEP
3400
ITEM: NUMBER OF ATOMS
128
ITEM: BOX BOUNDS xy xz yz pp pp pp
-9.8960287361987490e-02 9.6442914517935741e+00 -7.6032274298073231e-03
-3.7021261613839229e-02 1.3242849177996449e+01 -7.8071430394871896e-02
3.6239281195417306e-02 1.4817238478616160e+01 5.9597030901505825e-03
ITEM: ATOMS id element xu yu zu
1 Al 4.30397 0.282741 1.81513
2 Al 1.86575 1.17078 3.21222
3 Al 1.69662 1.04746 0.290369
4 Al 4.16669 2.29111 4.06797
5 Al 0.673024 4.37877 3.2536
6 Al 3.04038 5.36928 6.93794
7 Al 0.657327 4.27451 0.475867
8 Al 2.99609 5.54957 4.06724
9 Al 4.04628 2.21883 7.05252
10 Al 2.9145 3.46095 1.94915
11 Al 0.336984 6.639 5.60773
12 Al 2.06518 3.23463 5.51288
13 Ni 2.07321 5.91085 1.86479
14 Ni 0.293491 2.40888 1.8595
15 Ni 2.65723 0.809311 5.48607
16 Ni 4.50655 4.1574 5.57276
17 Al 4.37965 0.0075471 9.23893
18 Al 1.66532 1.02261 10.6379
19 Al 1.66582 1.10118 7.74532
20 Al 4.14356 2.17933 11.587
21 Al 0.701453 4.44473 10.7105
22 Al 2.90684 5.51744 14.4005
23 Al 0.684755 4.4728 7.70478
24 Al 3.11175 5.43727 11.4403
25 Al 3.98279 2.14084 14.3477
26 Al 2.76066 3.21528 9.43669
27 Al 0.364382 6.4972 12.9852
28 Al 1.95742 3.31893 12.996
29 Ni 2.09987 5.67729 9.22618
30 Ni 0.209084 2.44413 9.27331
31 Ni 2.6142 0.799438 12.8569
32 Ni 4.43882 4.30264 12.9786
33 Al 4.41776 6.58648 1.87164
34 Al 1.63782 7.72727 3.32699
35 Al 1.77776 7.84893 0.447426
36 Al 4.1863 8.84697 4.12792
37 Al 0.58619 11.0975 3.29622
38 Al 3.01199 11.9799 7.05896
39 Al 0.715846 11.0026 0.343266
40 Al 3.0437 12.12 4.09181
41 Al 3.99531 8.80264 6.97746
42 Al 2.80619 9.95473 1.97395
43 Al 0.41954 13.2417 5.49315
44 Al 2.02319 9.88644 5.57401
45 Ni 2.08433 12.3756 1.81769
46 Ni 0.215772 8.96997 1.84695
47 Ni 2.62224 7.52098 5.58433
48 Ni 4.45543 10.8281 5.46564
49 Al 4.40834 6.66872 9.10988
50 Al 1.5439 7.61061 10.658
51 Al 1.67577 7.75932 7.91524
52 Al 4.10909 8.79628 11.597
53 Al 0.47275 11.0868 10.7614
54 Al 2.99699 12.0432 14.3682
55 Al 0.6415 11.0038 7.83269
56 Al 3.03522 12.1156 11.4446
57 Al 4.23277 8.80606 14.3872
58 Al 2.7806 10.0265 9.48111
59 Al 0.257059 13.1697 13.0015
60 Al 1.8837 9.85746 12.8999
61 Ni 2.10681 12.1865 9.23459
62 Ni 0.157507 9.09181 9.22975
63 Ni 2.66008 7.46846 12.9348
64 Ni 4.35674 10.8719 12.916
65 Al 9.39487 0.0715878 2.05665
66 Al 6.64717 1.02746 3.12553
67 Al 6.55468 1.16463 0.334874
68 Al 8.97919 2.19205 4.04407
69 Al 5.55288 4.55953 3.36287
70 Al 7.80658 5.33205 7.08563
71 Al 5.58309 4.45008 0.490831
72 Al 7.98022 5.49715 4.12045
73 Al 8.9205 2.30098 7.07154
74 Al 7.67641 3.24674 1.91492
75 Al 5.2113 6.53658 5.54057
76 Al 6.85079 3.24741 5.45828
77 Ni 7.08514 5.70974 1.87008
78 Ni 5.10976 2.47051 1.81643
79 Ni 7.46187 0.847427 5.55445
80 Ni 9.34552 4.19683 5.49109
81 Al 9.15798 0.0522653 9.23018
82 Al 6.48384 1.15411 10.6889
83 Al 6.52971 1.07574 7.86429
84 Al 8.97139 2.16105 11.6291
85 Al 5.40522 4.53231 10.6261
86 Al 7.83412 5.53274 14.4715
87 Al 5.48317 4.41225 7.82701
88 Al 7.92534 5.50113 11.6281
89 Al 8.82292 2.0382 14.3508
90 Al 7.62318 3.39876 9.21656
91 Al 5.19022 6.51052 13.031
92 Al 6.74929 3.3207 12.8422
93 Ni 6.85179 5.72722 9.23503
94 Ni 5.0845 2.42595 9.31743
95 Ni 7.35541 0.773985 12.9899
96 Ni 9.28089 4.09861 13.0813
97 Al 9.27484 6.54603 1.81635
98 Al 6.47573 7.77796 3.327
99 Al 6.59522 7.74453 0.541274
100 Al 8.94007 8.7994 4.1607
101 Al 5.51435 11.2793 3.31499
102 Al 7.79698 12.1237 6.91982
103 Al 5.4546 11.1653 0.439783
104 Al 7.86845 12.1482 4.12418
105 Al 8.98202 8.80538 6.97602
106 Al 7.5954 10.0278 1.89015
107 Al 5.21326 13.2388 5.77825
108 Al 6.73986 9.85727 5.46664
109 Ni 7.03643 12.5158 1.80632
110 Ni 5.09372 9.12088 1.8669
111 Ni 7.48126 7.42316 5.59094
112 Ni 9.36376 10.747 5.5007
113 Al 9.1603 6.57457 9.24106
114 Al 6.55311 7.65134 10.8073
115 Al 6.58463 7.70793 7.79262
116 Al 8.72036 8.82073 11.5059
117 Al 5.4 11.0244 10.6523
118 Al 7.87305 12.2558 14.4297
119 Al 5.35599 10.9706 7.81721
120 Al 7.76296 12.1165 11.4663
121 Al 8.91731 8.81287 14.4317
122 Al 7.56069 9.98737 9.20692
123 Al 5.07183 13.1574 12.893
124 Al 6.70766 10.053 13.0646
125 Ni 6.83968 12.3412 9.19467
126 Ni 5.09284 8.98001 9.18526
127 Ni 7.42241 7.50059 13.0272
128 Ni 9.18868 10.8337 12.9376
ITEM: TIMESTEP
3500
ITEM: NUMBER OF ATOMS
128
ITEM: BOX BOUNDS xy xz yz pp pp pp
-6.0136124200968741e-02 9.7417329428054931e+00 -4.2667337959092652e-02
-4.9223203439677121e-02 1.3326221496572057e+01 9.3258334307355889e-02
-7.3270130278825896e-02 1.4926747890090406e+01 7.7130079839914822e-02
ITEM: ATOMS id element xu yu zu
1 Al 4.46743 -0.0240063 1.78368
2 Al 1.67548 1.0722 3.17185
3 Al 1.79834 1.21278 0.399013
4 Al 4.12217 2.1126 3.98445
5 Al 0.692638 4.57715 3.29294
6 Al 3.09548 5.37258 6.88625
7 Al 0.671803 4.58264 0.232725
8 Al 3.17666 5.52197 4.02181
9 Al 4.30158 2.18283 6.98647
10 Al 2.71938 3.26159 1.84244
11 Al 0.50896 6.50563 5.53697
12 Al 2.16005 3.22112 5.36986
13 Ni 2.24182 5.74577 1.73046
14 Ni 0.2434 2.56256 1.80365
15 Ni 2.53831 0.889592 5.61102
16 Ni 4.55641 4.16079 5.44595
17 Al 4.366 0.109691 9.1825
18 Al 1.87076 1.38915 10.7111
19 Al 1.89556 1.20598 7.87681
20 Al 4.18452 2.06023 11.4412
21 Al 0.650821 4.50993 10.576
22 Al 3.21931 5.58406 14.3808
23 Al 0.691306 4.51766 7.74507
24 Al 3.10147 5.43118 11.5654
25 Al 4.23161 2.1999 14.6492
26 Al 2.89411 3.46071 9.10904
27 Al 0.406005 6.63111 13.1228
28 Al 2.04552 3.30575 12.9314
29 Ni 2.18052 5.78271 9.33752
30 Ni 0.199053 2.37835 9.23291
31 Ni 2.71032 0.985631 13.0416
32 Ni 4.58167 4.08116 12.9967
33 Al 4.34617 6.73485 1.66659
34 Al 1.77022 7.68284 3.18584
35 Al 1.7601 7.80758 0.367343
36 Al 4.23747 8.80425 4.14437
37 Al 0.614306 11.2241 3.36355
38 Al 2.98431 12.1444 6.98352
39 Al 0.588562 11.2456 0.365811
40 Al 3.01564 12.1698 4.14703
41 Al 4.161 8.77009 6.99018
42 Al 2.84545 10.1282 1.76792
43 Al 0.391115 13.1884 5.59645
44 Al 2.04342 9.82083 5.41401
45 Ni 2.07106 12.4124 1.82232
46 Ni 0.283175 9.12624 1.79813
47 Ni 2.74666 7.52082 5.59872
48 Ni 4.4084 10.8053 5.55513
49 Al 4.54496 6.64827 9.41504
50 Al 1.84979 7.78455 10.5994
51 Al 1.7576 7.73446 7.82868
52 Al 4.24657 8.8468 11.5977
53 Al 0.714347 11.1039 10.797
54 Al 2.98459 12.1831 14.3127
55 Al 0.713759 11.0972 7.79249
56 Al 3.19262 12.3155 11.5117
57 Al 4.22378 8.91894 14.6227
58 Al 2.77698 10.1644 9.0605
59 Al 0.375901 13.4732 13.012
60 Al 2.112 9.9354 12.9248
61 Ni 2.12356 12.5677 9.24778
62 Ni 0.286333 9.07596 9.2796
63 Ni 2.66368 7.59846 13.0377
64 Ni 4.60781 10.7905 13.0848
65 Al 9.15818 0.153192 1.56713
66 Al 6.63137 1.04093 3.29741
67 Al 6.75143 1.06015 0.456802
68 Al 9.04647 2.19185 4.052
69 Al 5.46629 4.43215 3.16323
70 Al 7.92264 5.46019 7.00704
71 Al 5.50887 4.46831 0.351089
72 Al 7.83813 5.4343 4.04477
73 Al 9.23558 2.20253 6.8877
74 Al 7.67845 3.35102 1.83933
75 Al 5.30284 6.61331 5.65026
76 Al 6.88235 3.21125 5.39323
77 Ni 6.83301 5.79682 1.74769
78 Ni 5.0661 2.31961 1.84265
79 Ni 7.5492 0.745225 5.631
80 Ni 9.35914 4.2041 5.53795
81 Al 9.32753 0.0379316 9.28927
82 Al 6.51392 1.00664 10.7492
83 Al 6.6246 1.07121 7.80977
84 Al 9.0366 2.21746 11.5869
85 Al 5.5584 4.43122 10.7423
86 Al 7.97752 5.50313 14.5278
87 Al 5.5602 4.57481 7.7331
88 Al 7.98868 5.52904 11.5197
89 Al 9.11606 2.47458 14.4278
90 Al 7.58751 3.33797 9.34871
91 Al 5.31732 6.74472 12.9814
92 Al 6.8116 3.26389 13.0798
93 Ni 6.97076 5.79692 9.24915
94 Ni 5.207 2.40759 9.24292
95 Ni 7.71967 0.966081 13.076
96 Ni 9.47832 4.36084 12.8539
97 Al 9.14076 6.70733 1.71129
98 Al 6.50226 7.77169 3.22401
99 Al 6.61219 7.7952 0.336872
100 Al 8.94658 8.90092 4.19176
101 Al 5.36455 10.9825 3.31971
102 Al 7.82054 12.029 7.11761
103 Al 5.53945 10.9667 0.230381
104 Al 7.74614 12.0903 4.1334
105 Al 8.96036 8.73991 7.01406
106 Al 7.67514 10.0236 1.84365
107 Al 5.27742 13.0985 5.48457
108 Al 6.72515 9.97821 5.50435
109 Ni 6.73643 12.3033 1.89597
110 Ni 5.08435 9.06379 1.80135
111 Ni 7.48228 7.52295 5.50033
112 Ni 9.39007 10.8126 5.58531
113 Al 9.3319 6.60671 9.1245
114 Al 6.81572 7.7708 10.7653
115 Al 6.57964 7.80727 7.84454
116 Al 9.17229 8.83837 11.7023
117 Al 5.47758 11.1456 10.7207
118 Al 7.90224 12.1168 14.4153
119 Al 5.4107 11.143 7.96531
120 Al 7.99217 12.0532 11.678
121 Al 9.07126 8.96085 14.4973
122 Al 7.6937 9.9693 9.39846
123 Al 5.29384 13.3863 13.2231
124 Al 6.85036 9.89333 12.9582
125 Ni 6.9908 12.4017 9.33652
126 Ni 5.14415 9.19821 9.29783
127 Ni 7.6784 7.48909 12.9253
128 Ni 9.5791 10.8743 13.0893
ITEM: TIMESTEP
3600
ITEM: NUMBER OF ATOMS
128
ITEM: BOX BOUNDS xy xz yz pp pp pp
-1.8225083456316099e-02 9.7158775767700565e+00 -5.2490526298262872e-04
7.8478714787380000e-03 1.3193512857020469e+01 6.7171576320441351e-02
-1.6258986163566469e-02 1.4869736745975143e+01 1.4925152067570902e-03
ITEM: ATOMS id element xu yu zu
1 Al 4.56795 0.077355 1.88129
2 Al 1.78608 1.28758 3.27329
3 Al 1.74553 1.15307 0.542448
4 Al 4.18194 2.19314 4.00199
5 Al 0.555334 4.38551 3.16144
6 Al 3.12367 5.56309 6.90465
7 Al 0.527237 4.42213 0.355298
8 Al 3.0123 5.20422 4.11089
9 Al 4.16649 2.0587 7.16479
10 Al 2.85952 3.31253 1.74323
11 Al 0.4231 6.53494 5.59075
12 Al 1.94034 3.24465 5.65258
13 Ni 2.07011 5.70146 1.88401
14 Ni 0.218578 2.40275 1.81408
15 Ni 2.68945 0.923588 5.53707
16 Ni 4.57894 4.16008 5.60646
17 Al 4.44996 -0.0261207 9.40967
18 Al 1.7489 1.17991 10.914
19 Al 1.68998 1.2021 7.79918
20 Al 4.21992 2.11561 11.4714
21 Al 0.74721 4.51184 10.8789
22 Al 3.20421 5.4751 14.5435
23 Al 0.605877 4.5412 7.9732
24 Al 3.08948 5.54877 11.5238
25 Al 4.2133 2.17686 14.486
26 Al 2.866 3.37661 9.32841
27 Al 0.265744 6.59276 12.8107
28 Al 2.1099 3.22275 13.054
29 Ni 2.10687 5.82571 9.22933
30 Ni 0.354844 2.48181 9.30843
31 Ni 2.75811 0.850858 13.0496
32 Ni 4.61342 4.24973 12.9744
33 Al 4.33893 6.57285 1.91006
34 Al 1.82668 7.63483 3.26592
35 Al 1.67447 7.59996 0.186256
36 Al 4.12821 8.79484 4.09082
37 Al 0.713353 10.9491 3.27681
38 Al 3.07323 12.1966 7.02986
39 Al 0.827085 11.0093 0.359255
40 Al 3.03957 11.8879 4.10836
41 Al 4.23613 8.74627 6.87401
42 Al 2.76921 9.78744 1.76911
43 Al 0.383409 13.2115 5.54611
44 Al 2.01353 9.98948 5.78248
45 Ni 2.10773 12.3791 1.89595
46 Ni 0.343394 9.05142 1.74908
47 Ni 2.66882 7.41896 5.47229
48 Ni 4.64168 10.7317 5.57898
49 Al 4.41369 6.62999 9.16876
50 Al 1.78451 7.83115 10.7838
51 Al 1.81861 7.8049 7.7283
52 Al 4.21604 8.8203 11.6029
53 Al 0.703778 10.9819 10.8328
54 Al 3.25644 12.2391 14.564
55 Al 0.698205 11.204 7.84909
56 Al 3.00703 12.0126 11.6812
57 Al 4.3236 8.76074 14.3965
58 Al 2.86765 9.88156 9.37546
59 Al 0.495253 13.1328 13.0911
60 Al 2.10472 9.99552 13.1627
61 Ni 2.22462 12.4274 9.28381
62 Ni 0.500033 9.07772 9.28395
63 Ni 2.83604 7.40272 12.9759
64 Ni 4.61253 10.758 13.0294
65 Al 9.26745 0.0927273 1.9652
66 Al 6.51047 1.22442 3.26441
67 Al 6.4751 1.04956 0.297412
68 Al 8.93567 2.29659 4.07387
69 Al 5.53739 4.37709 3.29686
70 Al 7.93491 5.48348 7.01164
71 Al 5.49609 4.4824 0.367599
72 Al 7.82265 5.48133 4.01479
73 Al 9.00836 2.17544 7.01185
74 Al 7.69136 3.36612 1.65505
75 Al 5.3683 6.68027 5.38758
76 Al 6.88891 3.33808 5.73818
77 Ni 6.98493 5.75002 1.78717
78 Ni 5.12599 2.48407 1.77871
79 Ni 7.53496 0.879083 5.36976
80 Ni 9.24697 4.19924 5.51709
81 Al 9.22672 0.19676 9.19529
82 Al 6.62375 1.29754 10.5634
83 Al 6.5098 1.13133 7.73302
84 Al 9.07926 2.18017 11.5331
85 Al 5.53077 4.49442 10.7207
86 Al 7.87757 5.47791 14.3972
87 Al 5.43255 4.53792 7.77185
88 Al 8.0448 5.45787 11.5434
89 Al 8.98162 2.00707 14.5009
90 Al 7.57371 3.48307 9.10704
91 Al 5.42936 6.53859 12.9325
92 Al 6.86302 3.28641 13.0496
93 Ni 7.0083 5.7658 9.26963
94 Ni 5.15189 2.40288 9.23858
95 Ni 7.56259 0.854888 12.9149
96 Ni 9.39516 4.14288 13.0329
97 Al 9.28795 6.72943 1.86248
98 Al 6.59244 7.8803 3.16545
99 Al 6.52763 7.73135 0.388792
100 Al 8.92951 8.78792 4.09056
101 Al 5.50055 10.9601 3.23629
102 Al 7.87889 12.1122 6.9066
103 Al 5.48956 10.8254 0.428371
104 Al 7.81945 11.9973 4.02247
105 Al 9.10675 8.73845 7.03659
106 Al 7.74414 9.9906 1.73886
107 Al 5.25001 13.1053 5.44512
108 Al 6.87097 9.84036 5.61932
109 Ni 7.05551 12.3402 1.74703
110 Ni 4.97917 8.91825 1.77448
111 Ni 7.6303 7.45107 5.56816
112 Ni 9.29248 10.7267 5.46222
113 Al 9.25827 6.75285 9.5165
114 Al 6.60272 7.77372 10.7512
115 Al 6.58637 7.74638 7.83698
116 Al 8.8939 8.83255 11.5479
117 Al 5.63889 11.0775 10.6695
118 Al 7.93001 11.8883 14.4465
119 Al 5.59141 11.0925 7.80918
120 Al 8.07538 12.193 11.6378
121 Al 9.04102 8.73151 14.3616
122 Al 7.80924 9.89307 9.1437
123 Al 5.39873 13.1403 12.8523
124 Al 6.88392 9.95325 12.9842
125 Ni 7.11318 12.38 9.2738
126 Ni 5.15337 9.10175 9.27165
127 Ni 7.52554 7.55376 12.9382
128 Ni 9.38558 10.7207 12.9601
ITEM: TIMESTEP
3700
ITEM: NUMBER OF ATOMS
128
ITEM: BOX BOUNDS xy xz yz pp pp pp
-1.0738842261987840e-01 9.7821467646882247e+00 6.3573214903108799e-02
-1.0921790196516751e-01 1.3215069150101641e+01 -1.9820695091027064e-02
-1.5564604137546567e-02 1.4869042363949120e+01 -9.4016965155977184e-02
ITEM: ATOMS id element xu yu zu
1 Al 4.35311 0.223831 1.90044
2 Al 1.69648 1.02486 3.22411
3 Al 1.66915 1.02114 0.300052
4 Al 4.14805 2.14505 4.00344
5 Al 0.674144 4.33054 3.27366
6 Al 3.13122 5.37928 7.14455
7 Al 0.54375 4.28967 0.464611
8 Al 3.03711 5.59875 4.12256
9 Al 4.15534 2.27068 6.98076
10 Al 2.85104 3.19523 1.92338
11 Al 0.340863 6.69729 5.53852
12 Al 1.95212 3.20684 5.49937
13 Ni 2.02989 5.7025 1.81157
14 Ni 0.303798 2.3579 1.80868
15 Ni 2.78618 0.801036 5.5617
16 Ni 4.49642 4.23186 5.51605
17 Al 4.37708 0.0616111 9.25903
18 Al 1.67344 1.01549 10.6607
19 Al 1.70351 1.04198 7.75802
20 Al 4.1256 2.26641 11.5143
21 Al 0.426746 4.46901 10.7764
22 Al 2.88653 5.33446 14.4386
23 Al 0.625298 4.24579 7.90923
24 Al 2.9693 5.32854 11.5515
25 Al 4.09896 1.98536 14.4362
26 Al 2.829 3.23504 9.32359
27 Al 0.461955 6.30893 13.0105
28 Al 1.86907 3.11066 12.9484
29 Ni 2.09861 5.63649 9.3252
30 Ni 0.160438 2.3639 9.2313
31 Ni 2.65495 0.769216 12.8056
32 Ni 4.58033 4.15492 13.0368
33 Al 4.27457 6.782 1.76889
34 Al 1.76798 7.8281 3.34737
35 Al 1.83825 7.75032 0.420077
36 Al 4.16948 8.71673 4.05365
37 Al 0.776132 10.9652 3.24164
38 Al 3.11634 12.0739 6.97311
39 Al 0.551355 10.862 0.427017
40 Al 3.14242 12.0604 4.10025
41 Al 4.11506 8.81802 6.87568
42 Al 2.92994 9.93337 1.74019
43 Al 0.594975 13.1239 5.47145
44 Al 2.03442 9.86314 5.41833
45 Ni 2.18594 12.2894 1.69307
46 Ni 0.188094 9.00519 1.87769
47 Ni 2.6769 7.41064 5.66282
48 Ni 4.66618 10.8046 5.4514
49 Al 4.35624 6.59532 9.38331
50 Al 1.60904 7.80598 10.6084
51 Al 1.68697 7.80233 7.80147
52 Al 4.04345 8.69445 11.4994
53 Al 0.648094 10.9751 10.665
54 Al 2.9059 11.825 14.3789
55 Al 0.744413 10.9763 7.79834
56 Al 3.08067 11.9789 11.4902
57 Al 4.14576 8.83153 14.49
58 Al 2.97141 9.82383 9.19909
59 Al 0.521352 12.9833 12.7105
60 Al 1.85318 9.75624 12.9047
61 Ni 2.21406 12.1967 9.1493
62 Ni 0.0208219 9.07306 9.1452
63 Ni 2.71421 7.35471 12.9941
64 Ni 4.53706 10.6347 12.9367
65 Al 9.33624 0.0146882 1.85758
66 Al 6.58337 1.09321 3.28363
67 Al 6.45076 1.22048 0.325215
68 Al 9.11732 2.08876 4.18128
69 Al 5.47049 4.55467 3.28229
70 Al 7.96207 5.36477 6.89305
71 Al 5.4726 4.51293 0.353454
72 Al 8.0063 5.45076 4.15522
73 Al 8.97827 1.97889 7.10878
74 Al 7.69063 3.32469 1.8874
75 Al 5.17707 6.58024 5.76163
76 Al 6.76654 3.26047 5.41629
77 Ni 7.16744 5.63288 1.91855
78 Ni 5.09285 2.47295 1.82234
79 Ni 7.47817 0.939582 5.64187
80 Ni 9.52668 4.06461 5.6229
81 Al 9.24235 -0.106314 9.34968
82 Al 6.51182 1.12048 10.7571
83 Al 6.56655 1.30816 7.92277
84 Al 9.07331 2.03682 11.5508
85 Al 5.52848 4.39217 10.7132
86 Al 7.98817 5.48109 14.5166
87 Al 5.62219 4.36706 7.8041
88 Al 7.93518 5.43234 11.6918
89 Al 9.02074 2.01153 14.4304
90 Al 7.68715 3.42028 9.4194
91 Al 5.16657 6.49896 12.9942
92 Al 6.88557 3.18376 13.022
93 Ni 7.02395 5.70099 9.26649
94 Ni 5.03655 2.47519 9.28635
95 Ni 7.4463 0.709467 13.0436
96 Ni 9.37871 4.13165 13.0025
97 Al 9.51451 6.50157 1.89013
98 Al 6.57899 7.60778 3.30302
99 Al 6.4968 7.68801 0.382348
100 Al 9.00138 8.71006 4.13698
101 Al 5.6905 11.1157 3.34179
102 Al 8.07393 12.1429 6.9628
103 Al 5.55571 11.1677 0.291327
104 Al 8.11476 12.1368 4.19658
105 Al 9.10364 8.82151 6.88314
106 Al 7.58308 9.88498 1.80163
107 Al 5.32497 13.3478 5.58529
108 Al 6.96511 9.8808 5.47215
109 Ni 7.17107 12.3135 1.86369
110 Ni 5.23137 9.11304 1.8781
111 Ni 7.48878 7.50723 5.5166
112 Ni 9.65968 10.7759 5.55586
113 Al 9.23236 6.57014 9.12739
114 Al 6.68115 7.77484 10.794
115 Al 6.60961 7.86615 7.78802
116 Al 9.08354 8.61883 11.6438
117 Al 5.58479 10.9634 10.7087
118 Al 8.05157 12.1639 14.4943
119 Al 5.63216 11.0118 7.60055
120 Al 8.06079 11.8365 11.6339
121 Al 9.12876 8.55401 14.394
122 Al 7.63809 9.99952 9.26524
123 Al 5.26886 13.1363 12.9666
124 Al 7.03307 9.77605 13.1097
125 Ni 6.91247 12.3519 9.10849
126 Ni 5.12023 8.90236 9.23979
127 Ni 7.47126 7.3672 13.0406
128 Ni 9.51654 10.6974 12.9744
ITEM: TIMESTEP
3800
ITEM: NUMBER OF ATOMS
128
ITEM: BOX BOUNDS xy xz yz pp pp pp
-1.2926810976037351e-01 9.6981002721850622e+00 1.5925129595242980e-02
-3.9686334512520072e-02 1.3169507708798832e+01 -7.8098789426819346e-02
4.4919293984611031e-03 1.4848985830413110e+01 -7.0046839006125128e-02
ITEM: ATOMS id element xu yu zu
1 Al 4.3408 0.163505 1.55658
2 Al 1.76952 1.25061 3.25271
3 Al 1.73438 1.19988 0.416135
4 Al 4.24637 2.22938 4.17644
5 Al 0.647603 4.49911 3.18493
6 Al 3.03815 5.59352 6.91462
7 Al 0.693973 4.64476 0.39034
8 Al 3.04963 5.48648 4.09535
9 Al 4.23674 2.17644 6.96658
10 Al 2.79225 3.36553 1.78657
11 Al 0.498365 6.59695 5.50999
12 Al 1.98724 3.27955 5.58223
13 Ni 2.19051 5.83042 1.78517
14 Ni 0.250364 2.52963 1.88741
15 Ni 2.69447 0.881841 5.53125
16 Ni 4.57151 4.15199 5.5807
17 Al 4.44714 0.0603969 9.1183
18 Al 1.69695 1.10074 10.7833
19 Al 1.79265 1.16656 7.82032
20 Al 4.07046 2.21006 11.5902
21 Al 0.590491 4.20956 10.7004
22 Al 3.0654 5.47806 14.4659
23 Al 0.606774 4.47644 7.79455
24 Al 3.03201 5.27041 11.4619
25 Al 4.13001 2.18612 14.451
26 Al 2.95658 3.42503 9.14763
27 Al 0.227615 6.56531 13.1013
28 Al 1.8967 3.15794 12.9206
29 Ni 2.00438 5.76631 9.23399
30 Ni 0.0976749 2.37557 9.25448
31 Ni 2.56682 0.828434 13.038
32 Ni 4.49095 4.06954 12.9761
33 Al 4.52924 6.74335 1.84269
34 Al 1.69053 7.75043 3.30756
35 Al 1.6691 7.73149 0.502094
36 Al 4.21543 8.78919 4.04863
37 Al 0.567375 11.0118 3.23464
38 Al 2.92019 11.9698 7.06409
39 Al 0.740754 10.9465 0.239803
40 Al 3.10209 12.1753 4.20167
41 Al 4.0338 8.56216 7.09981
42 Al 2.83095 10.0429 1.93804
43 Al 0.281848 13.0934 5.57533
44 Al 1.81469 9.79018 5.42736
45 Ni 2.08679 12.3722 1.84125
46 Ni 0.239416 9.05624 1.86296
47 Ni 2.68421 7.59047 5.47583
48 Ni 4.47348 10.6782 5.62912
49 Al 4.21729 6.69791 9.18119
50 Al 1.63005 7.65147 10.8403
51 Al 1.62996 7.78665 7.74154
52 Al 4.05443 8.66584 11.5363
53 Al 0.440818 11.1214 10.7458
54 Al 3.0416 11.9205 14.473
55 Al 0.551552 10.8826 7.82537
56 Al 2.96922 11.9674 11.5167
57 Al 4.12256 8.65142 14.476
58 Al 2.6348 9.83823 9.24555
59 Al 0.118267 13.0929 13.0932
60 Al 1.89115 9.80641 12.9366
61 Ni 1.91424 12.2923 9.26829
62 Ni 0.226343 8.82614 9.32392
63 Ni 2.57939 7.38034 13.0424
64 Ni 4.45377 10.7111 12.9941
65 Al 9.38918 0.00384672 1.69152
66 Al 6.52403 1.14067 3.22537
67 Al 6.6293 1.28492 0.326393
68 Al 8.99662 2.02801 4.03715
69 Al 5.53884 4.48928 3.30376
70 Al 7.89149 5.41123 7.01745
71 Al 5.62383 4.435 0.306583
72 Al 7.89161 5.46316 4.13691
73 Al 9.04678 2.1292 6.86734
74 Al 7.57887 3.441 1.86177
75 Al 5.11841 6.48815 5.37096
76 Al 6.87055 3.2457 5.55976
77 Ni 6.93873 5.73764 1.77336
78 Ni 5.05105 2.37785 1.8851
79 Ni 7.50292 0.786906 5.53085
80 Ni 9.48321 4.1308 5.4594
81 Al 9.34647 0.00832086 9.18084
82 Al 6.48655 1.20533 10.8062
83 Al 6.67786 1.08169 7.77163
84 Al 8.90606 2.07833 11.5085
85 Al 5.47774 4.27431 10.652
86 Al 7.87745 5.41718 14.3252
87 Al 5.3794 4.3999 7.94131
88 Al 8.00151 5.36513 11.5404
89 Al 9.01426 2.30705 14.4407
90 Al 7.55022 3.21522 9.20042
91 Al 5.15272 6.46083 13.0668
92 Al 6.75953 3.20946 12.894
93 Ni 6.89867 5.6162 9.3196
94 Ni 5.08568 2.46999 9.29213
95 Ni 7.40939 0.912117 13.0242
96 Ni 9.34469 4.04746 12.8557
97 Al 9.1248 6.58058 1.84068
98 Al 6.68391 7.7053 3.36744
99 Al 6.66016 7.75475 0.366641
100 Al 9.06255 8.68389 4.20953
101 Al 5.44069 11.0133 3.23417
102 Al 7.83493 11.9163 7.05808
103 Al 5.49542 11.0213 0.242962
104 Al 7.92856 12.097 4.03151
105 Al 8.96284 8.75026 7.01873
106 Al 7.6194 10.0657 1.95292
107 Al 5.29464 13.0678 5.57329
108 Al 6.80015 9.84296 5.51393
109 Ni 6.96847 12.3388 1.80214
110 Ni 5.14229 9.08096 1.78084
111 Ni 7.61861 7.37192 5.56664
112 Ni 9.27906 10.7814 5.56031
113 Al 9.2421 6.37072 9.3277
114 Al 6.51516 7.58271 10.7341
115 Al 6.45902 7.67639 7.76388
116 Al 8.84908 8.71533 11.463
117 Al 5.42814 11.0797 10.7526
118 Al 7.72083 11.9383 14.431
119 Al 5.44746 10.97 7.82712
120 Al 7.95059 11.8719 11.6615
121 Al 8.80916 8.93891 14.4804
122 Al 7.64371 9.91343 9.39989
123 Al 5.16295 13.3041 13.0262
124 Al 6.74179 9.67194 12.8483
125 Ni 6.99941 12.2733 9.36186
126 Ni 5.09895 9.07083 9.3055
127 Ni 7.53211 7.40794 12.9203
128 Ni 9.36617 10.5878 12.9714
ITEM: TIMESTEP
3900
ITEM: NUMBER OF ATOMS
128
ITEM: BOX BOUNDS xy xz yz pp pp pp
-5.0496211728314491e-02 9.6347287273218249e+00 -1.7264463345260227e-02
-3.7030880729458815e-02 1.3320063464480038e+01 -2.9508843317493323e-02
-7.8556933235986115e-02 1.4932034693047548e+01 8.3164370458126316e-02
ITEM: ATOMS id element xu yu zu
1 Al 4.42776 0.0174881 2.00135
2 Al 1.57097 1.07587 3.30046
3 Al 1.78694 1.16275 0.40102
4 Al 4.09101 2.07977 4.05812
5 Al 0.702866 4.53594 3.28602
6 Al 3.11713 5.46037 6.94156
7 Al 0.767534 4.47369 0.422925
8 Al 3.06808 5.50937 4.17691
9 Al 4.08671 2.18271 6.9849
10 Al 2.80072 3.33492 1.84162
11 Al 0.292546 6.622 5.524
12 Al 2.02343 3.32025 5.46363
13 Ni 2.14004 5.77847 1.77872
14 Ni 0.280269 2.50424 1.78154
15 Ni 2.57242 0.805164 5.50484
16 Ni 4.54744 4.10604 5.46883
17 Al 4.37449 0.102352 9.33582
18 Al 1.70323 1.16044 10.7084
19 Al 1.6107 1.03197 7.81666
20 Al 4.20719 2.17513 11.6057
21 Al 0.716926 4.55018 10.8345
22 Al 3.09086 5.64219 14.5186
23 Al 0.765229 4.58367 7.70336
24 Al 3.18296 5.63771 11.6213
25 Al 4.26536 2.28239 14.426
26 Al 2.79541 3.26857 9.304
27 Al 0.390746 6.63764 12.9016
28 Al 2.03333 3.38796 13.0272
29 Ni 2.17866 5.71325 9.23168
30 Ni 0.344577 2.54866 9.31063
31 Ni 2.66697 1.05703 13.0177
32 Ni 4.51442 4.20464 13.0169
33 Al 4.45043 6.59427 1.81388
34 Al 1.73449 7.68939 3.21398
35 Al 1.75792 7.7204 0.241921
36 Al 4.06211 8.78972 4.13722
37 Al 0.534082 11.1385 3.18542
38 Al 3.12323 12.2079 7.0311
39 Al 0.509309 11.2708 0.367009
40 Al 2.99606 12.1208 4.12961
41 Al 4.17101 8.75539 7.02496
42 Al 2.69533 10.0295 1.63451
43 Al 0.210861 13.1339 5.4903
44 Al 2.01375 9.79613 5.76717
45 Ni 2.14674 12.4206 1.77714
46 Ni 0.29229 9.15662 1.69858
47 Ni 2.47319 7.39304 5.54495
48 Ni 4.4653 10.8671 5.44896
49 Al 4.41647 6.57886 9.22198
50 Al 1.8007 7.82461 10.5494
51 Al 1.80887 7.75048 7.83331
52 Al 4.20982 8.74916 11.642
53 Al 0.624094 11.0803 10.7517
54 Al 3.06796 12.3519 14.5399
55 Al 0.591336 11.2418 7.81798
56 Al 2.95592 12.2298 11.6368
57 Al 4.10351 8.84335 14.4684
58 Al 2.76435 10.1481 9.32488
59 Al 0.386426 13.3132 13.0063
60 Al 1.92586 10.0333 13.1731
61 Ni 2.06656 12.4258 9.33724
62 Ni 0.309339 9.19795 9.28999
63 Ni 2.64613 7.64002 12.8982
64 Ni 4.43862 10.9041 13.0808
65 Al 8.97602 0.258379 2.01603
66 Al 6.62731 1.24288 3.30654
67 Al 6.47217 0.875355 0.259629
68 Al 8.92678 2.32887 4.11719
69 Al 5.59655 4.39128 3.29511
70 Al 7.95269 5.58152 6.9667
71 Al 5.51997 4.4683 0.376161
72 Al 7.84985 5.58977 4.01964
73 Al 8.94332 2.2137 6.93588
74 Al 7.64484 3.4966 1.75842
75 Al 5.17802 6.42179 5.54774
76 Al 6.73786 3.26208 5.61086
77 Ni 6.91628 5.83159 1.79905
78 Ni 5.13919 2.45458 1.77617
79 Ni 7.5266 0.822335 5.47704
80 Ni 9.26537 4.21113 5.56722
81 Al 9.22794 0.107823 9.30754
82 Al 6.56887 1.12801 10.6953
83 Al 6.49947 0.842103 7.66398
84 Al 8.85787 2.46477 11.5762
85 Al 5.3976 4.45242 10.5594
86 Al 7.85611 5.48361 14.5744
87 Al 5.50119 4.41991 7.83763
88 Al 7.98147 5.53695 11.4877
89 Al 9.00274 2.15885 14.4683
90 Al 7.60591 3.34411 9.28349
91 Al 5.22834 6.6305 13.0494
92 Al 6.72187 3.35414 13.1198
93 Ni 7.07432 5.8122 9.21076
94 Ni 5.09997 2.40087 9.21262
95 Ni 7.52363 0.935957 12.9473
96 Ni 9.36264 4.31713 13.1409
97 Al 9.1825 6.68105 1.76978
98 Al 6.51123 7.79947 3.32525
99 Al 6.53704 7.68318 0.298076
100 Al 9.01791 8.83014 3.98657
101 Al 5.50635 10.9444 3.18691
102 Al 7.87683 12.1483 6.88802
103 Al 5.39352 11.0189 0.298578
104 Al 7.81235 12.0323 4.12406
105 Al 8.99747 8.85669 7.03527
106 Al 7.63356 10.0919 1.59886
107 Al 5.15792 13.1762 5.49941
108 Al 6.65218 9.86094 5.57229
109 Ni 6.87909 12.3831 1.81448
110 Ni 4.93668 9.00414 1.82324
111 Ni 7.5548 7.53248 5.4475
112 Ni 9.34403 10.67 5.53211
113 Al 9.24881 6.85759 9.19569
114 Al 6.66063 7.78627 10.7664
115 Al 6.47701 7.64068 7.86059
116 Al 8.94195 8.93785 11.6483
117 Al 5.32575 11.0493 10.7312
118 Al 7.76356 12.182 14.5876
119 Al 5.38672 11.1566 7.88635
120 Al 7.96596 12.1521 11.4927
121 Al 8.97043 8.85706 14.418
122 Al 7.62252 9.95849 9.32535
123 Al 5.40812 13.122 13.0963
124 Al 6.81399 10.0096 13.0517
125 Ni 6.95259 12.2655 9.26715
126 Ni 5.02408 9.06485 9.26077
127 Ni 7.47893 7.55353 13.0093
128 Ni 9.34825 10.9945 13.0706
ITEM: TIMESTEP
4000
ITEM: NUMBER OF ATOMS
128
ITEM: BOX BOUNDS xy xz yz pp pp pp
-6.0128302227704496e-02 9.7681617099450904e+00 -4.5233939462769997e-02
-4.4161710228757478e-02 1.3343816531187384e+01 1.2226152492390828e-01
4.6357775306171689e-03 1.4848841982280938e+01 9.9786607666164873e-02
ITEM: ATOMS id element xu yu zu
1 Al 4.49673 -0.00963975 1.77388
2 Al 1.84591 1.08512 3.24525
3 Al 1.5756 1.04417 0.304713
4 Al 4.19833 2.25062 4.11527
5 Al 0.583988 4.37929 3.2922
6 Al 2.98984 5.43609 6.95587
7 Al 0.567419 4.40517 0.404304
8 Al 3.01073 5.46056 4.20261
9 Al 4.28078 2.1747 7.05725
10 Al 2.70386 3.47849 1.78037
11 Al 0.429449 6.52812 5.5345
12 Al 2.02197 3.17234 5.55848
13 Ni 1.99157 5.66551 1.80885
14 Ni 0.275117 2.36366 1.7863
15 Ni 2.77931 0.894753 5.53944
16 Ni 4.5216 4.23689 5.54165
17 Al 4.56301 -0.00554169 9.25529
18 Al 1.94553 1.22031 10.5571
19 Al 1.86108 1.21375 7.90714
20 Al 4.16288 2.34984 11.5157
21 Al 0.570709 4.48993 10.6559
22 Al 3.01754 5.51144 14.3382
23 Al 0.615713 4.46467 7.84112
24 Al 3.19597 5.62436 11.5553
25 Al 4.11646 2.30373 14.4671
26 Al 2.83212 3.56602 9.22326
27 Al 0.453322 6.6309 12.9786
28 Al 2.13586 3.32743 12.9231
29 Ni 2.18153 5.86496 9.30404
30 Ni 0.312669 2.40392 9.26948
31 Ni 2.80302 0.887908 12.9515
32 Ni 4.65013 4.27641 13.0175
33 Al 4.29009 6.65083 1.69972
34 Al 1.72915 7.69825 3.39146
35 Al 1.77681 7.77535 0.359207
36 Al 4.2355 8.74665 3.94714
37 Al 0.611813 11.055 3.25928
38 Al 3.07797 12.147 6.88951
39 Al 0.64537 10.9397 0.343732
40 Al 3.01013 12.0631 4.03141
41 Al 4.22932 8.86141 7.04705
42 Al 2.78817 9.93552 1.88652
43 Al 0.386195 13.3164 5.5617
44 Al 2.04742 9.94305 5.44587
45 Ni 2.12151 12.3606 1.81748
46 Ni 0.250894 9.0652 1.89543
47 Ni 2.85906 7.38536 5.54265
48 Ni 4.5082 10.7338 5.53664
49 Al 4.44916 6.75961 9.18092
50 Al 1.77364 7.81507 10.7241
51 Al 1.76635 7.6713 7.69094
52 Al 4.13268 8.92311 11.5492
53 Al 0.762914 11.1006 10.7138
54 Al 3.17989 12.1091 14.3621
55 Al 0.695394 11.1207 7.8778
56 Al 3.20235 12.1686 11.3954
57 Al 4.28015 8.94883 14.3493
58 Al 2.82859 10.0271 9.21523
59 Al 0.528509 13.2243 12.9324
60 Al 2.135 9.98487 12.867
61 Ni 2.22677 12.4891 9.20841
62 Ni 0.319543 9.12094 9.2492
63 Ni 2.831 7.5163 13.0685
64 Ni 4.69519 10.851 12.9421
65 Al 9.34531 -0.216545 1.72693
66 Al 6.5835 1.03731 3.33781
67 Al 6.63562 1.14053 0.427507
68 Al 9.09986 2.07857 4.10377
69 Al 5.45406 4.44165 3.22268
70 Al 7.93607 5.57611 6.98262
71 Al 5.40775 4.4455 0.386573
72 Al 7.82507 5.51291 4.08817
73 Al 9.1282 2.11994 6.94738
74 Al 7.60498 3.40068 1.9175
75 Al 5.23258 6.52613 5.59753
76 Al 6.83236 3.31587 5.39913
77 Ni 7.00679 5.6872 1.81888
78 Ni 5.06026 2.52952 1.79352
79 Ni 7.55084 0.857634 5.66348
80 Ni 9.42474 4.17592 5.6131
81 Al 9.29386 0.0596296 9.32966
82 Al 6.72739 1.25088 10.7254
83 Al 6.65309 1.23685 7.77749
84 Al 9.1103 2.08524 11.5621
85 Al 5.61472 4.49711 10.8337
86 Al 7.95785 5.69749 14.5489
87 Al 5.48888 4.40258 7.81305
88 Al 7.95856 5.68595 11.6455
89 Al 9.12534 2.30182 14.4218
90 Al 7.72016 3.54017 9.32684
91 Al 5.33601 6.77238 12.8814
92 Al 6.99372 3.44132 13.0693
93 Ni 6.90052 5.74856 9.26707
94 Ni 5.11212 2.48577 9.34566
95 Ni 7.6156 0.922115 13.0539
96 Ni 9.47214 4.26251 12.9135
97 Al 9.29459 6.6794 1.91348
98 Al 6.57073 7.64454 3.22095
99 Al 6.54666 7.78976 0.399785
100 Al 8.93606 8.89951 4.08201
101 Al 5.48293 11.1643 3.35801
102 Al 7.96317 12.3404 6.9933
103 Al 5.41546 11.0602 0.394832
104 Al 7.9013 12.1839 4.14449
105 Al 9.21622 8.90522 6.85156
106 Al 7.57771 10.0476 1.90567
107 Al 5.11216 13.1605 5.54721
108 Al 6.81637 9.99502 5.52353
109 Ni 6.8777 12.3564 1.84329
110 Ni 5.09251 9.11698 1.8114
111 Ni 7.47069 7.51132 5.58439
112 Ni 9.3824 11.0288 5.51819
113 Al 9.25319 6.73039 9.42384
114 Al 6.69159 7.7418 10.7613
115 Al 6.74607 7.85864 7.96184
116 Al 9.05318 8.87728 11.5412
117 Al 5.57439 11.0495 10.6565
118 Al 8.0417 12.316 14.5461
119 Al 5.5288 11.0622 7.87156
120 Al 7.77767 12.1963 11.6781
121 Al 9.09301 8.87577 14.4334
122 Al 7.81189 10.1954 9.20048
123 Al 5.22898 13.4283 12.8962
124 Al 6.86423 9.89701 13.0845
125 Ni 6.92077 12.598 9.214
126 Ni 5.20423 9.15087 9.27304
127 Ni 7.66414 7.6798 12.9194
128 Ni 9.46622 10.9106 12.9365
ITEM: TIMESTEP
4100
ITEM: NUMBER OF ATOMS
128
ITEM: BOX BOUNDS xy xz yz pp pp pp
-6.6049665214893361e-02 9.7044762522524852e+00 -2.8991985852020841e-02
-9.9378837667926684e-02 1.3216819113229082e+01 3.6412750633369739e-02
1.2092950331722641e-02 1.4841384809479834e+01 -8.2427937731297890e-02
ITEM: ATOMS id element xu yu zu
1 Al 4.38924 0.0357736 1.70283
2 Al 1.78964 1.0279 3.39613
3 Al 1.74653 1.11966 0.418634
4 Al 4.12974 2.27853 4.15046
5 Al 0.638083 4.33031 3.26204
6 Al 3.06883 5.65866 6.97918
7 Al 0.5879 4.34468 0.379463
8 Al 3.08951 5.51112 4.17289
9 Al 4.21408 2.17987 7.06555
10 Al 2.73936 3.3628 1.77009
11 Al 0.33411 6.4711 5.67408
12 Al 1.94091 3.35343 5.5959
13 Ni 2.09878 5.7257 1.84628
14 Ni 0.295923 2.41759 1.85116
15 Ni 2.79437 0.828262 5.57951
16 Ni 4.55167 4.20966 5.54467
17 Al 4.24001 0.0113199 9.21889
18 Al 1.68731 1.04886 10.7101
19 Al 1.71763 1.02711 7.78928
20 Al 4.12213 2.06079 11.486
21 Al 0.614781 4.31898 10.781
22 Al 3.05208 5.37582 14.4519
23 Al 0.560223 4.35778 7.75852
24 Al 2.91089 5.30264 11.5586
25 Al 4.23465 2.15851 14.3524
26 Al 2.65603 3.20288 9.19108
27 Al 0.266648 6.41661 13.0484
28 Al 2.03961 3.04702 13.1762
29 Ni 2.06328 5.72321 9.20594
30 Ni 0.377598 2.41782 9.24461
31 Ni 2.71328 0.735915 13.0319
32 Ni 4.44291 4.14897 12.9221
33 Al 4.4424 6.7511 2.06788
34 Al 1.8636 7.84528 3.29911
35 Al 1.6742 7.7668 0.337271
36 Al 4.25823 8.90932 4.13451
37 Al 0.710396 11.0076 3.32243
38 Al 3.08455 12.0231 6.96621
39 Al 0.535951 11.0173 0.438718
40 Al 3.16891 12.0808 4.05785
41 Al 4.08199 8.89713 6.89664
42 Al 2.99892 9.96905 2.00351
43 Al 0.447582 12.9823 5.51564
44 Al 1.96913 9.94627 5.59337
45 Ni 2.10908 12.3 1.89733
46 Ni 0.168835 9.01081 1.85631
47 Ni 2.56667 7.48018 5.58274
48 Ni 4.66031 10.8625 5.59775
49 Al 4.33922 6.72091 9.38216
50 Al 1.69062 7.60046 10.7444
51 Al 1.85182 7.80433 7.85822
52 Al 4.29319 8.75097 11.6126
53 Al 0.563277 10.955 10.7003
54 Al 2.99753 11.8462 14.374
55 Al 0.711375 10.8651 7.82949
56 Al 3.01993 12.0211 11.5001
57 Al 4.16325 8.78511 14.4464
58 Al 2.82896 9.97694 9.35135
59 Al 0.476436 13.0436 13.0647
60 Al 2.00257 9.74583 12.8528
61 Ni 2.08103 12.2848 9.30091
62 Ni 0.238842 9.0851 9.28513
63 Ni 2.68056 7.37914 13.0027
64 Ni 4.56485 10.6412 12.9594
65 Al 9.31134 0.00746814 1.69805
66 Al 6.61948 1.02169 3.16184
67 Al 6.64631 1.163 0.407315
68 Al 9.0956 2.11931 4.07164
69 Al 5.50142 4.36866 3.2861
70 Al 7.86026 5.39712 6.99632
71 Al 5.46499 4.30341 0.408435
72 Al 7.88279 5.46079 4.05414
73 Al 8.98449 2.08939 6.97297
74 Al 7.60567 3.40051 1.749
75 Al 5.27741 6.55087 5.44218
76 Al 6.8267 3.31299 5.6781
77 Ni 6.94081 5.7429 1.89406
78 Ni 5.07118 2.42081 1.81976
79 Ni 7.45721 0.867054 5.49959
80 Ni 9.35042 4.09274 5.46905
81 Al 9.28484 0.0916243 9.09334
82 Al 6.48844 0.945065 10.6662
83 Al 6.69997 1.09683 7.90989
84 Al 8.9168 2.07028 11.5109
85 Al 5.43307 4.54243 10.7286
86 Al 7.76237 5.35029 14.424
87 Al 5.47828 4.53782 7.7624
88 Al 7.89903 5.3988 11.5545
89 Al 9.12522 1.92183 14.4988
90 Al 7.57949 3.36939 9.32968
91 Al 5.17692 6.48532 13.0638
92 Al 6.78158 3.10142 12.7617
93 Ni 7.0462 5.78071 9.31519
94 Ni 5.1369 2.49729 9.20975
95 Ni 7.44379 0.795955 12.9275
96 Ni 9.35474 3.97909 12.962
97 Al 9.22489 6.64993 1.77168
98 Al 6.66933 7.83325 3.3476
99 Al 6.54178 7.7342 0.454093
100 Al 9.11147 8.73088 4.10064
101 Al 5.58181 11.0843 3.2016
102 Al 7.88409 12.1406 6.8734
103 Al 5.59921 11.0079 0.448971
104 Al 7.90622 12.1151 4.14973
105 Al 8.89803 8.64592 7.15977
106 Al 7.71848 9.98279 1.89811
107 Al 5.19421 13.2032 5.58203
108 Al 6.94251 9.90412 5.55838
109 Ni 7.10435 12.4072 1.77354
110 Ni 5.22468 9.06978 1.88944
111 Ni 7.62364 7.38196 5.5636
112 Ni 9.38716 10.6301 5.49988
113 Al 9.41873 6.55635 9.06483
114 Al 6.68283 7.63026 10.7128
115 Al 6.42225 7.75525 7.75794
116 Al 9.03834 8.49193 11.5026
117 Al 5.43417 11.1586 10.6953
118 Al 7.96874 12.1724 14.3748
119 Al 5.53083 11.0508 7.91625
120 Al 8.08204 12.3142 11.5215
121 Al 8.97089 8.67869 14.3943
122 Al 7.4872 9.80167 9.24107
123 Al 5.20071 13.0142 13.0714
124 Al 6.83328 9.78591 12.7287
125 Ni 7.07917 12.3654 9.2926
126 Ni 5.02706 9.07571 9.13074
127 Ni 7.39742 7.31903 12.931
128 Ni 9.38163 10.5301 12.9016
ITEM: TIMESTEP
4200
ITEM: NUMBER OF ATOMS
128
ITEM: BOX BOUNDS xy xz yz pp pp pp
-2.0988220340360014e-01 9.6963087649827422e+00 -8.5168417087114305e-03
-1.2899006060471432e-01 1.3191390083743537e+01 -1.3606241896838212e-01
-4.2191292453989782e-02 1.4895669052265557e+01 -1.3746819015363101e-01
ITEM: ATOMS id element xu yu zu
1 Al 4.39558 -0.04395 2.04682
2 Al 1.70549 1.21154 3.29875
3 Al 1.69621 1.27212 0.264622
4 Al 4.06379 2.11382 4.01877
5 Al 0.596222 4.35381 3.32323
6 Al 2.97244 5.48467 6.97163
7 Al 0.701418 4.40551 0.438369
8 Al 3.10575 5.45403 4.08095
9 Al 4.02007 2.22815 6.92826
10 Al 2.7984 3.33937 1.91939
11 Al 0.40129 6.53642 5.49664
12 Al 1.89548 3.25164 5.37026
13 Ni 2.1644 5.822 1.85268
14 Ni 0.2495 2.52907 1.74362
15 Ni 2.53863 0.775229 5.48863
16 Ni 4.50343 4.09983 5.50478
17 Al 4.22586 -0.071524 9.423
18 Al 1.61324 1.10522 10.7001
19 Al 1.75998 1.33062 7.89959
20 Al 4.04802 2.05403 11.6808
21 Al 0.490473 4.23048 10.6805
22 Al 3.00665 5.32949 14.4447
23 Al 0.648742 4.28088 7.92509
24 Al 2.95547 5.34727 11.5312
25 Al 4.10983 2.10728 14.5338
26 Al 2.88603 3.3233 9.45296
27 Al 0.377204 6.38717 12.9551
28 Al 1.73748 3.16596 12.8566
29 Ni 1.96776 5.65919 9.34921
30 Ni -0.0110621 2.27837 9.2259
31 Ni 2.54567 0.771227 12.9673
32 Ni 4.36656 4.01122 13.0716
33 Al 4.37509 6.75627 1.79012
34 Al 1.67781 7.74347 3.29713
35 Al 1.71054 7.65135 0.2966
36 Al 4.08789 8.80691 4.01879
37 Al 0.60628 11.0061 3.22367
38 Al 3.00805 11.9886 6.96686
39 Al 0.681469 11.2239 0.298609
40 Al 2.80781 12.0676 4.09931
41 Al 4.10845 8.67446 7.10378
42 Al 2.71399 9.87462 1.60743
43 Al 0.255205 13.2331 5.5936
44 Al 1.85763 9.86877 5.50626
45 Ni 2.05227 12.3502 1.7958
46 Ni 0.198425 9.01853 1.75018
47 Ni 2.68074 7.57499 5.5208
48 Ni 4.55058 10.7306 5.47655
49 Al 4.30175 6.58293 9.15744
50 Al 1.50266 7.63381 10.7021
51 Al 1.65538 7.57183 7.80308
52 Al 3.89891 8.85003 11.6234
53 Al 0.473901 10.9235 10.821
54 Al 3.07774 12.0724 14.4209
55 Al 0.622431 11.0045 7.82413
56 Al 2.92506 11.9382 11.488
57 Al 4.11958 8.54522 14.3499
58 Al 2.68417 9.90309 9.2487
59 Al 0.15224 13.1058 12.9447
60 Al 1.79807 9.743 13.1882
61 Ni 1.99225 12.3391 9.28733
62 Ni 0.0928263 8.8974 9.26043
63 Ni 2.48818 7.39296 12.9298
64 Ni 4.39053 10.6779 12.9294
65 Al 9.16802 0.128455 1.87418
66 Al 6.59246 1.15945 3.26542
67 Al 6.66712 1.02718 0.373765
68 Al 9.05663 2.24927 4.09946
69 Al 5.46786 4.48379 3.35925
70 Al 7.95377 5.26846 6.97375
71 Al 5.55518 4.34118 0.36072
72 Al 7.92499 5.51302 4.17699
73 Al 8.85593 2.20729 7.04253
74 Al 7.59385 3.33601 1.93967
75 Al 5.03647 6.59119 5.58853
76 Al 6.76386 3.20291 5.56004
77 Ni 6.97157 5.69285 1.77988
78 Ni 5.15193 2.4169 1.84055
79 Ni 7.57029 0.789994 5.53285
80 Ni 9.51173 4.15091 5.62656
81 Al 9.22993 -0.0636307 9.46509
82 Al 6.54008 1.10046 10.7137
83 Al 6.48526 0.961622 7.7921
84 Al 8.96325 2.09098 11.6314
85 Al 5.46368 4.23248 10.7527
86 Al 7.89782 5.4425 14.4041
87 Al 5.5016 4.3186 7.68443
88 Al 7.81949 5.32362 11.491
89 Al 9.00813 2.06518 14.5736
90 Al 7.44813 3.10306 9.14041
91 Al 5.21118 6.3342 12.8871
92 Al 6.80327 3.11729 13.1761
93 Ni 6.85632 5.52081 9.212
94 Ni 5.033 2.28549 9.24841
95 Ni 7.43671 0.694124 12.9437
96 Ni 9.28279 4.12259 12.8987
97 Al 9.10049 6.65006 1.79938
98 Al 6.48791 7.69083 3.18962
99 Al 6.47112 7.6056 0.303627
100 Al 8.95749 8.77123 4.04218
101 Al 5.48667 10.9051 3.16738
102 Al 7.78101 11.9578 6.95443
103 Al 5.45363 10.9491 0.427545
104 Al 7.87155 12.1765 4.05164
105 Al 8.88203 8.75588 7.07988
106 Al 7.58682 9.80732 1.70103
107 Al 5.17055 13.1069 5.45612
108 Al 6.76966 9.82465 5.50461
109 Ni 6.89745 12.3688 1.83407
110 Ni 4.94439 9.04371 1.76704
111 Ni 7.41297 7.43481 5.52008
112 Ni 9.37315 10.7967 5.54493
113 Al 9.02117 6.60978 9.4468
114 Al 6.54044 7.63375 10.8051
115 Al 6.60354 7.69682 7.83433
116 Al 8.90259 8.76922 11.6418
117 Al 5.27654 10.8101 10.6679
118 Al 7.70783 11.9101 14.5382
119 Al 5.37729 10.9263 7.76483
120 Al 7.71073 11.9619 11.5108
121 Al 8.98705 8.56563 14.5168
122 Al 7.66756 9.83326 9.28554
123 Al 5.12918 13.0381 12.8982
124 Al 6.65681 9.73788 13.0956
125 Ni 6.89507 12.1529 9.25056
126 Ni 5.04918 8.92219 9.35763
127 Ni 7.44706 7.27948 13.0048
128 Ni 9.31619 10.7404 13.0634
ITEM: TIMESTEP
4300
ITEM: NUMBER OF ATOMS
128
ITEM: BOX BOUNDS xy xz yz pp pp pp
-3.7576888994422110e-02 9.7059225253765486e+00 4.0550407137348338e-02
2.1668765505584275e-02 1.3212777166281027e+01 -3.2105930114529682e-03
-1.6144658224982678e-02 1.4869622418036538e+01 3.4577718494153538e-02
ITEM: ATOMS id element xu yu zu
1 Al 4.4541 0.165395 1.73863
2 Al 1.76375 1.19309 3.44309
3 Al 1.58438 1.26816 0.429047
4 Al 4.16864 2.09913 4.05389
5 Al 0.625602 4.40643 3.33129
6 Al 3.09003 5.4785 7.01147
7 Al 0.675428 4.40311 0.442296
8 Al 3.0542 5.35984 4.0101
9 Al 4.18054 2.04681 7.0175
10 Al 2.77117 3.29324 1.75453
11 Al 0.399248 6.57137 5.49293
12 Al 1.99714 3.28786 5.65087
13 Ni 2.12393 5.75956 1.72394
14 Ni 0.235589 2.46898 1.91106
15 Ni 2.67787 0.950484 5.56499
16 Ni 4.54471 4.17232 5.56649
17 Al 4.33563 0.102343 9.23155
18 Al 1.66502 1.08018 10.6709
19 Al 1.56044 0.98801 7.87851
20 Al 4.10646 2.09087 11.5092
21 Al 0.739188 4.62342 10.8429
22 Al 3.2572 5.59816 14.3966
23 Al 0.646987 4.55832 7.77754
24 Al 3.16609 5.55216 11.5109
25 Al 4.13891 2.18081 14.4693
26 Al 2.8043 3.26256 9.01999
27 Al 0.329126 6.83385 12.952
28 Al 2.14819 3.52612 12.9246
29 Ni 2.23167 5.77012 9.16775
30 Ni 0.293473 2.55911 9.28372
31 Ni 2.55809 0.954962 12.9834
32 Ni 4.66059 4.15224 12.9441
33 Al 4.51362 6.5768 1.70243
34 Al 1.79029 7.71561 3.24155
35 Al 1.68722 7.83948 0.313365
36 Al 4.08265 8.63758 4.00402
37 Al 0.714483 11.1841 3.29167
38 Al 3.09672 12.0989 6.95623
39 Al 0.738718 10.9777 0.375033
40 Al 3.02358 12.1899 4.07017
41 Al 4.19982 8.576 6.95929
42 Al 2.86279 9.95782 1.84094
43 Al 0.452438 13.1151 5.41936
44 Al 1.92549 9.74794 5.51231
45 Ni 2.22574 12.3606 1.85208
46 Ni 0.248343 9.14419 1.8234
47 Ni 2.64268 7.33771 5.53415
48 Ni 4.32839 10.6625 5.64496
49 Al 4.39719 6.61014 9.3209
50 Al 1.78719 7.83556 10.6328
51 Al 1.84201 7.68831 7.72112
52 Al 4.23668 8.62573 11.4977
53 Al 0.719196 11.1373 10.7579
54 Al 2.99221 12.1853 14.4387
55 Al 0.659999 11.2263 7.8094
56 Al 3.1994 12.2001 11.5471
57 Al 4.16131 8.82009 14.6198
58 Al 2.8248 9.93227 9.18816
59 Al 0.378835 13.1101 13.0331
60 Al 2.14033 9.87076 12.9141
61 Ni 2.25562 12.2229 9.23975
62 Ni 0.225064 9.07054 9.17969
63 Ni 2.66024 7.51462 13.0226
64 Ni 4.5127 10.8108 13.0945
65 Al 9.08315 0.0448305 1.86618
66 Al 6.6046 1.12303 3.24706
67 Al 6.59123 1.23651 0.349837
68 Al 9.09321 2.20375 4.19381
69 Al 5.41315 4.45032 3.21446
70 Al 7.91356 5.42215 6.9793
71 Al 5.5016 4.48043 0.339874
72 Al 7.85151 5.49759 4.10171
73 Al 9.05114 2.24368 6.95989
74 Al 7.64199 3.41649 1.8513
75 Al 5.28182 6.38571 5.47359
76 Al 6.81813 3.3519 5.42871
77 Ni 7.10256 5.84821 1.82598
78 Ni 5.09086 2.55753 1.79482
79 Ni 7.49926 0.850628 5.59907
80 Ni 9.3724 4.25105 5.48844
81 Al 9.1563 0.160207 9.3087
82 Al 6.59309 1.08148 10.8682
83 Al 6.77013 1.29987 7.86012
84 Al 9.10777 2.18465 11.596
85 Al 5.47017 4.42981 10.5987
86 Al 7.97228 5.56456 14.3909
87 Al 5.54494 4.31287 7.882
88 Al 7.94518 5.54526 11.5677
89 Al 9.02165 2.45258 14.6043
90 Al 7.73413 3.4566 9.35077
91 Al 5.3228 6.73127 13.0395
92 Al 6.85393 3.2877 12.765
93 Ni 6.99561 5.81852 9.32637
94 Ni 5.16327 2.4562 9.3092
95 Ni 7.63353 0.988846 13.0846
96 Ni 9.46728 4.20053 12.9895
97 Al 9.26205 6.67548 1.83193
98 Al 6.55213 7.72602 3.252
99 Al 6.74481 7.84232 0.414872
100 Al 8.98027 8.76599 3.99113
101 Al 5.36286 10.9799 3.2461
102 Al 7.79458 12.0618 6.99668
103 Al 5.42073 11.1053 0.431714
104 Al 7.83586 12.0724 4.06453
105 Al 9.08319 8.89206 7.01138
106 Al 7.5487 9.98072 1.81482
107 Al 5.31699 13.0218 5.58084
108 Al 6.71389 9.72503 5.77471
109 Ni 6.91833 12.3323 1.82716
110 Ni 5.15538 9.03864 1.80892
111 Ni 7.58615 7.51544 5.59151
112 Ni 9.44791 10.7771 5.51137
113 Al 9.37508 6.69438 9.20338
114 Al 6.67036 7.81341 10.6839
115 Al 6.5275 7.69121 7.7288
116 Al 8.98657 8.90648 11.2872
117 Al 5.4719 10.9149 10.9092
118 Al 7.88847 12.1171 14.4073
119 Al 5.45755 11.0852 7.79588
120 Al 8.02037 11.9914 11.4729
121 Al 8.99098 8.88947 14.5792
122 Al 7.7594 10.0039 9.19587
123 Al 5.26778 13.221 13.0994
124 Al 6.8165 9.86833 13.013
125 Ni 6.90349 12.2957 9.32951
126 Ni 5.12141 9.04592 9.15408
127 Ni 7.61105 7.55549 12.9898
128 Ni 9.49767 10.7276 13.0033
ITEM: TIMESTEP
4400
ITEM: NUMBER OF ATOMS
128
ITEM: BOX BOUNDS xy xz yz pp pp pp
-3.4102318287669853e-02 9.7758569222967857e+00 1.9831541458592509e-03
-6.8689528720801363e-02 1.3457674782044119e+01 1.0876562760702865e-01
-3.3285951967988225e-02 1.4886763711779546e+01 1.8911704003085386e-01
ITEM: ATOMS id element xu yu zu
1 Al 4.44673 -0.029721 1.7476
2 Al 1.8151 0.99257 3.3283
3 Al 1.84391 1.12941 0.430694
4 Al 4.0838 2.22412 4.04802
5 Al 0.693336 4.53467 3.16857
6 Al 3.0679 5.58384 7.01923
7 Al 0.517985 4.38308 0.421013
8 Al 3.12752 5.61002 4.22721
9 Al 4.18753 2.20216 6.99797
10 Al 2.93069 3.49548 1.78514
11 Al 0.449124 6.54507 5.57722
12 Al 1.9871 3.19568 5.57889
13 Ni 2.16962 5.71756 1.89482
14 Ni 0.196169 2.44068 1.60706
15 Ni 2.68409 0.804193 5.48048
16 Ni 4.67158 4.24554 5.51589
17 Al 4.49537 0.0790483 9.1329
18 Al 1.94403 1.27975 10.7411
19 Al 1.87816 1.25013 7.80644
20 Al 4.27838 2.42849 11.603
21 Al 0.652965 4.54489 10.7001
22 Al 3.07899 5.5711 14.4279
23 Al 0.753871 4.4824 7.75201
24 Al 3.10304 5.64142 11.5136
25 Al 4.23068 2.29873 14.419
26 Al 2.95116 3.65032 9.45482
27 Al 0.550956 6.67142 13.1775
28 Al 1.9431 3.29728 13.1566
29 Ni 2.16206 5.90162 9.29775
30 Ni 0.388821 2.43565 9.31713
31 Ni 2.87902 0.948535 12.9742
32 Ni 4.55421 4.42891 13.0054
33 Al 4.33396 6.74066 2.07472
34 Al 1.72248 7.82998 3.31384
35 Al 1.86369 7.81323 0.378628
36 Al 4.18377 8.91107 4.04686
37 Al 0.600847 11.1457 3.31558
38 Al 3.00538 12.1453 6.99076
39 Al 0.587258 11.0416 0.423847
40 Al 3.08151 12.081 4.00104
41 Al 4.14351 8.86377 7.06411
42 Al 2.83679 10.0502 1.90231
43 Al 0.345693 13.3865 5.66134
44 Al 2.06589 10.0469 5.56391
45 Ni 2.07427 12.3737 1.79199
46 Ni 0.23821 9.01436 1.84577
47 Ni 2.68436 7.57969 5.55423
48 Ni 4.74977 10.9594 5.53341
49 Al 4.43465 6.62326 9.20163
50 Al 1.76113 7.82593 10.8149
51 Al 1.72925 7.79494 7.71587
52 Al 4.14228 8.9296 11.3938
53 Al 0.557114 11.3194 10.683
54 Al 3.19436 12.2031 14.577
55 Al 0.704267 11.1143 7.88305
56 Al 3.0006 12.2857 11.5581
57 Al 4.30964 9.07248 14.4363
58 Al 2.81323 10.0577 9.25066
59 Al 0.546846 13.4202 12.9806
60 Al 2.00167 10.1138 13.1334
61 Ni 2.19466 12.6021 9.21373
62 Ni 0.384642 9.26974 9.40665
63 Ni 2.80361 7.65336 12.9827
64 Ni 4.69554 10.9965 12.8891
65 Al 9.27048 -0.0213704 1.73186
66 Al 6.43617 0.975602 3.38639
67 Al 6.46431 1.1321 0.245036
68 Al 9.07025 2.16432 3.91785
69 Al 5.53129 4.37222 3.21944
70 Al 7.93278 5.57385 6.92777
71 Al 5.37918 4.43673 0.390007
72 Al 7.96919 5.34959 3.90498
73 Al 8.98152 2.11326 7.08776
74 Al 7.70443 3.24175 1.69702
75 Al 5.42444 6.51088 5.65657
76 Al 6.88451 3.30035 5.65101
77 Ni 6.81657 5.76272 1.78598
78 Ni 5.06652 2.3828 1.82801
79 Ni 7.55215 0.830869 5.55423
80 Ni 9.38214 4.04144 5.50206
81 Al 9.4743 0.0700112 9.13041
82 Al 6.70838 1.35351 10.6646
83 Al 6.50185 1.18685 7.70112
84 Al 8.97579 2.18677 11.5239
85 Al 5.64467 4.70749 10.7357
86 Al 7.99258 5.73243 14.4793
87 Al 5.49211 4.58099 7.90916
88 Al 8.11998 5.71987 11.5518
89 Al 9.20073 2.29395 14.3398
90 Al 7.79531 3.41512 9.31355
91 Al 5.30998 6.70647 12.9849
92 Al 6.86236 3.50275 12.9787
93 Ni 7.07342 5.81057 9.21328
94 Ni 5.07729 2.66431 9.26959
95 Ni 7.57849 0.918844 13.026
96 Ni 9.43152 4.32609 12.9657
97 Al 9.22255 6.66467 1.71682
98 Al 6.85711 7.76962 3.10664
99 Al 6.51651 7.78057 0.30726
100 Al 9.19214 8.81617 4.1653
101 Al 5.54345 11.1799 3.21253
102 Al 7.9968 12.1769 7.08113
103 Al 5.58052 10.9771 0.423525
104 Al 8.09527 12.3249 4.04141
105 Al 9.13107 8.84005 7.07528
106 Al 7.782 10.0736 1.85308
107 Al 5.12523 13.3833 5.60019
108 Al 7.0591 9.95283 5.40349
109 Ni 7.0357 12.4769 1.86357
110 Ni 5.15005 9.13142 1.84185
111 Ni 7.58585 7.48402 5.45586
112 Ni 9.43781 10.8698 5.62199
113 Al 9.37553 6.83292 9.19505
114 Al 6.58611 7.83511 10.7427
115 Al 6.62155 7.94923 7.78913
116 Al 9.14232 8.9052 11.5061
117 Al 5.60048 11.4174 10.8557
118 Al 7.99335 12.34 14.5445
119 Al 5.63427 11.2299 7.79449
120 Al 7.9825 12.2683 11.4864
121 Al 9.08645 8.93923 14.4608
122 Al 7.7706 10.0567 9.31962
123 Al 5.33948 13.3225 13.0381
124 Al 6.9465 10.0224 12.9115
125 Ni 7.10188 12.6211 9.20423
126 Ni 5.15957 9.16661 9.27437
127 Ni 7.51169 7.68771 12.9938
128 Ni 9.43528 11.1441 13.0011
ITEM: TIMESTEP
4500
ITEM: NUMBER OF ATOMS
128
ITEM: BOX BOUNDS xy xz yz pp pp pp
-4.3398525900732544e-02 9.6310318133484625e+00 -2.8450025781226611e-02
-2.6850513477714166e-02 1.3311694140959585e+01 -1.4922509027279039e-02
2.2598743678861055e-03 1.4851217885443679e+01 8.4975414189414927e-02
ITEM: ATOMS id element xu yu zu
1 Al 4.38355 0.0239085 1.94667
2 Al 1.83849 1.05938 3.41776
3 Al 1.68456 1.00124 0.296932
4 Al 4.25863 2.13275 3.9821
5 Al 0.597451 4.48228 3.15696
6 Al 2.95936 5.5931 7.04931
7 Al 0.725092 4.47055 0.331332
8 Al 2.99396 5.47329 3.98819
9 Al 4.1447 2.17412 7.06957
10 Al 2.7298 3.20371 1.76564
11 Al 0.517851 6.75643 5.5474
12 Al 2.01914 3.30287 5.5178
13 Ni 2.13242 5.67105 1.82031
14 Ni 0.26483 2.45002 1.92275
15 Ni 2.74651 0.983409 5.6311
16 Ni 4.43714 4.20786 5.50114
17 Al 4.35987 0.16717 9.27641
18 Al 1.69069 1.07269 10.6706
19 Al 1.71146 1.16646 7.87778
20 Al 4.10025 2.2673 11.4162
21 Al 0.570912 4.48024 10.7172
22 Al 3.06709 5.52809 14.3806
23 Al 0.589625 4.54221 7.77742
24 Al 3.01721 5.6289 11.4756
25 Al 4.17036 2.1121 14.3942
26 Al 2.78842 3.38639 9.23493
27 Al 0.207501 6.52268 12.8281
28 Al 1.96845 3.35777 12.9459
29 Ni 2.02935 5.78361 9.30478
30 Ni 0.0654616 2.50995 9.20602
31 Ni 2.66989 0.960409 12.8916
32 Ni 4.55062 4.22405 12.9762
33 Al 4.37117 6.58766 1.65537
34 Al 1.8077 7.88485 3.33289
35 Al 1.58979 7.59453 0.280408
36 Al 4.09646 8.98189 4.01849
37 Al 0.755853 10.8826 3.23772
38 Al 3.06912 12.1751 7.07575
39 Al 0.640642 11.0997 0.380399
40 Al 3.13085 12.1991 4.18155
41 Al 4.23061 8.85275 7.0442
42 Al 2.81654 9.99275 1.73629
43 Al 0.527166 13.0808 5.55945
44 Al 2.03622 9.87341 5.50218
45 Ni 2.12897 12.3482 1.82456
46 Ni 0.317253 9.04468 1.82555
47 Ni 2.73475 7.46583 5.55538
48 Ni 4.54898 10.8487 5.46809
49 Al 4.17481 6.72695 9.246
50 Al 1.72093 7.85853 10.7945
51 Al 1.84854 7.99784 7.81704
52 Al 4.19945 8.88931 11.6021
53 Al 0.702051 10.9092 10.6382
54 Al 3.00302 12.1929 14.4063
55 Al 0.597767 11.0586 7.84945
56 Al 3.10733 12.2306 11.5089
57 Al 4.13332 8.82293 14.5096
58 Al 2.97106 10.1097 9.28125
59 Al 0.474049 13.1134 12.952
60 Al 1.95376 9.91368 12.9762
61 Ni 2.02327 12.4076 9.31518
62 Ni 0.122485 9.01495 9.17524
63 Ni 2.61439 7.5534 12.9731
64 Ni 4.52553 10.8942 12.9453
65 Al 9.29944 -0.101472 1.84919
66 Al 6.67166 1.17122 3.22773
67 Al 6.55559 1.00481 0.431383
68 Al 9.00288 2.22076 4.04187
69 Al 5.48237 4.50578 3.29268
70 Al 7.90066 5.5666 7.03028
71 Al 5.49216 4.43786 0.43543
72 Al 7.85818 5.59045 4.17337
73 Al 9.06745 2.15094 6.91499
74 Al 7.74699 3.36242 1.89072
75 Al 5.08376 6.68631 5.51245
76 Al 6.63853 3.31446 5.53227
77 Ni 7.00582 5.70155 1.90267
78 Ni 5.02276 2.39742 1.82009
79 Ni 7.47786 0.987488 5.53335
80 Ni 9.37174 4.28722 5.61976
81 Al 9.16348 0.127844 9.40403
82 Al 6.58417 1.19349 10.6224
83 Al 6.55765 1.13769 7.83786
84 Al 8.88464 2.25847 11.5887
85 Al 5.30867 4.50515 10.6488
86 Al 7.78284 5.46877 14.4665
87 Al 5.40654 4.71523 7.80253
88 Al 7.69004 5.39287 11.5711
89 Al 8.94706 2.21046 14.5579
90 Al 7.55046 3.37045 9.26448
91 Al 5.20171 6.57172 12.963
92 Al 6.80792 3.36446 13.1384
93 Ni 6.79096 5.8247 9.32354
94 Ni 5.09028 2.48299 9.18756
95 Ni 7.30336 1.09056 12.8598
96 Ni 9.3131 4.20861 13.0355
97 Al 9.27241 6.61809 2.06322
98 Al 6.48148 7.78703 3.38105
99 Al 6.66568 7.67057 0.393271
100 Al 8.92236 8.82836 4.03195
101 Al 5.54599 11.1323 3.31577
102 Al 7.93639 12.1905 6.99354
103 Al 5.41077 11.2038 0.364439
104 Al 7.93631 12.0368 3.98692
105 Al 9.07579 8.90668 6.89785
106 Al 7.60097 9.82639 1.76008
107 Al 5.37668 13.2386 5.50761
108 Al 6.86778 9.9632 5.55438
109 Ni 7.0489 12.2625 1.79579
110 Ni 5.06934 9.11498 1.84979
111 Ni 7.49507 7.5598 5.70786
112 Ni 9.38407 10.8306 5.42615
113 Al 9.23299 6.70605 9.31597
114 Al 6.58921 7.962 10.829
115 Al 6.62116 7.73403 7.96954
116 Al 8.95136 8.7926 11.5342
117 Al 5.48379 11.2835 10.6639
118 Al 7.97391 12.23 14.4086
119 Al 5.52858 11.312 7.7479
120 Al 7.96893 12.0956 11.5707
121 Al 8.87573 8.80665 14.4436
122 Al 7.62777 10.0961 9.33653
123 Al 5.22555 13.2325 12.9478
124 Al 6.7996 10.1267 13.008
125 Ni 6.93599 12.3741 9.21706
126 Ni 5.12313 9.13112 9.31453
127 Ni 7.4344 7.51985 13.0341
128 Ni 9.31347 10.7061 12.9696
ITEM: TIMESTEP
4600
ITEM: NUMBER OF ATOMS
128
ITEM: BOX BOUNDS xy xz yz pp pp pp
-1.3144456661051743e-01 9.6836630736725304e+00 -6.8328428135678411e-03
-1.5939037187621713e-01 1.3222139466561096e+01 -7.1954472380655624e-02
-4.5716814889660284e-02 1.4899194574701223e+01 -1.3711911860756759e-01
ITEM: ATOMS id element xu yu zu
1 Al 4.458 -0.0290971 1.63356
2 Al 1.87075 1.23903 3.17567
3 Al 1.77175 1.1665 0.330266
4 Al 4.21426 2.13363 4.04105
5 Al 0.733351 4.32689 3.25277
6 Al 3.0684 5.43088 6.99484
7 Al 0.658712 4.43582 0.376601
8 Al 3.06991 5.48736 4.08296
9 Al 4.08238 2.03205 7.02457
10 Al 2.96248 3.46315 1.88512
11 Al 0.246057 6.58164 5.49814
12 Al 1.93844 3.19804 5.70342
13 Ni 2.03256 5.77744 1.7869
14 Ni 0.183526 2.4235 1.86607
15 Ni 2.58724 0.77145 5.4563
16 Ni 4.57246 4.1239 5.60447
17 Al 4.42688 -0.083524 9.34011
18 Al 1.75891 1.05536 10.7513
19 Al 1.71715 1.1076 7.70486
20 Al 4.16789 1.90348 11.563
21 Al 0.614107 4.34219 10.7576
22 Al 2.93267 5.33393 14.5888
23 Al 0.550468 4.49566 7.85468
24 Al 2.88023 5.34657 11.4835
25 Al 4.06996 2.17273 14.5495
26 Al 2.82356 3.27256 9.12005
27 Al 0.340784 6.41965 12.9426
28 Al 1.86249 3.15659 12.9599
29 Ni 2.1324 5.70263 9.19066
30 Ni 0.248233 2.415 9.31809
31 Ni 2.45331 0.689213 13.0859
32 Ni 4.38249 3.95175 12.9937
33 Al 4.33665 6.59163 1.91581
34 Al 1.59231 7.64285 3.26944
35 Al 1.84496 7.90203 0.399321
36 Al 4.26011 8.63194 4.12101
37 Al 0.501966 11.0217 3.24318
38 Al 3.11359 12.1319 7.06436
39 Al 0.642309 11.1946 0.371241
40 Al 3.10681 12.0367 4.07247
41 Al 4.07821 8.63589 7.01068
42 Al 2.79188 9.90959 1.78265
43 Al 0.237694 13.2321 5.48249
44 Al 1.95722 9.78044 5.62565
45 Ni 2.10291 12.4376 1.73615
46 Ni 0.204429 9.11585 1.77717
47 Ni 2.49737 7.53383 5.51368
48 Ni 4.39208 10.7339 5.60635
49 Al 4.35565 6.52847 9.19299
50 Al 1.76237 7.66285 10.6946
51 Al 1.45214 7.66062 7.80349
52 Al 4.13451 8.64114 11.4982
53 Al 0.692723 10.9924 10.7069
54 Al 2.95168 12.0136 14.4573
55 Al 0.567821 10.9653 7.81743
56 Al 3.02418 11.9792 11.5889
57 Al 4.14235 8.51661 14.4596
58 Al 2.66343 9.8201 9.12871
59 Al 0.191635 13.1404 12.9956
60 Al 1.92313 9.74298 12.951
61 Ni 2.13835 12.3404 9.24048
62 Ni 0.186719 9.05349 9.25952
63 Ni 2.6146 7.35526 12.988
64 Ni 4.3742 10.5361 13.142
65 Al 9.18698 0.0659643 1.77512
66 Al 6.53705 1.18022 3.31185
67 Al 6.72689 1.16635 0.367554
68 Al 8.89678 2.15928 3.92954
69 Al 5.4452 4.41785 3.2844
70 Al 7.8708 5.42916 6.96253
71 Al 5.58354 4.64374 0.190278
72 Al 7.79966 5.42308 4.06383
73 Al 8.94483 2.18922 7.10574
74 Al 7.651 3.31108 1.81662
75 Al 5.19501 6.41735 5.58436
76 Al 6.87932 3.16377 5.47182
77 Ni 6.97415 5.70415 1.77215
78 Ni 5.18416 2.44918 1.88878
79 Ni 7.53443 0.774835 5.51933
80 Ni 9.36426 4.15044 5.62205
81 Al 9.36891 -0.0885463 9.1181
82 Al 6.39559 0.902246 10.8708
83 Al 6.52806 1.11592 7.88035
84 Al 8.85287 2.01291 11.4681
85 Al 5.43404 4.365 10.8045
86 Al 7.90319 5.32021 14.3934
87 Al 5.49586 4.29579 7.90626
88 Al 7.93262 5.30157 11.6031
89 Al 9.00452 2.0573 14.5445
90 Al 7.67909 3.13236 9.27818
91 Al 5.11259 6.31087 13.032
92 Al 6.801 2.95878 12.8343
93 Ni 6.89433 5.69618 9.21468
94 Ni 5.01897 2.24853 9.29638
95 Ni 7.56724 0.521537 13.0623
96 Ni 9.30164 4.01805 13.0027
97 Al 9.28674 6.59956 1.65319
98 Al 6.6052 7.81284 3.21264
99 Al 6.62191 7.68585 0.204492
100 Al 9.05793 8.8358 4.14797
101 Al 5.38636 10.9941 3.29765
102 Al 7.76178 11.9668 7.05529
103 Al 5.53421 10.9819 0.301531
104 Al 7.80823 11.9239 4.10241
105 Al 8.91308 8.73802 7.00749
106 Al 7.74542 10.0425 1.82604
107 Al 5.25479 13.2146 5.54781
108 Al 6.65681 9.84442 5.55332
109 Ni 6.90813 12.4688 1.80179
110 Ni 5.05017 8.96525 1.78837
111 Ni 7.45359 7.46156 5.37239
112 Ni 9.40998 10.7638 5.63036
113 Al 9.2387 6.6676 9.35776
114 Al 6.56112 7.61465 10.814
115 Al 6.49791 7.63885 7.67128
116 Al 8.91021 8.84743 11.4929
117 Al 5.38381 10.8797 10.6859
118 Al 7.84487 11.7132 14.5049
119 Al 5.43172 10.9539 7.92525
120 Al 7.83128 11.9506 11.5818
121 Al 9.01092 8.66358 14.3771
122 Al 7.61924 9.94039 9.31611
123 Al 5.19673 13.064 13.0199
124 Al 6.61756 9.64794 13.0063
125 Ni 6.86634 12.3055 9.26542
126 Ni 5.05524 9.02683 9.2511
127 Ni 7.59308 7.29371 12.9962
128 Ni 9.47127 10.7128 13.0326
ITEM: TIMESTEP
4700
ITEM: NUMBER OF ATOMS
128
ITEM: BOX BOUNDS xy xz yz pp pp pp
-4.3790444753669888e-02 9.7112987497391465e+00 2.3833509868003061e-02
-7.3876474802711894e-02 1.3171986329695102e+01 1.2668972861236985e-02
2.2142403637150920e-03 1.4851263519447855e+01 -1.0175835840005723e-01
ITEM: ATOMS id element xu yu zu
1 Al 4.26118 0.168634 2.01257
2 Al 1.58171 1.20136 3.28955
3 Al 1.78216 1.16661 0.356435
4 Al 4.12584 2.19104 3.95211
5 Al 0.636806 4.45658 3.18402
6 Al 3.12967 5.32458 7.05812
7 Al 0.636658 4.5197 0.350442
8 Al 3.12583 5.42711 4.0545
9 Al 4.15464 2.09406 7.04849
10 Al 2.6812 3.30519 1.80974
11 Al 0.368252 6.52588 5.61122
12 Al 1.94085 3.2557 5.4538
13 Ni 2.20218 5.76702 1.83093
14 Ni 0.171346 2.5304 1.73109
15 Ni 2.62843 0.936774 5.64648
16 Ni 4.56435 4.17587 5.46823
17 Al 4.48577 0.00462076 9.14775
18 Al 1.79153 1.14489 10.8013
19 Al 1.82096 1.01058 7.87867
20 Al 4.29025 2.10586 11.4466
21 Al 0.634688 4.43955 10.7264
22 Al 3.16326 5.39909 14.4678
23 Al 0.734555 4.27185 7.79859
24 Al 3.10821 5.48718 11.5334
25 Al 4.25934 2.11993 14.4282
26 Al 2.74673 3.21804 9.45676
27 Al 0.368339 6.53252 13.0692
28 Al 2.07252 3.25268 13.0512
29 Ni 2.08922 5.68618 9.32109
30 Ni 0.27052 2.3806 9.23694
31 Ni 2.86188 0.764813 12.9405
32 Ni 4.68819 4.23174 12.9428
33 Al 4.36329 6.72875 1.83891
34 Al 1.77531 7.6818 3.24957
35 Al 1.62481 7.60483 0.418211
36 Al 4.23365 8.71135 4.07817
37 Al 0.494801 11.1241 3.20717
38 Al 2.99998 11.9036 6.92196
39 Al 0.710504 10.9352 0.432416
40 Al 3.1797 12.1828 4.11822
41 Al 4.15319 8.74119 6.90048
42 Al 2.85127 9.87781 1.91225
43 Al 0.479464 13.1272 5.6199
44 Al 1.93076 9.79461 5.45443
45 Ni 2.15402 12.395 1.89228
46 Ni 0.278205 9.07008 1.84492
47 Ni 2.68199 7.35471 5.50935
48 Ni 4.57335 10.6477 5.44303
49 Al 4.52891 6.40511 9.30998
50 Al 1.72139 7.52591 10.6866
51 Al 1.7568 7.66601 7.95037
52 Al 4.06708 8.65028 11.4779
53 Al 0.599208 10.9455 10.7205
54 Al 3.04643 11.9974 14.4539
55 Al 0.651063 10.9574 7.79147
56 Al 3.08583 12.0129 11.5248
57 Al 4.10174 8.68167 14.3932
58 Al 2.75285 9.92488 9.46887
59 Al 0.549647 13.0258 13.1231
60 Al 2.01689 9.85661 12.9722
61 Ni 2.12113 12.2172 9.25703
62 Ni 0.303854 9.0193 9.29471
63 Ni 2.62856 7.36129 12.9371
64 Ni 4.60282 10.6953 12.9395
65 Al 9.1246 0.166943 1.80277
66 Al 6.56707 1.20931 3.28482
67 Al 6.533 1.16955 0.474999
68 Al 8.97315 2.07636 4.05108
69 Al 5.50764 4.42892 3.26701
70 Al 7.92488 5.34401 6.99094
71 Al 5.41872 4.41012 0.546083
72 Al 7.89391 5.44647 4.10422
73 Al 8.98746 2.11109 7.12597
74 Al 7.66277 3.31148 1.81407
75 Al 5.26914 6.48274 5.39971
76 Al 7.00292 3.25572 5.60272
77 Ni 7.01085 5.78541 1.77083
78 Ni 5.05673 2.39386 1.89118
79 Ni 7.46812 0.766123 5.54531
80 Ni 9.38123 4.08409 5.49191
81 Al 9.08757 0.168794 9.42014
82 Al 6.65754 1.18846 10.7046
83 Al 6.56495 1.09992 7.88393
84 Al 9.18617 2.1058 11.6429
85 Al 5.59266 4.40356 10.7341
86 Al 7.88482 5.48321 14.4046
87 Al 5.54259 4.31241 7.79792
88 Al 7.9889 5.43838 11.7024
89 Al 9.05211 2.0404 14.4072
90 Al 7.88786 3.27489 9.26394
91 Al 5.37262 6.53415 12.9517
92 Al 6.86905 3.22619 12.9718
93 Ni 7.0473 5.60529 9.22593
94 Ni 5.16398 2.36379 9.26612
95 Ni 7.45093 0.8711 12.9687
96 Ni 9.53213 4.16224 12.869
97 Al 9.2434 6.66969 1.91954
98 Al 6.47444 7.74555 3.45321
99 Al 6.45984 7.85359 0.309535
100 Al 9.01022 8.76136 4.05252
101 Al 5.47689 11.0453 3.33691
102 Al 7.98548 11.9768 7.06279
103 Al 5.41308 11.0181 0.320471
104 Al 7.94713 12.1484 4.09256
105 Al 9.0828 8.8188 7.03502
106 Al 7.6335 9.86568 1.81629
107 Al 5.26611 13.0475 5.52074
108 Al 6.84413 9.84164 5.44118
109 Ni 6.92922 12.2015 1.82285
110 Ni 5.12209 9.02853 1.88871
111 Ni 7.64161 7.39185 5.60722
112 Ni 9.30598 10.7222 5.48325
113 Al 9.31171 6.56699 9.07219
114 Al 6.7509 7.62834 10.6594
115 Al 6.60573 7.76722 7.71438
116 Al 9.14536 8.67446 11.5642
117 Al 5.53464 10.8646 10.579
118 Al 7.91305 12.0527 14.3508
119 Al 5.52395 10.802 7.85543
120 Al 7.89489 12.1038 11.5874
121 Al 8.93276 8.69028 14.445
122 Al 7.66652 9.8541 9.20213
123 Al 5.32796 13.0082 13.0144
124 Al 6.88929 9.77745 12.9982
125 Ni 6.96727 12.1549 9.20414
126 Ni 5.00169 8.96213 9.28393
127 Ni 7.5467 7.42371 12.9497
128 Ni 9.42512 10.7325 13.0198
ITEM: TIMESTEP
4800
ITEM: NUMBER OF ATOMS
128
ITEM: BOX BOUNDS xy xz yz pp pp pp
-3.3705573039409131e-02 9.7318239841779892e+00 4.1918952457645077e-02
-2.7211508537187790e-02 1.3329954014424107e+01 2.5193636424698636e-02
-4.5965902271859704e-02 1.4899443662083428e+01 1.0287429259446358e-01
ITEM: ATOMS id element xu yu zu
1 Al 4.36804 -0.0108652 1.62325
2 Al 1.80271 1.00112 3.30614
3 Al 1.70529 1.08029 0.311304
4 Al 4.23279 2.15104 3.95991
5 Al 0.740361 4.46476 3.27991
6 Al 3.0469 5.4898 6.94074
7 Al 0.678936 4.24404 0.43523
8 Al 3.13234 5.47524 4.0968
9 Al 4.17063 2.20049 6.99151
10 Al 2.84746 3.36442 1.84318
11 Al 0.563713 6.47209 5.45886
12 Al 2.00245 3.18799 5.51915
13 Ni 2.11221 5.7952 1.84669
14 Ni 0.409867 2.39222 1.91965
15 Ni 2.6502 0.688471 5.53709
16 Ni 4.46744 4.26918 5.61351
17 Al 4.44563 0.145445 9.41769
18 Al 1.72936 1.15834 10.6941
19 Al 1.76847 1.2006 7.72944
20 Al 4.06136 2.31862 11.4453
21 Al 0.732287 4.43903 10.8014
22 Al 2.95595 5.63206 14.3394
23 Al 0.623124 4.4337 8.01323
24 Al 3.07494 5.58518 11.5546
25 Al 4.07 2.12189 14.4521
26 Al 2.78633 3.41536 9.18061
27 Al 0.405127 6.72725 12.8419
28 Al 1.79897 3.25715 12.9972
29 Ni 2.17045 5.78877 9.20701
30 Ni 0.216993 2.44553 9.2689
31 Ni 2.6252 0.967559 12.9929
32 Ni 4.5533 4.27048 12.9907
33 Al 4.46676 6.60931 1.82111
34 Al 1.85835 7.72283 3.22581
35 Al 1.76193 7.72159 0.392405
36 Al 4.15757 8.87533 3.9881
37 Al 0.666073 10.9069 3.26461
38 Al 3.04295 12.1924 7.05388
39 Al 0.623227 11.0472 0.227944
40 Al 3.04824 11.9096 4.0739
41 Al 4.31522 9.02685 6.88008
42 Al 2.80735 9.98172 1.80864
43 Al 0.459382 13.2008 5.39476
44 Al 2.12677 9.85138 5.71735
45 Ni 2.14644 12.2805 1.74027
46 Ni 0.279256 9.04268 1.82949
47 Ni 2.81235 7.42728 5.51387
48 Ni 4.6558 10.8823 5.56472
49 Al 4.32358 6.79157 9.3023
50 Al 1.84883 7.83717 10.7677
51 Al 1.65354 7.66971 7.83027
52 Al 4.09572 8.99441 11.5409
53 Al 0.776087 10.9895 10.7043
54 Al 3.12847 12.1551 14.4377
55 Al 0.662195 10.9908 7.7779
56 Al 3.03399 12.0658 11.6191
57 Al 4.23875 9.05533 14.5358
58 Al 2.88483 9.97393 9.15842
59 Al 0.316386 13.349 12.8672
60 Al 1.92807 9.93136 12.9939
61 Ni 2.15567 12.3335 9.23822
62 Ni 0.333531 9.04442 9.2308
63 Ni 2.7644 7.62413 13.0335
64 Ni 4.59417 10.8896 12.9939
65 Al 9.47784 -0.0427006 1.95737
66 Al 6.5171 1.05459 3.2521
67 Al 6.56916 1.3213 0.27344
68 Al 9.09663 2.17513 4.15192
69 Al 5.45123 4.44262 3.25217
70 Al 7.99465 5.59245 6.97431
71 Al 5.44331 4.47509 0.309938
72 Al 7.95093 5.46734 4.14337
73 Al 9.07782 2.28081 6.98616
74 Al 7.83532 3.39161 1.79683
75 Al 5.26747 6.70772 5.55534
76 Al 6.75693 3.23445 5.4665
77 Ni 6.93529 5.74841 1.91345
78 Ni 5.07867 2.46784 1.70513
79 Ni 7.5718 0.962186 5.43524
80 Ni 9.48523 4.20992 5.55324
81 Al 9.23574 0.0632392 9.09173
82 Al 6.5181 1.23212 10.7397
83 Al 6.57765 1.24657 7.82283
84 Al 8.93064 2.27143 11.5177
85 Al 5.45512 4.57817 10.6553
86 Al 8.0889 5.6959 14.525
87 Al 5.53156 4.67142 7.79917
88 Al 8.05628 5.65436 11.5361
89 Al 9.02877 2.22409 14.5587
90 Al 7.64904 3.31509 9.24064
91 Al 5.25679 6.75751 12.9957
92 Al 6.90528 3.59076 13.1033
93 Ni 6.99779 5.90246 9.32842
94 Ni 5.11277 2.5768 9.26508
95 Ni 7.52457 0.987017 12.9643
96 Ni 9.35793 4.19718 13.0568
97 Al 9.34598 6.59764 1.76752
98 Al 6.57005 7.89492 3.28172
99 Al 6.63635 7.80036 0.449661
100 Al 9.03447 8.77264 4.18859
101 Al 5.52034 11.0993 3.33575
102 Al 8.02109 12.2361 6.88992
103 Al 5.65547 11.0547 0.28262
104 Al 7.9747 12.0596 4.08338
105 Al 9.02768 8.74063 6.98146
106 Al 7.72695 10.1602 1.82741
107 Al 5.19126 13.187 5.66614
108 Al 6.85104 9.85206 5.60291
109 Ni 7.14289 12.4913 1.90101
110 Ni 5.09031 9.08793 1.80949
111 Ni 7.46728 7.5023 5.56634
112 Ni 9.48601 10.7379 5.56265
113 Al 9.39364 6.62195 9.44072
114 Al 6.55796 7.79737 10.8674
115 Al 6.77052 7.86714 7.91523
116 Al 8.97952 8.88157 11.4104
117 Al 5.63396 11.1121 10.678
118 Al 7.95919 12.397 14.3808
119 Al 5.64127 11.1307 7.93314
120 Al 7.95937 12.2605 11.5316
121 Al 9.00697 8.96033 14.4407
122 Al 7.65774 10.1139 9.21353
123 Al 5.16414 13.3611 12.9233
124 Al 6.91896 9.99814 13.089
125 Ni 7.07361 12.5165 9.31731
126 Ni 5.25114 9.14354 9.25836
127 Ni 7.51606 7.60786 13.0297
128 Ni 9.36357 10.8682 12.9059
ITEM: TIMESTEP
4900
ITEM: NUMBER OF ATOMS
128
ITEM: BOX BOUNDS xy xz yz pp pp pp
-1.4610492297382649e-02 9.6984530935032645e+00 1.5536081320027290e-02
-2.6205551627925594e-02 1.3342666494510548e+01 3.7300697629621349e-02
-2.3290810847634624e-02 1.4876768570659197e+01 1.1659272959016996e-01
ITEM: ATOMS id element xu yu zu
1 Al 4.48831 -0.0092347 1.98367
2 Al 1.66083 1.14704 3.26788
3 Al 1.8403 1.09477 0.357179
4 Al 4.33579 2.20196 4.15384
5 Al 0.646227 4.43385 3.25936
6 Al 3.14792 5.56584 6.96591
7 Al 0.43739 4.56964 0.44666
8 Al 3.0702 5.51494 4.15127
9 Al 4.12652 2.2002 7.02305
10 Al 2.7289 3.37206 1.71241
11 Al 0.301521 6.60916 5.61367
12 Al 1.9907 3.4877 5.66341
13 Ni 2.07484 5.71752 1.83868
14 Ni 0.201628 2.47315 1.69206
15 Ni 2.73892 0.950862 5.48185
16 Ni 4.62479 4.09181 5.50637
17 Al 4.34634 0.216681 9.09514
18 Al 1.77539 1.28992 10.7932
19 Al 1.68675 1.2353 7.70076
20 Al 4.13674 2.18105 11.5577
21 Al 0.443586 4.5767 10.6511
22 Al 3.12269 5.55186 14.5133
23 Al 0.75598 4.61256 7.87734
24 Al 3.01819 5.56415 11.5332
25 Al 4.2018 2.20597 14.5716
26 Al 2.75745 3.53463 9.18975
27 Al 0.427084 6.45734 13.049
28 Al 1.97984 3.42854 13.0016
29 Ni 2.08451 5.86609 9.27371
30 Ni 0.318772 2.64839 9.22263
31 Ni 2.68813 0.976379 13.0421
32 Ni 4.47428 4.20661 13.086
33 Al 4.42217 6.73567 1.81881
34 Al 1.89593 7.79175 3.34198
35 Al 1.88946 7.63829 0.387905
36 Al 4.24081 8.80945 4.12726
37 Al 0.81039 11.1228 3.32953
38 Al 3.0432 12.2732 6.91566
39 Al 0.6656 11.1211 0.476606
40 Al 3.14636 12.2169 4.10938
41 Al 4.19124 8.81109 7.03253
42 Al 2.84245 9.9775 1.65728
43 Al 0.490874 13.2232 5.60346
44 Al 2.03995 10.0414 5.4588
45 Ni 2.24876 12.3428 1.84809
46 Ni 0.354155 9.00681 1.73858
47 Ni 2.66836 7.57107 5.55186
48 Ni 4.60806 10.8458 5.57609
49 Al 4.35642 6.59435 9.25338
50 Al 1.79662 7.97464 10.8334
51 Al 1.73045 7.83832 7.95953
52 Al 4.32196 8.92057 11.6348
53 Al 0.706594 11.18 10.7858
54 Al 3.11472 12.2214 14.3823
55 Al 0.66065 11.2077 7.79958
56 Al 3.24494 12.1545 11.5193
57 Al 4.43044 8.90549 14.4208
58 Al 2.82928 10.2132 9.1227
59 Al 0.394118 13.211 13.0186
60 Al 2.11461 9.93921 13.0474
61 Ni 2.11141 12.5412 9.27995
62 Ni 0.237148 9.16731 9.2485
63 Ni 2.76833 7.5162 12.9281
64 Ni 4.61467 10.9425 13.0803
65 Al 9.21218 0.195976 1.70037
66 Al 6.79623 1.16081 3.3179
67 Al 6.57432 0.996686 0.305936
68 Al 9.12261 2.19725 4.22333
69 Al 5.53681 4.46406 3.22295
70 Al 7.85678 5.52548 6.92902
71 Al 5.60633 4.42755 0.317872
72 Al 7.96662 5.48019 4.07972
73 Al 9.19331 2.23752 6.99671
74 Al 7.65466 3.35178 1.67117
75 Al 5.32695 6.48601 5.63664
76 Al 6.94413 3.28109 5.68159
77 Ni 6.9813 5.74127 1.80168
78 Ni 5.0749 2.4559 1.95537
79 Ni 7.67241 0.881025 5.65832
80 Ni 9.29896 4.21143 5.51522
81 Al 9.2658 0.0357826 9.35712
82 Al 6.59281 1.08929 10.62
83 Al 6.56017 1.13223 7.75809
84 Al 8.95526 2.16543 11.4643
85 Al 5.35633 4.42355 10.6932
86 Al 7.8159 5.40134 14.213
87 Al 5.42348 4.41119 7.83521
88 Al 7.83135 5.59224 11.5007
89 Al 9.05531 2.41265 14.3521
90 Al 7.62854 3.35591 9.25361
91 Al 5.27219 6.62993 13.0884
92 Al 6.67464 3.11442 12.9694
93 Ni 6.89836 5.85105 9.27124
94 Ni 5.02458 2.47966 9.29965
95 Ni 7.6582 0.870426 13.049
96 Ni 9.41275 4.24257 12.9946
97 Al 9.26666 6.7237 1.87925
98 Al 6.5819 7.59783 3.11528
99 Al 6.73058 7.62861 0.32304
100 Al 8.90091 8.93622 4.06195
101 Al 5.55031 10.9711 3.29479
102 Al 7.93184 12.0839 6.98183
103 Al 5.35838 11.037 0.413809
104 Al 7.91505 12.1368 3.8754
105 Al 8.979 8.81365 6.9924
106 Al 7.50832 9.92089 1.72063
107 Al 5.31021 13.1013 5.36735
108 Al 6.96827 9.93522 5.59896
109 Ni 6.8888 12.3545 1.69976
110 Ni 5.20725 9.10721 1.78712
111 Ni 7.53128 7.5342 5.46866
112 Ni 9.39378 10.8603 5.54771
113 Al 9.16361 6.82154 9.21106
114 Al 6.69924 7.92017 10.6968
115 Al 6.61038 7.76262 7.85602
116 Al 9.19778 8.8921 11.6397
117 Al 5.54467 11.3864 10.7165
118 Al 7.92122 12.0165 14.4002
119 Al 5.52148 11.0843 7.72193
120 Al 7.95794 12.2323 11.5776
121 Al 9.1299 8.88748 14.4079
122 Al 7.51023 10.0871 9.29688
123 Al 5.30487 13.3219 12.9963
124 Al 6.94114 9.99681 12.907
125 Ni 6.96016 12.4675 9.28401
126 Ni 5.14957 9.29172 9.30845
127 Ni 7.52456 7.51638 12.9941
128 Ni 9.50119 10.8174 13.112
ITEM: TIMESTEP
5000
ITEM: NUMBER OF ATOMS
128
ITEM: BOX BOUNDS xy xz yz pp pp pp
-2.1400215878664197e-02 9.6894731225699111e+00 -2.1187273701759883e-03
-8.9165442934867042e-02 1.3250410804730524e+01 3.9185811805190617e-02
-2.5545834505349418e-03 1.4856032343262097e+01 -3.8622851496803987e-02
ITEM: ATOMS id element xu yu zu
1 Al 4.40314 -0.0231937 1.70526
2 Al 1.67437 1.14053 3.24834
3 Al 1.8014 1.13462 0.294217
4 Al 4.1383 2.19705 4.16288
5 Al 0.582517 4.5163 3.28069
6 Al 2.9974 5.43468 7.05358
7 Al 0.757578 4.28055 0.272507
8 Al 3.00547 5.57897 4.09303
9 Al 4.24806 2.25725 6.86407
10 Al 2.84578 3.37028 1.92823
11 Al 0.26365 6.55657 5.57314
12 Al 1.94999 3.30161 5.45808
13 Ni 2.05175 5.71098 1.7502
14 Ni 0.241051 2.43935 1.9038
15 Ni 2.58211 0.844787 5.66646
16 Ni 4.46966 4.29981 5.55751
17 Al 4.53988 -0.0866737 9.5566
18 Al 1.72224 1.05853 10.7769
19 Al 1.88291 1.14154 7.88988
20 Al 4.17697 2.03419 11.5523
21 Al 0.743566 4.33627 10.7023
22 Al 3.06677 5.44058 14.3497
23 Al 0.787606 4.33053 7.90725
24 Al 3.12353 5.51545 11.5741
25 Al 4.35529 2.1325 14.345
26 Al 2.93255 3.342 9.3556
27 Al 0.329778 6.59623 12.8845
28 Al 2.09368 3.23832 12.9505
29 Ni 2.23137 5.73826 9.22238
30 Ni 0.290839 2.42295 9.29003
31 Ni 2.77581 0.747938 12.9389
32 Ni 4.62587 4.0678 12.8908
33 Al 4.50349 6.56434 1.81241
34 Al 1.58093 7.59518 3.33871
35 Al 1.65342 7.79701 0.411541
36 Al 4.01924 8.70403 4.06547
37 Al 0.65404 11.2504 3.31188
38 Al 3.08856 12.1208 7.03045
39 Al 0.878306 10.9994 0.292416
40 Al 3.01478 12.2732 4.17952
41 Al 4.20191 8.70588 7.01544
42 Al 2.8203 10.0917 2.04656
43 Al 0.356819 13.3372 5.55663
44 Al 1.96551 9.86943 5.41213
45 Ni 2.13292 12.4876 1.83487
46 Ni 0.313263 9.18395 1.8228
47 Ni 2.60432 7.48346 5.49475
48 Ni 4.36441 10.8084 5.51149
49 Al 4.42848 6.53158 9.31894
50 Al 1.64431 7.65035 10.7217
51 Al 1.69142 7.93268 7.73593
52 Al 4.10177 8.6332 11.5698
53 Al 0.622616 11.0976 10.6692
54 Al 3.25827 12.1058 14.4239
55 Al 0.764589 11.1956 7.79806
56 Al 3.19251 12.0539 11.5978
57 Al 4.15503 8.70997 14.4537
58 Al 2.79451 10.0027 9.51394
59 Al 0.395267 13.1116 13.0506
60 Al 2.03724 9.90701 12.9742
61 Ni 2.18224 12.3217 9.31787
62 Ni 0.419637 9.04578 9.26231
63 Ni 2.67401 7.43886 12.9863
64 Ni 4.49594 10.6892 12.9096
65 Al 9.30532 0.0371624 1.91117
66 Al 6.44002 0.93271 3.33903
67 Al 6.75196 0.953814 0.390905
68 Al 8.83386 2.21033 4.06936
69 Al 5.46527 4.40638 3.25917
70 Al 7.87773 5.48598 6.93697
71 Al 5.4737 4.55021 0.295173
72 Al 7.86544 5.51529 4.17966
73 Al 8.95326 2.12449 6.99432
74 Al 7.5367 3.3672 1.92405
75 Al 5.25607 6.58779 5.50525
76 Al 6.7338 3.28265 5.32376
77 Ni 6.94145 5.72885 1.77666
78 Ni 5.16668 2.3732 1.79666
79 Ni 7.47459 0.805588 5.40107
80 Ni 9.39419 4.15797 5.5288
81 Al 9.29054 0.0443236 9.17973
82 Al 6.79139 1.0399 10.7063
83 Al 6.67114 1.00567 7.91068
84 Al 9.08638 2.17044 11.5915
85 Al 5.54648 4.34755 10.6856
86 Al 8.0287 5.40883 14.4302
87 Al 5.37166 4.40333 7.91574
88 Al 7.98631 5.37969 11.4769
89 Al 9.02967 2.11728 14.4948
90 Al 7.70661 3.43861 9.35817
91 Al 5.3944 6.35586 12.8532
92 Al 6.96571 3.21968 13.026
93 Ni 6.96904 5.66709 9.18559
94 Ni 5.16791 2.36165 9.24533
95 Ni 7.46874 0.815509 12.952
96 Ni 9.43776 4.21549 12.9633
97 Al 9.25075 6.59457 1.71712
98 Al 6.7408 7.86571 3.20317
99 Al 6.55165 7.68799 0.264614
100 Al 9.07555 8.88719 4.25471
101 Al 5.399 10.8963 3.16275
102 Al 7.98634 12.0472 6.94634
103 Al 5.46076 10.8833 0.484967
104 Al 7.66674 12.0936 4.22246
105 Al 9.01193 9.02343 6.97337
106 Al 7.74064 10.0433 1.85773
107 Al 5.10947 13.2268 5.70006
108 Al 6.69801 9.81969 5.50901
109 Ni 6.95285 12.2876 1.94266
110 Ni 5.00542 8.89975 1.85196
111 Ni 7.70629 7.55553 5.68679
112 Ni 9.60287 10.8673 5.52537
113 Al 9.25104 6.72809 9.24062
114 Al 6.62524 7.70522 10.6072
115 Al 6.63356 7.77376 7.79515
116 Al 8.97935 8.85744 11.4833
117 Al 5.56135 10.8673 10.6637
118 Al 8.01351 12.0084 14.4237
119 Al 5.45771 10.9308 7.79189
120 Al 7.86554 11.9811 11.5011
121 Al 8.94876 8.78928 14.3747
122 Al 7.79667 10.0408 9.25468
123 Al 5.39575 12.9367 13.0536
124 Al 6.73068 9.76492 13.1686
125 Ni 7.0758 12.3601 9.3243
126 Ni 5.02249 8.9539 9.2501
127 Ni 7.56673 7.35542 12.9494
128 Ni 9.43307 10.7997 12.9089
ITEM: TIMESTEP
5100
ITEM: NUMBER OF ATOMS
128
ITEM: BOX BOUNDS xy xz yz pp pp pp
-1.3867832705262206e-01 9.6821851297645320e+00 -1.2552456894001375e-02
-1.3753140553908977e-01 1.3200708337921490e+01 -7.4946562650328660e-02
-4.6010236612782585e-02 1.4899487996424353e+01 -1.3669128091005628e-01
ITEM: ATOMS id element xu yu zu
1 Al 4.35654 0.0313918 1.74461
2 Al 1.70486 1.08347 3.1548
3 Al 1.68034 1.03956 0.377613
4 Al 4.19814 2.05356 3.99529
5 Al 0.62919 4.32387 3.26862
6 Al 3.1414 5.2732 7.08212
7 Al 0.622574 4.51624 0.25551
8 Al 2.99974 5.38173 4.17091
9 Al 4.0456 2.11966 7.05565
10 Al 2.72935 3.40665 1.73889
11 Al 0.346628 6.50665 5.40001
12 Al 2.00874 3.15874 5.57353
13 Ni 2.13661 5.72994 1.84397
14 Ni 0.241727 2.36824 1.83004
15 Ni 2.78579 0.821875 5.50355
16 Ni 4.56673 3.97963 5.51762
17 Al 4.36134 -0.107678 9.26137
18 Al 1.83237 1.04618 10.6965
19 Al 1.58864 0.963451 7.77507
20 Al 4.23607 2.19213 11.5877
21 Al 0.584611 4.30644 10.8165
22 Al 2.98152 5.28697 14.5105
23 Al 0.640171 4.38264 7.73607
24 Al 3.10035 5.33129 11.5195
25 Al 3.92111 2.02766 14.4803
26 Al 2.634 3.21881 9.38551
27 Al 0.280019 6.39815 13.1293
28 Al 2.0086 3.0807 12.9183
29 Ni 2.02304 5.53651 9.25737
30 Ni 0.16971 2.25635 9.29926
31 Ni 2.63274 0.707086 13.0278
32 Ni 4.49074 4.08579 13.054
33 Al 4.38521 6.83137 1.70803
34 Al 1.76894 7.71626 3.34023
35 Al 1.59056 7.7073 0.381773
36 Al 4.08448 8.79524 4.16322
37 Al 0.629768 10.9247 3.2801
38 Al 3.1253 12.0757 6.87769
39 Al 0.369129 11.1083 0.438288
40 Al 2.98116 11.9544 4.08003
41 Al 4.13303 8.75303 6.96772
42 Al 2.70115 9.95761 1.62751
43 Al 0.432639 13.1463 5.58498
44 Al 1.85709 9.9301 5.64535
45 Ni 1.98798 12.3555 1.77257
46 Ni 0.184865 8.99197 1.87281
47 Ni 2.70601 7.41532 5.50336
48 Ni 4.57488 10.762 5.57019
49 Al 4.35774 6.58247 9.16382
50 Al 1.77609 7.612 10.6392
51 Al 1.68282 7.59539 7.73562
52 Al 3.99035 8.64716 11.549
53 Al 0.602133 10.9627 10.7415
54 Al 2.77472 11.7949 14.4203
55 Al 0.496062 10.9864 7.86529
56 Al 2.93543 11.8739 11.6966
57 Al 3.96424 8.63986 14.5223
58 Al 2.73686 9.85818 9.06571
59 Al 0.292351 13.0765 13.0363
60 Al 1.7676 9.69094 12.8877
61 Ni 2.09937 12.2421 9.19179
62 Ni 0.132419 8.94576 9.28575
63 Ni 2.55392 7.32368 12.9903
64 Ni 4.55657 10.6001 12.9853
65 Al 9.15966 0.0661126 1.77441
66 Al 6.71762 1.19242 3.28284
67 Al 6.5527 1.2716 0.165214
68 Al 8.92332 2.08205 4.10294
69 Al 5.57716 4.38645 3.28394
70 Al 7.96076 5.6205 6.89268
71 Al 5.42328 4.3718 0.454662
72 Al 7.87919 5.39173 4.11652
73 Al 8.95942 2.02669 7.05379
74 Al 7.68256 3.41847 1.91572
75 Al 5.11553 6.28669 5.47565
76 Al 6.82953 3.16081 5.58796
77 Ni 6.96935 5.79038 1.84019
78 Ni 5.06608 2.43263 1.77249
79 Ni 7.47423 0.796778 5.57727
80 Ni 9.37998 4.14792 5.4428
81 Al 9.10566 -0.0634543 9.37482
82 Al 6.55328 1.01125 10.857
83 Al 6.56534 1.06141 7.88953
84 Al 9.01633 2.08402 11.4536
85 Al 5.57136 4.48633 10.7121
86 Al 7.74542 5.42736 14.4989
87 Al 5.49742 4.40159 7.81189
88 Al 7.95218 5.42123 11.7425
89 Al 8.98842 2.00722 14.552
90 Al 7.54268 3.32552 9.11942
91 Al 5.14313 6.60756 13.1071
92 Al 6.87585 3.19501 12.885
93 Ni 7.01295 5.71057 9.35246
94 Ni 5.07937 2.48421 9.2423
95 Ni 7.52427 0.774043 13.0644
96 Ni 9.42143 3.92599 13.0016
97 Al 9.2113 6.67531 1.87088
98 Al 6.42933 7.80783 3.22845
99 Al 6.55203 7.94778 0.398133
100 Al 8.96903 8.66564 4.11511
101 Al 5.52094 11.1687 3.23455
102 Al 7.87683 12.0912 6.98411
103 Al 5.45854 11.1006 0.290304
104 Al 8.00594 12.1945 4.10955
105 Al 9.07337 8.49144 6.85781
106 Al 7.51912 9.99658 1.84171
107 Al 5.20895 13.1614 5.46674
108 Al 6.83992 9.87434 5.5864
109 Ni 6.88125 12.4089 1.81398
110 Ni 4.99394 9.2388 1.80918
111 Ni 7.33957 7.38107 5.40535
112 Ni 9.27075 10.6949 5.63255
113 Al 9.23201 6.46908 9.26389
114 Al 6.45214 7.58926 10.7145
115 Al 6.49896 7.71341 7.66405
116 Al 9.11462 8.59294 11.4768
117 Al 5.34578 10.9421 10.8303
118 Al 7.71928 12.1248 14.3828
119 Al 5.26765 10.9649 7.86944
120 Al 7.90293 11.9839 11.4886
121 Al 8.89576 8.61494 14.54
122 Al 7.57922 9.81852 9.28281
123 Al 5.0021 13.0601 12.9809
124 Al 6.95725 9.81985 12.8251
125 Ni 6.82236 12.2602 9.32718
126 Ni 5.13644 8.95702 9.19387
127 Ni 7.59903 7.45147 13.0803
128 Ni 9.29781 10.7225 13.0491
ITEM: TIMESTEP
5200
ITEM: NUMBER OF ATOMS
128
ITEM: BOX BOUNDS xy xz yz pp pp pp
-1.3004251390039165e-01 9.7164053835235951e+00 4.5502023657386807e-02
5.4788216739118489e-02 1.3153466230294587e+01 -9.0144976290420148e-02
-4.0336648851123869e-02 1.4893814408662688e+01 8.3862337412207635e-03
ITEM: ATOMS id element xu yu zu
1 Al 4.35106 0.143571 1.86868
2 Al 1.7244 1.0734 3.21217
3 Al 1.6874 1.24341 0.325386
4 Al 4.0997 2.2333 4.19257
5 Al 0.572871 4.50048 3.3701
6 Al 3.0104 5.48939 6.86318
7 Al 0.698292 4.50637 0.344418
8 Al 3.15491 5.45178 3.99524
9 Al 4.15133 2.11497 6.91303
10 Al 2.70249 3.3003 1.87522
11 Al 0.405128 6.51096 5.64004
12 Al 1.9686 3.22188 5.5567
13 Ni 2.17505 5.7364 1.76695
14 Ni 0.352721 2.50843 1.73379
15 Ni 2.54163 0.788714 5.60619
16 Ni 4.57539 4.27449 5.52813
17 Al 4.13862 0.12566 9.14394
18 Al 1.51819 1.13449 10.7822
19 Al 1.80063 1.21091 7.79792
20 Al 3.91811 2.30919 11.5451
21 Al 0.605281 4.50678 10.7626
22 Al 3.00162 5.42629 14.5186
23 Al 0.650956 4.56276 7.85191
24 Al 2.92984 5.43286 11.526
25 Al 4.08933 2.26174 14.4165
26 Al 2.82125 3.54447 9.12262
27 Al 0.402203 6.62415 12.9745
28 Al 1.70817 3.30839 13.1182
29 Ni 2.09879 5.81357 9.26302
30 Ni 0.333053 2.47 9.23947
31 Ni 2.50687 0.959884 12.9883
32 Ni 4.43672 4.28168 13.0047
33 Al 4.42966 6.67093 1.94529
34 Al 1.79655 7.76411 3.27544
35 Al 1.81592 7.82108 0.307572
36 Al 4.21216 8.77694 4.0508
37 Al 0.68065 11.003 3.15752
38 Al 3.07888 11.7428 7.03143
39 Al 0.76891 11.044 0.237667
40 Al 3.22258 11.9415 4.11267
41 Al 4.16824 8.88329 7.10005
42 Al 2.86515 9.81723 1.8548
43 Al 0.294866 12.9398 5.47304
44 Al 1.71729 9.53249 5.60263
45 Ni 2.14687 12.2663 1.83547
46 Ni 0.254322 8.98841 1.70063
47 Ni 2.73523 7.39979 5.45011
48 Ni 4.62754 10.8251 5.63308
49 Al 4.41183 6.66852 9.41819
50 Al 1.65924 7.93553 10.9175
51 Al 1.78796 7.71257 7.85401
52 Al 4.07066 8.86616 11.693
53 Al 0.575391 10.9157 10.8187
54 Al 3.0037 12.2507 14.462
55 Al 0.696828 10.8349 7.76774
56 Al 3.04067 12.0174 11.5077
57 Al 4.25083 8.83333 14.4568
58 Al 2.75601 9.86811 9.31744
59 Al 0.326307 13.0636 12.9837
60 Al 1.9626 9.88413 13.1386
61 Ni 1.96472 12.2793 9.35598
62 Ni 0.192443 9.03066 9.25536
63 Ni 2.73358 7.52769 13.0468
64 Ni 4.44028 10.9327 13.0073
65 Al 9.30156 0.146043 1.7876
66 Al 6.57983 1.25331 3.36273
67 Al 6.65974 1.18806 0.377051
68 Al 9.04854 2.13137 3.95818
69 Al 5.6185 4.44988 3.2369
70 Al 7.9513 5.40421 7.06718
71 Al 5.50785 4.37697 0.339884
72 Al 7.91485 5.54258 4.12159
73 Al 9.12914 2.05338 6.97976
74 Al 7.65477 3.34918 1.72143
75 Al 5.12647 6.74862 5.51721
76 Al 6.88919 3.35641 5.46667
77 Ni 6.93292 5.7641 1.77353
78 Ni 4.96733 2.53314 1.83791
79 Ni 7.65448 0.937956 5.47661
80 Ni 9.40211 4.13601 5.61567
81 Al 9.22236 0.0447348 9.10533
82 Al 6.60393 1.29924 10.7233
83 Al 6.54582 1.33963 7.78766
84 Al 8.94801 2.35052 11.5478
85 Al 5.43362 4.36398 10.6707
86 Al 7.88181 5.62982 14.5558
87 Al 5.49971 4.2867 7.72393
88 Al 7.83746 5.49482 11.4732
89 Al 8.88192 2.24654 14.3157
90 Al 7.64345 3.42666 9.36916
91 Al 5.07283 6.61938 12.9739
92 Al 6.69374 3.32575 13.0016
93 Ni 6.86806 5.69044 9.26372
94 Ni 5.00806 2.49271 9.3901
95 Ni 7.34829 0.941657 12.9902
96 Ni 9.24065 4.33293 12.9852
97 Al 9.20135 6.76109 1.80411
98 Al 6.52578 7.7718 3.34072
99 Al 6.61016 7.62989 0.420093
100 Al 9.07023 8.68261 4.00342
101 Al 5.60099 11.0944 3.14624
102 Al 7.95274 12.0954 6.89659
103 Al 5.54692 11.0815 0.412233
104 Al 7.97336 11.9456 4.02725
105 Al 8.85965 8.78066 7.03962
106 Al 7.74504 9.9233 1.73833
107 Al 5.37255 13.1732 5.58284
108 Al 6.73182 9.7873 5.37771
109 Ni 7.07096 12.3659 1.69569
110 Ni 5.21874 8.96623 1.71901
111 Ni 7.57108 7.44556 5.63361
112 Ni 9.3218 10.6449 5.48825
113 Al 9.2144 6.59593 9.20778
114 Al 6.55642 7.82571 10.677
115 Al 6.49995 7.59764 7.93897
116 Al 8.82124 8.74213 11.5598
117 Al 5.43788 11.129 10.7797
118 Al 7.94671 12.0126 14.4231
119 Al 5.51271 11.034 7.84167
120 Al 7.78088 12.1344 11.6097
121 Al 8.91765 8.59996 14.3964
122 Al 7.67229 9.92065 9.37881
123 Al 5.1718 13.242 13.0081
124 Al 6.60149 9.79826 13.1319
125 Ni 7.07171 12.4224 9.17161
126 Ni 5.07032 9.01548 9.33916
127 Ni 7.35261 7.40204 13.0222
128 Ni 9.32163 10.6534 12.9902
ITEM: TIMESTEP
5300
ITEM: NUMBER OF ATOMS
128
ITEM: BOX BOUNDS xy xz yz pp pp pp
-5.6789130939486121e-02 9.8072811285423320e+00 8.7166842737726971e-02
-3.9387331224921773e-02 1.3407594367853392e+01 3.2319332608883797e-02
-2.2998947473012343e-02 1.4876476707284587e+01 1.6833882333598935e-01
ITEM: ATOMS id element xu yu zu
1 Al 4.44631 -0.120973 1.86441
2 Al 1.67406 1.31922 3.28248
3 Al 1.70922 1.16317 0.412336
4 Al 4.2262 2.17231 4.04561
5 Al 0.75297 4.3205 3.31761
6 Al 3.0184 5.65824 6.97364
7 Al 0.791026 4.32979 0.357087
8 Al 3.08966 5.60954 4.25935
9 Al 4.18121 2.21955 6.93949
10 Al 2.99216 3.31799 1.76353
11 Al 0.436531 6.56298 5.58766
12 Al 2.02645 3.35172 5.49712
13 Ni 2.15545 5.75437 1.7886
14 Ni 0.163719 2.45415 1.90089
15 Ni 2.82076 1.00893 5.47819
16 Ni 4.50858 4.1047 5.63265
17 Al 4.37437 0.00835876 9.28694
18 Al 1.73192 1.29324 10.7735
19 Al 1.67145 1.35571 7.67873
20 Al 4.24569 2.10314 11.4664
21 Al 0.57179 4.59209 10.7293
22 Al 3.14463 5.64791 14.3917
23 Al 0.640501 4.64433 7.83369
24 Al 3.14082 5.64172 11.5332
25 Al 4.17461 2.34377 14.461
26 Al 2.73786 3.40961 9.30943
27 Al 0.330595 6.69796 13.0226
28 Al 2.11767 3.55983 12.8174
29 Ni 2.09164 5.86261 9.2668
30 Ni 0.172506 2.61527 9.25511
31 Ni 2.61646 1.03294 12.9949
32 Ni 4.60296 4.15536 13.0183
33 Al 4.48746 6.59117 1.82578
34 Al 1.7611 7.90936 3.37829
35 Al 1.6773 7.76163 0.322886
36 Al 4.18764 8.48857 3.95381
37 Al 0.717711 11.1413 3.26794
38 Al 3.23869 12.2246 6.98236
39 Al 0.775951 11.1451 0.37066
40 Al 3.15846 12.2959 4.0288
41 Al 4.12352 8.8705 6.96368
42 Al 2.86483 9.97372 1.88838
43 Al 0.299075 13.3345 5.64119
44 Al 2.22701 10.1012 5.41127
45 Ni 2.15425 12.4256 1.80684
46 Ni 0.306269 9.05664 1.93113
47 Ni 2.59728 7.56539 5.63646
48 Ni 4.63365 10.8142 5.451
49 Al 4.4999 6.90945 9.10628
50 Al 1.78588 7.82599 10.6775
51 Al 1.71146 7.85368 7.9114
52 Al 4.22716 8.79681 11.5969
53 Al 0.748305 11.1751 10.6412
54 Al 3.22476 12.2713 14.3366
55 Al 0.7022 11.2386 7.85453
56 Al 3.25212 12.3122 11.5063
57 Al 4.14111 8.99928 14.504
58 Al 2.87649 10.091 9.33535
59 Al 0.424924 13.5103 13.0596
60 Al 2.01195 10.0116 12.8669
61 Ni 2.29741 12.4845 9.20691
62 Ni 0.270824 9.22119 9.3568
63 Ni 2.66236 7.69581 12.9078
64 Ni 4.72376 10.8247 12.9256
65 Al 9.36566 -0.00923251 1.8407
66 Al 6.65338 1.08104 3.24301
67 Al 6.56077 1.03503 0.362317
68 Al 9.0005 2.247 4.16133
69 Al 5.43267 4.46501 3.18964
70 Al 7.96694 5.53361 7.04055
71 Al 5.51894 4.42653 0.336378
72 Al 7.99072 5.53583 4.05127
73 Al 9.06895 2.28201 6.88715
74 Al 7.63309 3.36437 1.9094
75 Al 5.43799 6.55046 5.59927
76 Al 6.67932 3.29669 5.66797
77 Ni 7.09556 5.716 1.85688
78 Ni 5.23627 2.43495 1.79924
79 Ni 7.46775 0.859624 5.52885
80 Ni 9.48482 4.31996 5.50873
81 Al 9.22465 0.260819 9.40029
82 Al 6.56318 1.17422 10.7127
83 Al 6.55852 1.05168 7.78544
84 Al 9.00596 2.23594 11.4524
85 Al 5.52943 4.47216 10.6881
86 Al 7.87164 5.58301 14.4341
87 Al 5.41739 4.53913 7.86102
88 Al 8.02505 5.52813 11.4663
89 Al 8.98069 2.33164 14.4961
90 Al 7.54394 3.48149 9.26605
91 Al 5.27954 6.68251 13.0295
92 Al 6.87735 3.24276 13.1281
93 Ni 6.99179 5.91463 9.25058
94 Ni 5.09911 2.45377 9.0957
95 Ni 7.69648 1.012 12.9349
96 Ni 9.566 4.20661 12.9697
97 Al 9.34576 6.62349 1.70625
98 Al 6.62528 7.71651 3.20985
99 Al 6.62089 7.73586 0.316758
100 Al 9.10606 8.84848 4.08591
101 Al 5.69941 11.1101 3.41212
102 Al 7.99155 12.2037 7.04724
103 Al 5.68624 10.9267 0.417501
104 Al 8.13809 12.0977 4.20177
105 Al 9.07963 8.87861 7.03919
106 Al 7.77224 9.89657 1.8984
107 Al 5.26696 13.2418 5.43457
108 Al 7.03752 10.0411 5.65226
109 Ni 7.05955 12.2805 1.89166
110 Ni 5.12788 9.04965 1.90784
111 Ni 7.64338 7.58761 5.52402
112 Ni 9.58399 10.949 5.53148
113 Al 9.24209 6.80843 9.33171
114 Al 6.60401 7.90294 10.6881
115 Al 6.6858 7.97589 7.84234
116 Al 9.14234 8.94678 11.6292
117 Al 5.59865 11.1638 10.764
118 Al 8.14894 12.216 14.5598
119 Al 5.56965 11.154 7.59839
120 Al 8.11666 12.3639 11.5391
121 Al 9.09359 8.96995 14.464
122 Al 7.74752 9.95271 9.26728
123 Al 5.57732 13.2746 13.0532
124 Al 6.98541 10.165 12.8872
125 Ni 7.07931 12.4407 9.33689
126 Ni 5.14876 9.25344 9.16613
127 Ni 7.59458 7.71453 12.9304
128 Ni 9.56044 11.0426 13.0374
ITEM: TIMESTEP
5400
ITEM: NUMBER OF ATOMS
128
ITEM: BOX BOUNDS xy xz yz pp pp pp
-2.9978042541271677e-02 9.7438452927221579e+00 8.6285029198052143e-03
-1.2849588964844116e-02 1.3236526512820525e+01 7.4232925004842604e-02
1.8146759350210928e-02 1.4835331000461377e+01 2.3808710563197080e-02
ITEM: ATOMS id element xu yu zu
1 Al 4.45766 0.091777 1.68186
2 Al 1.77678 1.20844 3.21799
3 Al 1.79694 1.07982 0.407411
4 Al 4.03781 2.24652 4.10523
5 Al 0.516875 4.39236 3.28023
6 Al 3.0466 5.48803 7.01288
7 Al 0.569552 4.44948 0.476484
8 Al 3.07186 5.44108 4.06433
9 Al 4.17554 2.31921 7.04974
10 Al 2.93184 3.34005 1.7563
11 Al 0.238151 6.61663 5.47417
12 Al 1.95416 3.34802 5.56906
13 Ni 2.08597 5.70501 1.76611
14 Ni 0.13902 2.40142 1.81684
15 Ni 2.73919 0.953937 5.58455
16 Ni 4.55259 4.22608 5.46316
17 Al 4.47639 0.129089 9.40712
18 Al 1.77333 1.29881 10.8397
19 Al 1.7497 1.25258 7.82976
20 Al 4.28093 2.34986 11.5903
21 Al 0.670646 4.42624 10.7339
22 Al 3.01617 5.3464 14.3573
23 Al 0.688697 4.33039 7.86668
24 Al 2.98276 5.54645 11.6363
25 Al 4.43796 2.18803 14.3615
26 Al 2.89796 3.32134 9.26938
27 Al 0.427469 6.59727 12.9406
28 Al 1.98372 3.17345 13.1362
29 Ni 2.14919 5.77091 9.27736
30 Ni 0.226156 2.38631 9.35017
31 Ni 2.90254 0.671951 12.9596
32 Ni 4.57298 4.28236 12.989
33 Al 4.41598 6.6311 1.59159
34 Al 1.71282 7.71536 3.24483
35 Al 1.71738 7.66971 0.470765
36 Al 4.04 8.89967 4.09427
37 Al 0.665778 11.1506 3.2707
38 Al 3.07203 12.2188 7.05558
39 Al 0.564123 11.0576 0.521609
40 Al 3.03867 12.0363 4.0856
41 Al 4.14301 8.64882 6.99369
42 Al 2.88543 10.0304 1.83658
43 Al 0.410355 13.1576 5.43298
44 Al 2.12716 9.92662 5.75613
45 Ni 2.23331 12.3904 1.88532
46 Ni 0.264573 9.08854 1.87653
47 Ni 2.67023 7.42014 5.43591
48 Ni 4.49786 10.8782 5.68701
49 Al 4.56655 6.6047 9.32313
50 Al 1.82713 7.78667 10.627
51 Al 1.86021 7.72273 7.71049
52 Al 4.11997 8.68237 11.5364
53 Al 0.736719 11.1867 10.6645
54 Al 3.12411 11.9603 14.4676
55 Al 0.690852 11.173 7.87978
56 Al 3.19865 12.1535 11.4497
57 Al 4.34454 8.59814 14.3356
58 Al 2.95432 10.0248 9.18692
59 Al 0.501264 13.0866 12.9258
60 Al 2.19677 9.91094 13.0189
61 Ni 2.30747 12.4284 9.25962
62 Ni 0.439296 9.09924 9.19467
63 Ni 2.72839 7.42275 13.0133
64 Ni 4.56626 10.6744 13.0222
65 Al 9.28481 -0.0625325 1.82829
66 Al 6.54356 1.14458 3.28668
67 Al 6.74259 1.29128 0.463685
68 Al 9.12148 2.13831 4.1258
69 Al 5.51341 4.48919 3.21388
70 Al 7.91514 5.40492 7.01961
71 Al 5.42861 4.43488 0.297282
72 Al 7.93632 5.45288 3.9975
73 Al 9.05922 2.16951 6.98047
74 Al 7.61565 3.43349 1.77017
75 Al 5.20785 6.66693 5.54967
76 Al 6.72683 3.31594 5.4599
77 Ni 6.88312 5.82151 1.83172
78 Ni 5.15817 2.44764 1.80729
79 Ni 7.55715 0.885552 5.57528
80 Ni 9.37404 4.10201 5.5451
81 Al 9.30481 0.0303934 9.14577
82 Al 6.72689 1.12637 10.8374
83 Al 6.61704 1.22402 7.85955
84 Al 9.0878 2.10989 11.5945
85 Al 5.53037 4.66641 10.7717
86 Al 7.92835 5.41935 14.5527
87 Al 5.58488 4.42109 7.76038
88 Al 8.05269 5.52539 11.5612
89 Al 9.20235 2.15148 14.2218
90 Al 7.69665 3.49184 9.26981
91 Al 5.47783 6.56508 12.9328
92 Al 6.91361 3.27813 12.8405
93 Ni 7.04533 5.77853 9.28926
94 Ni 5.29206 2.55026 9.44075
95 Ni 7.53127 0.844092 13.0134
96 Ni 9.46575 4.25042 12.9339
97 Al 9.12771 6.6274 1.92493
98 Al 6.55359 7.74806 3.18366
99 Al 6.70847 7.84708 0.335736
100 Al 8.91137 9.03121 4.02163
101 Al 5.33546 11.1755 3.10155
102 Al 7.84113 12.0793 6.93815
103 Al 5.49516 11.0318 0.366477
104 Al 7.82204 11.9988 4.28944
105 Al 8.91502 8.81945 7.00144
106 Al 7.62068 10.0105 1.77893
107 Al 5.25247 13.185 5.68124
108 Al 6.64756 9.80432 5.59158
109 Ni 6.94154 12.3325 1.81296
110 Ni 5.00485 9.05081 1.81339
111 Ni 7.53804 7.46703 5.50423
112 Ni 9.49952 10.898 5.54015
113 Al 9.25629 6.67272 9.23153
114 Al 6.75919 7.7955 10.7404
115 Al 6.68093 7.8434 7.8433
116 Al 9.14179 8.84522 11.4684
117 Al 5.52245 11.0261 10.7382
118 Al 7.95647 12.0003 14.3256
119 Al 5.4576 11.0333 7.82658
120 Al 7.8301 11.9285 11.4434
121 Al 9.21709 8.84642 14.3916
122 Al 7.88021 10.0402 9.11314
123 Al 5.27176 13.1549 12.8792
124 Al 6.82276 9.78265 12.9662
125 Ni 7.00013 12.453 9.2121
126 Ni 5.21339 8.85745 9.37179
127 Ni 7.80523 7.47985 13.0892
128 Ni 9.47982 10.7513 12.9462
ITEM: TIMESTEP
5500
ITEM: NUMBER OF ATOMS
128
ITEM: BOX BOUNDS xy xz yz pp pp pp
-1.1024246276594427e-01 9.6420549414180456e+00 -7.3608855548138521e-02
-1.7680871112143903e-01 1.3238781480893856e+01 -2.5584488055992127e-02
-8.0091202647880166e-02 1.4933568962459454e+01 -1.3789544352008198e-01
ITEM: ATOMS id element xu yu zu
1 Al 4.30172 -0.0247772 1.94992
2 Al 1.65715 0.992979 3.25669
3 Al 1.63337 1.03969 0.358535
4 Al 4.07614 2.13621 4.1577
5 Al 0.448238 4.48028 3.23346
6 Al 3.04861 5.36924 7.00959
7 Al 0.613428 4.51623 0.281953
8 Al 3.00248 5.39819 4.21158
9 Al 4.14938 2.16545 6.99447
10 Al 2.71366 3.30593 1.81627
11 Al 0.491085 6.37725 5.40868
12 Al 1.92662 3.13426 5.54691
13 Ni 2.01809 5.76872 1.86167
14 Ni 0.374959 2.44622 1.76723
15 Ni 2.5962 0.804496 5.63516
16 Ni 4.63752 4.12262 5.56657
17 Al 4.34013 -0.142999 9.21964
18 Al 1.75099 0.879468 10.7373
19 Al 1.83907 0.907611 7.95236
20 Al 4.19972 1.96702 11.5496
21 Al 0.684985 4.34771 10.7826
22 Al 3.17031 5.38964 14.5718
23 Al 0.688149 4.32502 7.67703
24 Al 3.20472 5.31736 11.5334
25 Al 4.05009 1.9983 14.613
26 Al 2.86402 3.30858 9.2543
27 Al 0.526922 6.26149 13.045
28 Al 1.97166 3.22782 12.952
29 Ni 2.10147 5.62988 9.21757
30 Ni 0.44347 2.34129 9.18146
31 Ni 2.57067 0.87329 13.0124
32 Ni 4.57986 3.99545 13.0291
33 Al 4.30283 6.87725 2.20609
34 Al 1.73656 7.65081 3.28941
35 Al 1.71224 7.7168 0.350056
36 Al 4.06113 8.88799 4.19616
37 Al 0.62926 10.9731 3.20193
38 Al 2.84767 11.981 7.00226
39 Al 0.599164 11.145 0.243532
40 Al 2.85226 11.9618 4.03459
41 Al 4.13003 8.79377 6.87175
42 Al 2.76601 9.8915 1.77056
43 Al 0.420497 13.1034 5.65562
44 Al 1.77489 9.70821 5.39876
45 Ni 1.99893 12.3056 1.81445
46 Ni 0.228852 9.12741 1.59395
47 Ni 2.74503 7.50644 5.59302
48 Ni 4.42522 10.7682 5.57942
49 Al 4.19981 6.74409 9.30003
50 Al 1.71887 7.59598 10.6841
51 Al 1.91719 7.62969 7.80162
52 Al 4.16103 8.72719 11.5417
53 Al 0.467563 10.8803 10.7702
54 Al 3.09122 12.1445 14.5853
55 Al 0.544426 11.0393 7.86801
56 Al 2.79979 11.907 11.6916
57 Al 4.09389 8.78157 14.4359
58 Al 2.6539 9.816 9.24824
59 Al 0.413091 13.08 13.0584
60 Al 1.87909 9.59858 13.0457
61 Ni 1.91504 12.1613 9.34447
62 Ni 0.13124 8.90656 9.21307
63 Ni 2.74803 7.29245 13.0274
64 Ni 4.50195 10.7526 13.0491
65 Al 9.1145 0.0297156 1.76131
66 Al 6.51578 1.08905 3.12641
67 Al 6.30999 1.12672 0.255086
68 Al 8.95056 2.13893 4.04213
69 Al 5.50628 4.50869 3.26955
70 Al 7.92378 5.54621 6.96447
71 Al 5.53453 4.42766 0.274318
72 Al 7.81882 5.48207 4.07699
73 Al 8.97647 2.1784 7.06529
74 Al 7.59644 3.31536 1.84451
75 Al 5.13024 6.49732 5.47043
76 Al 6.84545 3.25386 5.57321
77 Ni 6.98058 5.76111 1.83169
78 Ni 4.98486 2.4368 1.7922
79 Ni 7.56864 0.750585 5.52484
80 Ni 9.35201 4.08527 5.47263
81 Al 9.28172 -0.173494 9.39134
82 Al 6.57442 0.987468 10.7816
83 Al 6.63003 1.00339 7.84695
84 Al 9.07848 2.03943 11.6025
85 Al 5.58547 4.24128 10.6527
86 Al 7.87029 5.53041 14.4449
87 Al 5.52659 4.43256 7.75758
88 Al 7.8721 5.3394 11.599
89 Al 8.84617 1.92824 14.5401
90 Al 7.82052 3.24695 9.2673
91 Al 5.15219 6.48286 13.0889
92 Al 6.74145 3.089 13.0847
93 Ni 7.03471 5.62175 9.23831
94 Ni 5.01497 2.35509 9.17812
95 Ni 7.41604 0.709392 13.0378
96 Ni 9.291 3.9421 13.0459
97 Al 9.17202 6.51464 1.7144
98 Al 6.68328 7.78699 3.2764
99 Al 6.38084 7.72276 0.322413
100 Al 9.07321 8.58595 3.99143
101 Al 5.39218 11.0656 3.08696
102 Al 7.78255 12.0057 6.9422
103 Al 5.38228 11.1869 0.324557
104 Al 8.00987 12.1928 4.00525
105 Al 8.93454 8.62235 7.04248
106 Al 7.582 10.0904 1.8003
107 Al 5.12735 13.1327 5.43704
108 Al 6.81292 9.94072 5.51469
109 Ni 6.79451 12.3692 1.75536
110 Ni 5.13923 9.15983 1.79699
111 Ni 7.36582 7.49573 5.65758
112 Ni 9.13778 10.6642 5.48293
113 Al 9.23663 6.4641 9.32773
114 Al 6.42032 7.53405 10.5105
115 Al 6.41691 7.70707 7.79711
116 Al 8.87235 8.52877 11.5154
117 Al 5.41905 11.1234 10.8704
118 Al 7.82827 11.9937 14.4802
119 Al 5.41027 11.2313 7.76688
120 Al 7.87813 12.0847 11.568
121 Al 8.76124 8.60167 14.4747
122 Al 7.59624 9.76689 9.36011
123 Al 5.09596 13.0713 13.0213
124 Al 6.8749 9.89418 13.0863
125 Ni 6.92188 12.2313 9.34176
126 Ni 4.97625 9.04414 9.16716
127 Ni 7.24057 7.35715 12.8724
128 Ni 9.21945 10.6788 12.9996
ITEM: TIMESTEP
5600
ITEM: NUMBER OF ATOMS
128
ITEM: BOX BOUNDS xy xz yz pp pp pp
-1.7506528270320942e-01 9.6668136216009160e+00 -7.6127886227192146e-02
-7.5375639469254851e-02 1.3201176093917605e+01 -6.3129597131338699e-02
-2.3848011125099156e-02 1.4877325770936666e+01 -7.4067758844156062e-02
ITEM: ATOMS id element xu yu zu
1 Al 4.43412 0.0332338 1.70197
2 Al 1.76217 1.1774 3.19455
3 Al 1.76661 1.31437 0.395353
4 Al 4.19826 2.09257 4.07905
5 Al 0.641135 4.452 3.3518
6 Al 2.97629 5.51537 7.04294
7 Al 0.67766 4.39256 0.461928
8 Al 3.09081 5.5757 4.00337
9 Al 4.07045 2.04225 7.00305
10 Al 2.84768 3.29881 1.909
11 Al 0.289497 6.52863 5.54481
12 Al 2.0029 3.1637 5.54436
13 Ni 2.12409 5.78926 1.78146
14 Ni 0.135889 2.36541 1.88238
15 Ni 2.70138 0.682991 5.40522
16 Ni 4.48548 4.09911 5.56348
17 Al 4.31629 0.0164175 9.23972
18 Al 1.67647 1.02469 10.7496
19 Al 1.77072 1.05315 7.71085
20 Al 3.99712 2.1281 11.5467
21 Al 0.497064 4.36824 10.6779
22 Al 3.00977 5.48836 14.3189
23 Al 0.593914 4.42866 7.83901
24 Al 2.9428 5.33807 11.5218
25 Al 4.09359 2.13975 14.5645
26 Al 2.75869 3.26026 9.17623
27 Al 0.208163 6.56997 13.0153
28 Al 1.85717 3.15741 12.9333
29 Ni 2.09616 5.75768 9.2671
30 Ni 0.066266 2.44204 9.27684
31 Ni 2.57338 0.77617 13.0692
32 Ni 4.44598 4.14415 12.9651
33 Al 4.53164 6.4686 1.52228
34 Al 1.81788 7.85174 3.27177
35 Al 1.72848 7.82257 0.444623
36 Al 4.15569 8.70339 4.15811
37 Al 0.558923 11.0931 3.25964
38 Al 2.99506 11.9852 7.03306
39 Al 0.510074 10.8944 0.420105
40 Al 2.88016 12.012 3.97456
41 Al 3.98571 8.64634 7.12802
42 Al 2.71463 10.0546 1.73557
43 Al 0.362933 13.1744 5.34818
44 Al 2.00482 9.81496 5.44541
45 Ni 2.02962 12.4235 1.7523
46 Ni 0.193936 8.97832 1.95968
47 Ni 2.69377 7.41608 5.48578
48 Ni 4.55148 10.6831 5.52931
49 Al 4.50929 6.47642 9.17781
50 Al 1.62917 7.73317 10.7707
51 Al 1.55271 7.67907 7.77123
52 Al 4.09013 8.7793 11.633
53 Al 0.526516 11.058 10.766
54 Al 2.81786 11.955 14.4126
55 Al 0.654684 10.845 7.94518
56 Al 2.91013 12.108 11.4078
57 Al 4.04897 8.78651 14.4837
58 Al 2.79646 9.88946 9.36681
59 Al 0.250239 13.2767 12.9349
60 Al 1.89239 9.89023 12.8869
61 Ni 1.84399 12.4209 9.16708
62 Ni 0.016632 8.87928 9.47313
63 Ni 2.57956 7.49464 12.9973
64 Ni 4.29987 10.8292 12.9114
65 Al 9.27538 0.054365 1.79028
66 Al 6.60499 1.25491 3.30271
67 Al 6.59292 1.23296 0.351608
68 Al 8.97509 2.20333 4.1826
69 Al 5.57351 4.45756 3.45803
70 Al 7.72026 5.42472 6.96746
71 Al 5.57879 4.38237 0.309513
72 Al 7.9236 5.40907 4.03084
73 Al 9.03784 2.12325 7.04161
74 Al 7.66373 3.43974 1.96306
75 Al 5.12118 6.48821 5.58078
76 Al 6.89975 3.32662 5.63507
77 Ni 7.00689 5.67299 1.842
78 Ni 5.16427 2.43101 1.79963
79 Ni 7.4316 0.859554 5.59302
80 Ni 9.39546 4.20965 5.59223
81 Al 9.24328 -0.0379411 9.34686
82 Al 6.47829 1.0404 10.7238
83 Al 6.52382 1.02338 7.74234
84 Al 8.85995 2.25253 11.4813
85 Al 5.44449 4.309 10.7529
86 Al 7.90546 5.37754 14.4661
87 Al 5.30811 4.19228 7.76363
88 Al 7.80741 5.5431 11.4805
89 Al 8.84867 2.18554 14.4252
90 Al 7.46006 3.18197 9.16335
91 Al 5.14459 6.58938 12.9076
92 Al 6.69898 3.36326 13.0089
93 Ni 6.82967 5.67219 9.29323
94 Ni 4.98476 2.31053 9.2289
95 Ni 7.54053 0.899333 12.9466
96 Ni 9.37841 4.13983 12.9767
97 Al 9.2822 6.40011 1.85792
98 Al 6.47349 7.57857 3.23288
99 Al 6.60129 7.63615 0.421618
100 Al 8.91587 8.79402 4.02611
101 Al 5.36178 11.0368 3.09332
102 Al 7.78956 11.9571 6.93866
103 Al 5.36456 11.0585 0.465084
104 Al 7.82152 12.0153 4.15299
105 Al 8.90214 8.7725 7.02995
106 Al 7.53077 9.96666 1.68711
107 Al 5.00263 13.1445 5.54349
108 Al 6.77803 9.77317 5.6153
109 Ni 6.99748 12.4752 1.91848
110 Ni 5.05386 9.03092 1.7244
111 Ni 7.41407 7.40857 5.36881
112 Ni 9.34914 10.7354 5.57948
113 Al 9.15252 6.56041 9.33193
114 Al 6.39318 7.79621 10.81
115 Al 6.50658 7.66714 7.80793
116 Al 8.87565 8.77359 11.6194
117 Al 5.33817 11.1186 10.7033
118 Al 7.7472 11.9473 14.4189
119 Al 5.4181 11.0704 7.87418
120 Al 7.74679 11.9574 11.5833
121 Al 8.93618 8.66741 14.5197
122 Al 7.61071 9.82878 9.3056
123 Al 5.08965 13.2692 13.0306
124 Al 6.60752 9.77253 12.8932
125 Ni 6.91475 12.3795 9.21106
126 Ni 5.07626 8.99684 9.36156
127 Ni 7.34281 7.40409 13.1071
128 Ni 9.19777 10.6797 12.9954
ITEM: TIMESTEP
5700
ITEM: NUMBER OF ATOMS
128
ITEM: BOX BOUNDS xy xz yz pp pp pp
-7.9960864975046952e-02 9.7915993804213581e+00 6.0944225592992209e-02
1.0600039776307746e-02 1.3322725759418185e+01 1.9688467597089410e-02
1.9934313442215412e-02 1.4833543446369347e+01 1.3345758590199103e-01
ITEM: ATOMS id element xu yu zu
1 Al 4.35585 0.112179 1.88241
2 Al 1.73033 1.18052 3.30549
3 Al 1.73809 1.11628 0.324094
4 Al 4.20391 2.12576 4.12437
5 Al 0.685359 4.46679 3.27987
6 Al 3.03603 5.62491 7.08148
7 Al 0.5757 4.52201 0.477806
8 Al 3.00865 5.59341 4.14891
9 Al 4.22119 2.26669 7.1184
10 Al 2.97856 3.28913 1.62513
11 Al 0.366991 6.58548 5.66892
12 Al 2.02753 3.33217 5.5924
13 Ni 2.13692 5.72476 1.8993
14 Ni 0.398948 2.52902 1.78027
15 Ni 2.6383 1.075 5.62164
16 Ni 4.53649 4.21268 5.51292
17 Al 4.44826 0.166806 9.21338
18 Al 1.74817 1.26811 10.6726
19 Al 1.74788 1.23951 7.77557
20 Al 4.11551 2.31128 11.4415
21 Al 0.643569 4.49582 10.6966
22 Al 3.13187 5.59427 14.4607
23 Al 0.669899 4.4595 7.89714
24 Al 3.02186 5.68957 11.5859
25 Al 4.32275 2.22221 14.3402
26 Al 2.89767 3.45399 9.25063
27 Al 0.291219 6.65081 12.9602
28 Al 2.13281 3.48927 12.9602
29 Ni 2.04875 5.82564 9.24523
30 Ni 0.0825997 2.60405 9.23814
31 Ni 2.6587 1.00015 12.849
32 Ni 4.49097 4.27158 12.9542
33 Al 4.36047 6.77086 1.96293
34 Al 1.60328 7.71285 3.3133
35 Al 1.7417 7.79816 0.398656
36 Al 4.0623 8.65165 4.09559
37 Al 0.713455 11.0915 3.30225
38 Al 3.13827 12.3006 6.95797
39 Al 0.756299 11.1624 0.427562
40 Al 3.17358 12.3379 4.20006
41 Al 4.19888 8.80529 6.98941
42 Al 2.7724 9.96116 1.92325
43 Al 0.357196 13.2723 5.60209
44 Al 2.03843 9.90321 5.67844
45 Ni 2.29172 12.3141 1.95997
46 Ni 0.302013 9.16253 1.78153
47 Ni 2.57565 7.49177 5.57427
48 Ni 4.45623 10.7889 5.53291
49 Al 4.29858 6.8848 9.33708
50 Al 1.57502 7.96546 10.6604
51 Al 1.7819 7.85163 7.82947
52 Al 4.10143 8.73009 11.547
53 Al 0.695449 11.2113 10.6098
54 Al 3.19064 12.1658 14.3248
55 Al 0.648367 11.3384 7.78496
56 Al 3.15709 12.2456 11.5206
57 Al 4.23041 8.82883 14.4688
58 Al 2.85517 10.0865 9.12252
59 Al 0.503274 13.3724 12.9478
60 Al 2.06195 10.0565 13.0516
61 Ni 2.30333 12.4043 9.32717
62 Ni 0.365688 9.31802 9.06186
63 Ni 2.60335 7.5949 12.9642
64 Ni 4.6268 10.7175 12.9458
65 Al 9.28719 0.121384 2.00187
66 Al 6.60459 1.05873 3.29135
67 Al 6.64775 1.11122 0.45641
68 Al 9.04995 2.12069 3.97799
69 Al 5.46417 4.50156 3.24809
70 Al 8.03698 5.46862 7.01771
71 Al 5.46517 4.53502 0.410431
72 Al 7.88995 5.38114 4.10989
73 Al 8.89506 2.33601 6.99017
74 Al 7.6726 3.39016 1.67059
75 Al 5.33385 6.55696 5.57396
76 Al 6.65491 3.10026 5.39017
77 Ni 7.00979 5.81908 1.79536
78 Ni 5.21561 2.42625 1.78488
79 Ni 7.62262 0.831889 5.48847
80 Ni 9.4793 4.19729 5.48479
81 Al 9.22226 0.189474 9.16926
82 Al 6.60092 1.2356 10.5973
83 Al 6.5542 1.23339 7.8614
84 Al 9.06316 2.16433 11.4656
85 Al 5.37974 4.71586 10.7504
86 Al 7.94375 5.58117 14.3959
87 Al 5.39981 4.62031 7.79893
88 Al 7.83279 5.51944 11.495
89 Al 9.05306 2.27064 14.296
90 Al 7.72179 3.61936 9.35434
91 Al 5.43763 6.52786 13.1532
92 Al 6.81252 3.30773 12.841
93 Ni 6.99135 5.85032 9.30147
94 Ni 5.14163 2.62317 9.33395
95 Ni 7.49784 0.922103 13.0022
96 Ni 9.52224 4.33509 12.9874
97 Al 9.12948 6.85403 1.80704
98 Al 6.70932 7.70458 3.3897
99 Al 6.62508 7.73999 0.354736
100 Al 9.1183 8.83681 4.1551
101 Al 5.57008 10.9941 3.45861
102 Al 7.96265 12.1423 7.0368
103 Al 5.46784 10.8447 0.516789
104 Al 8.05631 11.9278 4.01111
105 Al 9.12464 8.95899 6.96796
106 Al 7.79239 9.81323 2.04286
107 Al 5.44905 13.0914 5.65508
108 Al 6.7767 9.81157 5.44331
109 Ni 6.94732 12.2017 1.71718
110 Ni 5.13788 9.05045 1.88621
111 Ni 7.68437 7.48584 5.69928
112 Ni 9.54598 10.8469 5.48789
113 Al 9.35938 6.98327 9.16431
114 Al 6.68228 7.8622 10.8114
115 Al 6.62446 7.73862 7.94106
116 Al 9.19796 9.01562 11.4307
117 Al 5.45363 10.9249 10.711
118 Al 8.08947 12.2253 14.4178
119 Al 5.57407 10.995 7.74045
120 Al 8.05806 12.1425 11.5134
121 Al 9.23263 9.06807 14.3656
122 Al 7.83665 9.99775 9.25443
123 Al 5.33807 13.2293 12.8983
124 Al 7.02847 9.8602 12.9544
125 Ni 6.88712 12.3815 9.28467
126 Ni 5.11239 9.06628 9.29027
127 Ni 7.79244 7.61519 12.9739
128 Ni 9.56175 10.9604 12.9763
ITEM: TIMESTEP
5800
ITEM: NUMBER OF ATOMS
128
ITEM: BOX BOUNDS xy xz yz pp pp pp
-4.7957242543348322e-02 9.8620936909684076e+00 1.0171129044969725e-01
-7.2494784415804148e-03 1.3353106424923235e+01 8.1419335719139022e-02
-2.8908002108896547e-02 1.4882385761920464e+01 1.4598873318914929e-01
ITEM: ATOMS id element xu yu zu
1 Al 4.43116 0.0820773 1.78743
2 Al 1.60826 1.09344 3.24823
3 Al 1.65556 1.11014 0.350792
4 Al 4.06321 2.25675 4.11921
5 Al 0.542419 4.48943 3.18246
6 Al 3.07056 5.5596 7.02352
7 Al 0.682832 4.45009 0.232668
8 Al 3.16084 5.46418 4.03178
9 Al 4.18217 2.29663 7.03947
10 Al 2.78186 3.43778 1.96145
11 Al 0.381184 6.81178 5.53277
12 Al 1.86733 3.25776 5.41218
13 Ni 2.14923 5.74336 1.79531
14 Ni 0.0887694 2.45803 1.83211
15 Ni 2.66718 0.91345 5.51496
16 Ni 4.67066 4.21706 5.51982
17 Al 4.49296 0.245623 9.42611
18 Al 1.84735 1.23329 10.8965
19 Al 1.82004 1.21319 7.70564
20 Al 4.24004 2.40051 11.5753
21 Al 0.77041 4.50456 10.7104
22 Al 3.20051 5.56152 14.4737
23 Al 0.626452 4.59415 7.80798
24 Al 3.13335 5.43328 11.5128
25 Al 4.0861 2.42893 14.4992
26 Al 2.91668 3.44317 9.36601
27 Al 0.436076 6.63916 12.99
28 Al 2.03179 3.23555 13.1363
29 Ni 2.12222 5.82337 9.24399
30 Ni 0.377322 2.52261 9.33112
31 Ni 2.8941 0.89586 13.0134
32 Ni 4.72211 4.35514 13.0144
33 Al 4.54781 6.55537 1.80673
34 Al 1.85589 7.81845 3.28831
35 Al 1.67531 7.78067 0.245285
36 Al 4.28637 8.9002 4.10836
37 Al 0.65461 11.0543 3.18584
38 Al 3.20845 12.286 6.81561
39 Al 0.801335 10.9798 0.316553
40 Al 3.20276 12.0914 4.06637
41 Al 4.19306 8.75452 7.06917
42 Al 2.89887 9.97659 1.71314
43 Al 0.416856 13.2042 5.57206
44 Al 2.06464 9.9863 5.555
45 Ni 2.21047 12.3621 1.7625
46 Ni 0.27008 9.08293 1.88357
47 Ni 2.64638 7.58592 5.55043
48 Ni 4.78115 10.8669 5.60488
49 Al 4.57253 6.72961 9.19429
50 Al 1.85745 7.91325 10.7033
51 Al 1.69179 7.82255 7.88264
52 Al 4.29556 9.03662 11.4973
53 Al 0.727392 11.1921 10.6249
54 Al 3.34437 12.2381 14.4521
55 Al 0.72096 11.1371 7.88906
56 Al 3.20193 12.1732 11.5331
57 Al 4.32836 8.846 14.4871
58 Al 2.84759 10.0193 9.31955
59 Al 0.519755 13.2812 13.0223
60 Al 2.06943 9.92371 12.9938
61 Ni 2.42077 12.5597 9.28973
62 Ni 0.338578 9.18529 9.39507
63 Ni 2.74339 7.59869 12.9608
64 Ni 4.62681 10.8649 13.0586
65 Al 9.26631 -0.00270363 1.6492
66 Al 6.64601 1.35324 3.35047
67 Al 6.59574 1.16686 0.340561
68 Al 9.0421 2.21983 4.14064
69 Al 5.57263 4.29107 3.28577
70 Al 8.02119 5.64636 6.96369
71 Al 5.57885 4.34316 0.382424
72 Al 7.954 5.62132 4.09713
73 Al 9.17621 2.14243 6.96389
74 Al 7.60216 3.29943 1.91015
75 Al 5.30589 6.55979 5.52243
76 Al 6.94077 3.36312 5.664
77 Ni 6.93792 5.68439 1.85575
78 Ni 4.95618 2.43345 1.83776
79 Ni 7.56566 0.993573 5.53787
80 Ni 9.35606 4.2612 5.5552
81 Al 9.32011 0.301855 9.25315
82 Al 6.64322 1.3333 10.6846
83 Al 6.54185 1.16624 7.75421
84 Al 9.13243 2.24268 11.5086
85 Al 5.82292 4.51162 10.8243
86 Al 7.94732 5.6519 14.5092
87 Al 5.58054 4.50372 7.7888
88 Al 8.05932 5.61145 11.5084
89 Al 9.11608 2.16944 14.4096
90 Al 7.87734 3.34084 9.24135
91 Al 5.2433 6.75045 12.8062
92 Al 7.09596 3.37987 13.1271
93 Ni 7.16046 5.84727 9.2223
94 Ni 5.18679 2.51651 9.17077
95 Ni 7.70542 0.909007 13.0082
96 Ni 9.45127 4.2667 13.0247
97 Al 9.31516 6.61556 1.89212
98 Al 6.72685 7.85751 3.22691
99 Al 6.67505 7.71661 0.362534
100 Al 9.04579 8.98918 4.12842
101 Al 5.65053 11.0149 3.32835
102 Al 8.0279 12.2097 7.10111
103 Al 5.6804 11.135 0.31747
104 Al 7.99394 12.189 4.21089
105 Al 9.1551 8.84487 7.13781
106 Al 7.91376 10.0274 1.83505
107 Al 5.3767 13.3004 5.34556
108 Al 6.92054 9.94062 5.55244
109 Ni 7.14655 12.3823 1.88727
110 Ni 5.15746 8.96304 1.77752
111 Ni 7.63076 7.53524 5.47777
112 Ni 9.5788 10.8928 5.57155
113 Al 9.51613 6.71781 9.32514
114 Al 6.86671 7.72709 10.5446
115 Al 6.79645 7.87588 7.78878
116 Al 9.13191 8.92948 11.5669
117 Al 5.65628 11.1171 10.7565
118 Al 8.16097 12.2121 14.4193
119 Al 5.44751 11.1198 7.90095
120 Al 8.21417 12.22 11.5274
121 Al 9.13435 8.97772 14.4287
122 Al 7.74108 10.0623 9.17621
123 Al 5.48368 13.2807 12.9188
124 Al 7.079 9.96668 13.0607
125 Ni 7.14177 12.4915 9.17426
126 Ni 5.15531 9.10655 9.12231
127 Ni 7.58691 7.62759 12.9389
128 Ni 9.62802 10.8272 12.9811
ITEM: TIMESTEP
5900
ITEM: NUMBER OF ATOMS
128
ITEM: BOX BOUNDS xy xz yz pp pp pp
-1.2360366985686086e-02 9.6580699580965454e+00 -4.3564847652183139e-03
-1.3190110902603064e-01 1.3210885621698253e+01 1.9060253619865082e-02
-4.9734212773643094e-02 1.4903211972585225e+01 -1.2088370062027627e-01
ITEM: ATOMS id element xu yu zu
1 Al 4.39992 0.110332 1.72821
2 Al 1.89183 1.12443 3.31789
3 Al 1.75726 1.08798 0.371919
4 Al 4.22527 2.28048 3.98892
5 Al 0.691459 4.43283 3.32688
6 Al 3.09188 5.50437 7.01832
7 Al 0.617497 4.48575 0.262893
8 Al 3.18238 5.3762 4.0141
9 Al 4.30005 2.04924 6.96211
10 Al 2.82749 3.36746 1.7087
11 Al 0.618432 6.43049 5.47504
12 Al 2.10544 3.19672 5.62753
13 Ni 2.13772 5.72223 1.83801
14 Ni 0.404996 2.3612 1.92747
15 Ni 2.7945 0.696863 5.54014
16 Ni 4.5267 4.20199 5.51477
17 Al 4.30488 -0.0584839 9.19984
18 Al 1.70465 0.923928 10.7154
19 Al 1.73487 0.95343 7.70946
20 Al 4.1729 1.95166 11.5563
21 Al 0.725956 4.51927 10.6072
22 Al 3.00221 5.17049 14.4124
23 Al 0.71887 4.56844 7.81438
24 Al 3.20785 5.31276 11.5178
25 Al 4.2342 2.10269 14.4556
26 Al 2.8624 3.27418 9.11609
27 Al 0.643609 6.47828 12.9924
28 Al 2.09257 3.14884 12.9353
29 Ni 2.36375 5.62209 9.28353
30 Ni 0.276088 2.29449 9.27023
31 Ni 2.63154 0.90291 13.0493
32 Ni 4.61602 4.00034 12.9711
33 Al 4.35749 6.72751 1.71482
34 Al 1.79017 7.66766 3.27292
35 Al 1.87536 7.74205 0.341037
36 Al 4.20389 8.8445 3.99023
37 Al 0.624019 10.8911 3.31834
38 Al 3.15917 11.8307 7.09765
39 Al 0.510804 10.9581 0.406904
40 Al 2.97624 11.9987 4.07044
41 Al 4.23427 8.96414 7.01382
42 Al 2.69874 9.91777 1.77697
43 Al 0.458242 13.0323 5.55711
44 Al 2.00897 9.7458 5.49768
45 Ni 1.9818 12.2771 1.78823
46 Ni 0.276151 8.99624 1.7363
47 Ni 2.8376 7.41298 5.48232
48 Ni 4.46938 10.7331 5.44461
49 Al 4.53819 6.61826 9.3886
50 Al 1.70711 7.47494 10.5857
51 Al 1.78165 7.58196 7.7876
52 Al 4.11935 8.732 11.5916
53 Al 0.72181 10.7555 10.8123
54 Al 2.92445 11.9512 14.4241
55 Al 0.552624 10.7657 7.65643
56 Al 3.06212 12.1244 11.4783
57 Al 4.21903 8.81663 14.4243
58 Al 2.8426 9.73194 9.26494
59 Al 0.334717 12.9868 13.0729
60 Al 1.96527 9.75041 12.9801
61 Ni 1.95017 12.0763 9.29744
62 Ni 0.327176 8.86909 9.19488
63 Ni 2.87444 7.27852 13.0646
64 Ni 4.57662 10.8594 12.962
65 Al 9.23826 0.0436094 1.80151
66 Al 6.57873 1.05074 3.29975
67 Al 6.60104 1.09658 0.302828
68 Al 8.87016 2.15723 4.08533
69 Al 5.40614 4.54376 3.15356
70 Al 7.9575 5.54279 7.00697
71 Al 5.44887 4.55039 0.395511
72 Al 7.89848 5.53186 4.13329
73 Al 9.01967 2.04519 6.93889
74 Al 7.69941 3.39884 1.75194
75 Al 5.17682 6.61862 5.46998
76 Al 6.83628 3.35297 5.57057
77 Ni 6.97182 5.83166 1.75538
78 Ni 5.21487 2.53885 1.79558
79 Ni 7.38825 0.873074 5.52815
80 Ni 9.45696 4.10113 5.61813
81 Al 9.228 -0.140903 9.41267
82 Al 6.51333 1.05125 10.7602
83 Al 6.58041 1.1363 7.89672
84 Al 9.12616 2.13525 11.5654
85 Al 5.46487 4.29299 10.6916
86 Al 7.90999 5.41099 14.484
87 Al 5.47964 4.32062 7.82829
88 Al 7.81305 5.41649 11.5786
89 Al 9.01563 2.07285 14.4811
90 Al 7.64669 3.17541 9.289
91 Al 5.3105 6.28857 13.1641
92 Al 6.86239 3.18027 12.8996
93 Ni 6.78831 5.78049 9.33617
94 Ni 5.00741 2.26654 9.26779
95 Ni 7.45235 0.882062 13.0391
96 Ni 9.38755 4.09915 13.051
97 Al 9.27745 6.67003 1.76061
98 Al 6.50855 7.74403 3.25749
99 Al 6.41774 7.74877 0.336775
100 Al 8.97031 8.5648 3.96935
101 Al 5.42667 11.073 3.25243
102 Al 7.94142 12.2316 7.09977
103 Al 5.3751 11.2827 0.190946
104 Al 7.9326 12.1495 4.08346
105 Al 9.02401 8.48097 7.02524
106 Al 7.57126 9.83819 1.54814
107 Al 5.12791 13.1732 5.70679
108 Al 6.90937 10.06 5.55393
109 Ni 6.90757 12.3743 1.80855
110 Ni 5.09744 9.08156 1.79986
111 Ni 7.42243 7.52656 5.51507
112 Ni 9.28315 10.7482 5.48571
113 Al 9.10025 6.57144 9.2621
114 Al 6.65981 7.65717 10.8913
115 Al 6.47687 7.59036 7.85356
116 Al 8.99274 8.58483 11.5142
117 Al 5.39764 11.0604 10.6494
118 Al 7.81009 11.9879 14.4482
119 Al 5.727 11.0108 7.78684
120 Al 7.83281 12.0701 11.7556
121 Al 8.9613 8.59553 14.4255
122 Al 7.69994 9.87905 9.36962
123 Al 5.13455 13.0676 13.132
124 Al 6.9334 9.72348 13.0583
125 Ni 7.06383 12.3325 9.35408
126 Ni 5.19877 9.12743 9.3569
127 Ni 7.46058 7.32901 13.1043
128 Ni 9.25321 10.6397 13.0273
ITEM: TIMESTEP
6000
ITEM: NUMBER OF ATOMS
128
ITEM: BOX BOUNDS xy xz yz pp pp pp
-2.3370411452569856e-01 9.6703406290061320e+00 -1.2832264805669666e-01
-2.5752912056065475e-01 1.3240378599061373e+01 -6.6046659719080622e-02
-6.3636287954071946e-03 1.4859841388606988e+01 -2.1701873479177630e-01
ITEM: ATOMS id element xu yu zu
1 Al 4.45534 0.134057 1.84711
2 Al 1.82841 1.11564 3.27741
3 Al 1.73333 1.15007 0.328377
4 Al 4.18803 1.99235 4.14611
5 Al 0.679305 4.30058 3.33943
6 Al 2.83018 5.34191 7.00643
7 Al 0.716361 4.41304 0.321441
8 Al 2.96739 5.41855 4.27318
9 Al 4.14611 2.03181 7.08912
10 Al 2.80739 3.32722 2.02389
11 Al 0.230738 6.5048 5.68549
12 Al 1.88113 3.17779 5.60424
13 Ni 2.1028 5.73562 1.86003
14 Ni 0.178982 2.39854 1.71498
15 Ni 2.56288 0.82227 5.6008
16 Ni 4.60408 4.04317 5.63617
17 Al 4.45522 -0.125162 9.27486
18 Al 1.58059 0.957262 10.6334
19 Al 1.74052 1.04572 7.89331
20 Al 4.01471 2.01978 11.5562
21 Al 0.507856 4.23652 10.7303
22 Al 3.17916 5.4459 14.5257
23 Al 0.612225 4.34413 7.74565
24 Al 2.80809 5.30171 11.5281
25 Al 4.06219 1.91097 14.3329
26 Al 2.72998 3.28458 9.3152
27 Al 0.306034 6.4045 13.0165
28 Al 1.85499 3.00293 13.0066
29 Ni 1.86904 5.57824 9.28507
30 Ni 0.0700147 2.30156 9.21808
31 Ni 2.54917 0.531264 12.9057
32 Ni 4.26406 4.02071 12.9802
33 Al 4.37717 6.60047 2.00813
34 Al 1.64729 7.71892 3.24722
35 Al 1.65127 7.67705 0.477053
36 Al 4.01751 8.7027 4.04576
37 Al 0.539752 11.2045 3.27044
38 Al 2.7531 12.0213 6.87058
39 Al 0.557937 11.1684 0.383566
40 Al 2.88847 12.0955 4.17583
41 Al 4.076 8.73074 6.92764
42 Al 2.63752 10.0812 1.8406
43 Al 0.304708 13.0941 5.44209
44 Al 1.87415 9.78049 5.51028
45 Ni 2.01344 12.5178 1.81922
46 Ni 0.145915 9.01593 1.78833
47 Ni 2.45289 7.38412 5.54293
48 Ni 4.3461 10.6919 5.5498
49 Al 4.26579 6.40211 9.26896
50 Al 1.60278 7.71593 10.6437
51 Al 1.58491 7.56134 7.90439
52 Al 3.987 8.64053 11.4783
53 Al 0.447221 10.9336 10.6772
54 Al 3.01981 11.9706 14.5351
55 Al 0.460008 10.9799 7.8776
56 Al 2.72007 11.7084 11.5611
57 Al 4.02424 8.41091 14.5352
58 Al 2.75684 9.96657 9.31869
59 Al 0.146818 12.9731 12.7778
60 Al 1.84777 9.75164 13.1418
61 Ni 1.99195 12.3236 9.35252
62 Ni 0.115479 8.91164 9.32846
63 Ni 2.47446 7.34632 13.0312
64 Ni 4.30882 10.5592 13.0687
65 Al 9.27329 0.181025 1.92037
66 Al 6.65809 0.969139 3.25661
67 Al 6.5176 1.07548 0.297731
68 Al 9.04183 2.0034 4.07198
69 Al 5.3834 4.35931 3.40384
70 Al 7.75118 5.3092 6.94148
71 Al 5.56599 4.36801 0.387586
72 Al 7.9911 5.44714 4.0735
73 Al 8.9484 2.07315 6.99268
74 Al 7.68388 3.38423 1.94748
75 Al 5.15398 6.42927 5.46224
76 Al 6.93629 3.01799 5.39629
77 Ni 7.02942 5.63392 1.84542
78 Ni 5.04677 2.42539 1.88937
79 Ni 7.67291 0.648248 5.56942
80 Ni 9.36677 4.09296 5.49814
81 Al 9.03788 -0.153162 9.12777
82 Al 6.46561 0.861099 10.7001
83 Al 6.59474 1.02529 7.79431
84 Al 8.85355 1.91765 11.3559
85 Al 5.22145 4.38321 10.7285
86 Al 7.95307 5.24227 14.4268
87 Al 5.36047 4.25251 7.90044
88 Al 7.78349 5.41937 11.5261
89 Al 8.87764 2.11 14.3533
90 Al 7.60939 3.30843 9.29147
91 Al 5.15756 6.56414 12.7761
92 Al 6.68218 3.00793 13.0138
93 Ni 6.90385 5.58174 9.17443
94 Ni 5.09737 2.31862 9.30984
95 Ni 7.5681 0.591314 12.9949
96 Ni 9.29509 3.92349 12.9733
97 Al 9.27878 6.58788 1.86817
98 Al 6.56438 7.63065 3.2492
99 Al 6.55974 7.82817 0.455701
100 Al 9.00185 8.64 4.09925
101 Al 5.20846 11.0545 3.25864
102 Al 7.56513 11.7532 6.87039
103 Al 5.37657 11.0185 0.402798
104 Al 7.74373 12.0046 4.08884
105 Al 8.98684 8.84547 6.92638
106 Al 7.68713 10.0562 2.11985
107 Al 5.19687 13.1744 5.47621
108 Al 6.48686 9.59049 5.45155
109 Ni 6.87622 12.4856 1.74859
110 Ni 4.99985 9.06708 1.86183
111 Ni 7.50301 7.30134 5.52417
112 Ni 9.2573 10.6995 5.52355
113 Al 9.21019 6.4543 9.25108
114 Al 6.49214 7.58666 10.6703
115 Al 6.58532 7.59228 7.81137
116 Al 8.898 8.66407 11.5419
117 Al 5.34167 10.9209 10.7522
118 Al 7.69357 11.8789 14.4039
119 Al 5.21962 10.9835 7.78251
120 Al 7.70069 11.919 11.5585
121 Al 8.7807 8.63818 14.4404
122 Al 7.48718 9.85558 9.21762
123 Al 4.97387 12.9751 12.9255
124 Al 6.65705 9.73532 12.9537
125 Ni 6.69083 12.1241 9.12027
126 Ni 4.9574 8.98986 9.22284
127 Ni 7.44872 7.2934 12.8838
128 Ni 9.26362 10.6356 12.9867
ITEM: TIMESTEP
6100
ITEM: NUMBER OF ATOMS
128
ITEM: BOX BOUNDS xy xz yz pp pp pp
-1.3863408313209091e-01 9.6872708397808154e+00 -5.5340598210120835e-02
-2.8679804284950094e-02 1.3256881667551491e+01 -2.7028467397370741e-02
1.3492755064696382e-02 1.4839985004746875e+01 2.8333649974048868e-02
ITEM: ATOMS id element xu yu zu
1 Al 4.54218 -0.1065 1.79585
2 Al 1.70539 1.08288 3.28069
3 Al 1.83469 1.09486 0.518463
4 Al 4.02272 2.09612 3.93262
5 Al 0.517484 4.62205 3.24778
6 Al 2.95136 5.55007 7.09651
7 Al 0.403952 4.43704 0.488014
8 Al 3.03476 5.55512 4.06177
9 Al 4.14257 2.23942 6.96805
10 Al 2.7758 3.3678 1.67643
11 Al 0.325931 6.45858 5.42824
12 Al 1.88413 3.41678 5.45666
13 Ni 2.12773 5.81669 1.72075
14 Ni 0.226987 2.54089 1.85625
15 Ni 2.56184 0.872506 5.44365
16 Ni 4.37684 4.17501 5.4306
17 Al 4.46013 0.168888 9.33032
18 Al 1.74318 1.29206 10.7377
19 Al 1.66502 1.23415 7.85997
20 Al 4.2346 2.26016 11.5469
21 Al 0.62247 4.41878 10.7426
22 Al 2.9256 5.58634 14.3451
23 Al 0.582122 4.33858 7.85492
24 Al 3.07408 5.48484 11.4557
25 Al 4.14764 2.16896 14.4564
26 Al 2.79356 3.42349 9.27544
27 Al 0.102955 6.75185 12.9551
28 Al 1.96993 3.49329 12.9163
29 Ni 2.022 5.86707 9.22912
30 Ni 0.138698 2.39789 9.39213
31 Ni 2.8231 0.979663 13.0255
32 Ni 4.62125 4.11699 12.9561
33 Al 4.2943 6.70846 1.81607
34 Al 1.62155 7.76908 3.32965
35 Al 1.61239 7.80705 0.395255
36 Al 4.17247 8.6537 4.1976
37 Al 0.722038 11.221 3.30162
38 Al 3.01518 12.3372 6.8383
39 Al 0.753027 11.0163 0.274735
40 Al 3.0159 12.1174 4.12618
41 Al 4.01953 8.67346 7.00817
42 Al 2.93788 9.87606 1.937
43 Al 0.251514 13.2727 5.66544
44 Al 2.1087 9.98395 5.58367
45 Ni 2.14084 12.2765 1.84626
46 Ni 0.191778 9.05678 1.97496
47 Ni 2.59564 7.40786 5.5699
48 Ni 4.45515 10.8001 5.62909
49 Al 4.08926 6.65262 9.39828
50 Al 1.49281 7.88023 10.765
51 Al 1.44296 7.75866 7.76111
52 Al 4.14138 8.6772 11.5415
53 Al 0.714556 11.3676 10.7458
54 Al 3.05963 12.0723 14.3129
55 Al 0.59275 11.1574 7.80334
56 Al 3.12444 12.2267 11.4878
57 Al 4.02325 8.75781 14.3574
58 Al 2.6023 9.9089 9.26339
59 Al 0.426373 13.312 13.0643
60 Al 1.89838 9.96157 12.8273
61 Ni 2.12005 12.4398 9.15654
62 Ni 0.0811949 9.26521 9.25129
63 Ni 2.4782 7.52636 12.9747
64 Ni 4.47611 10.7843 12.921
65 Al 9.3544 -0.0344087 1.87177
66 Al 6.52451 1.06411 3.29624
67 Al 6.60214 0.957568 0.517234
68 Al 8.98812 2.12307 4.0827
69 Al 5.52424 4.26386 3.33018
70 Al 7.89642 5.61166 7.06524
71 Al 5.47163 4.49394 0.368223
72 Al 7.88732 5.48558 4.13547
73 Al 8.87346 2.18345 7.04021
74 Al 7.59596 3.30642 1.65253
75 Al 5.27559 6.37733 5.47594
76 Al 6.71035 3.14686 5.73913
77 Ni 6.87309 5.75972 1.83094
78 Ni 5.12817 2.29592 1.81336
79 Ni 7.38299 0.838741 5.53103
80 Ni 9.36283 4.11161 5.54701
81 Al 9.26661 0.0176675 9.28471
82 Al 6.76914 1.2379 10.6107
83 Al 6.54242 1.00353 7.78951
84 Al 9.12316 2.12577 11.6248
85 Al 5.36539 4.42044 10.6518
86 Al 7.86995 5.28505 14.3402
87 Al 5.44883 4.55556 7.88496
88 Al 7.96445 5.61048 11.5133
89 Al 8.97016 2.08825 14.5186
90 Al 7.70185 3.33527 9.16528
91 Al 5.29047 6.62646 13.0502
92 Al 6.92318 3.17933 13.062
93 Ni 7.04394 5.71297 9.33998
94 Ni 5.13565 2.49937 9.15696
95 Ni 7.42619 0.849309 12.9113
96 Ni 9.41944 4.18114 13.0306
97 Al 9.14954 6.79305 1.81084
98 Al 6.62814 7.76105 3.32269
99 Al 6.51521 7.72564 0.391107
100 Al 8.92619 8.94074 4.20648
101 Al 5.452 10.8309 3.37672
102 Al 7.86738 12.0182 7.07278
103 Al 5.38316 10.9938 0.449982
104 Al 7.99462 12.1254 4.09148
105 Al 8.87949 8.94969 6.89686
106 Al 7.58878 9.82536 1.65981
107 Al 5.3414 13.0412 5.39977
108 Al 6.73481 9.9829 5.62657
109 Ni 6.91228 12.2332 1.91936
110 Ni 5.16574 8.97656 1.82571
111 Ni 7.47082 7.4855 5.50218
112 Ni 9.52345 10.8086 5.6155
113 Al 9.23193 6.87631 9.21023
114 Al 6.44004 7.6904 10.8309
115 Al 6.50157 7.70316 7.8152
116 Al 8.88799 8.9661 11.4658
117 Al 5.39824 11.0014 10.6833
118 Al 7.83848 12.2043 14.3268
119 Al 5.32803 11.0076 7.86065
120 Al 7.92939 11.9974 11.446
121 Al 8.92242 8.84076 14.4007
122 Al 7.37348 10.0594 9.25619
123 Al 5.1627 13.1728 13.0281
124 Al 6.72326 9.85332 13.0006
125 Ni 6.8272 12.4436 9.35476
126 Ni 4.95796 8.93778 9.26223
127 Ni 7.4762 7.52046 12.999
128 Ni 9.43634 10.8739 12.8933
ITEM: TIMESTEP
6200
ITEM: NUMBER OF ATOMS
128
ITEM: BOX BOUNDS xy xz yz pp pp pp
-5.2976852064269053e-02 9.9325795539045263e+00 1.3560055653093486e-01
3.3021393785305442e-02 1.3481825852700204e+01 1.1299632305309941e-01
-6.3124000510449640e-02 1.4916601760322013e+01 3.1497903319302928e-01
ITEM: ATOMS id element xu yu zu
1 Al 4.48394 0.196242 1.79299
2 Al 1.82437 1.18456 3.28123
3 Al 1.82203 1.21416 0.311929
4 Al 4.33639 2.29392 4.09721
5 Al 0.593297 4.37446 3.21147
6 Al 3.10413 5.6804 7.02368
7 Al 0.642895 4.37076 0.318759
8 Al 3.05536 5.51692 4.0872
9 Al 4.32406 2.37388 7.06879
10 Al 2.87353 3.28215 1.85051
11 Al 0.386401 6.7712 5.53534
12 Al 1.95407 3.36984 5.54418
13 Ni 1.99094 5.72247 1.90533
14 Ni 0.2542 2.36642 1.76457
15 Ni 2.76922 0.866227 5.51153
16 Ni 4.56381 4.29046 5.46684
17 Al 4.50061 0.344492 9.20986
18 Al 1.70741 1.46237 10.6693
19 Al 1.80153 1.27184 7.80743
20 Al 4.12898 2.4288 11.5522
21 Al 0.743987 4.50155 10.8199
22 Al 3.102 5.73435 14.6149
23 Al 0.619369 4.65097 7.7504
24 Al 3.27922 5.65884 11.4734
25 Al 4.31382 2.4002 14.3757
26 Al 2.86038 3.64109 9.22192
27 Al 0.584231 6.70088 13.0165
28 Al 2.04484 3.49905 12.9911
29 Ni 2.30763 5.86216 9.30452
30 Ni 0.491598 2.76889 9.17436
31 Ni 2.7303 1.04671 12.9762
32 Ni 4.61841 4.49624 12.9945
33 Al 4.46047 6.70196 1.62528
34 Al 1.71233 7.7562 3.25018
35 Al 1.80868 7.73939 0.206298
36 Al 4.1176 9.03063 4.03071
37 Al 0.722394 11.004 3.21328
38 Al 3.31207 12.0714 7.00236
39 Al 0.740858 11.139 0.384706
40 Al 3.10313 11.9978 4.02862
41 Al 4.33554 8.90584 7.01181
42 Al 2.88787 9.92493 1.73589
43 Al 0.621503 13.2389 5.56559
44 Al 1.92113 9.9318 5.54627
45 Ni 2.18732 12.3642 1.82295
46 Ni 0.283725 8.98805 1.64121
47 Ni 2.851 7.60394 5.44019
48 Ni 4.73539 10.8073 5.47579
49 Al 4.53107 6.77404 9.05228
50 Al 1.96613 7.91314 10.8172
51 Al 2.04149 7.94698 7.94779
52 Al 4.43734 9.01672 11.5024
53 Al 0.642028 11.1672 10.6699
54 Al 3.22578 12.2775 14.404
55 Al 0.743972 11.1176 7.8188
56 Al 3.27139 12.2371 11.5669
57 Al 4.25402 9.19972 14.391
58 Al 3.04155 10.2401 9.33436
59 Al 0.557046 13.3518 12.9446
60 Al 2.06389 10.1062 13.0829
61 Ni 2.24256 12.4779 9.38004
62 Ni 0.533071 9.06613 9.27642
63 Ni 2.95505 7.76712 12.9942
64 Ni 4.70456 11.0647 13.0082
65 Al 9.2982 0.0673988 1.72396
66 Al 6.63391 1.29108 3.28677
67 Al 6.66407 1.30754 0.382784
68 Al 9.07242 2.31727 4.17787
69 Al 5.46801 4.67694 3.23547
70 Al 7.90502 5.70314 7.05685
71 Al 5.57441 4.48173 0.255427
72 Al 7.94264 5.58808 4.05244
73 Al 9.12548 2.37449 6.93265
74 Al 7.72066 3.33325 1.83572
75 Al 5.20132 6.85289 5.56778
76 Al 6.83804 3.49378 5.41735
77 Ni 6.99845 5.80229 1.77776
78 Ni 5.12818 2.5391 1.75799
79 Ni 7.57074 1.07125 5.51321
80 Ni 9.48621 4.37857 5.52582
81 Al 9.3404 0.458159 9.28108
82 Al 6.67452 1.4365 10.715
83 Al 6.76284 1.43728 7.84438
84 Al 9.11077 2.42159 11.4793
85 Al 5.59895 4.57472 10.7714
86 Al 8.08996 5.75463 14.5209
87 Al 5.71861 4.49988 7.82026
88 Al 7.94848 5.72689 11.6217
89 Al 9.26659 2.50634 14.4712
90 Al 7.86399 3.54622 9.33517
91 Al 5.44163 6.96985 13.045
92 Al 6.994 3.59703 13.0262
93 Ni 7.02305 6.07531 9.24083
94 Ni 5.10977 2.72073 9.3315
95 Ni 7.87196 1.21188 13.119
96 Ni 9.54547 4.48121 13.0789
97 Al 9.48112 6.56616 1.81529
98 Al 6.56965 7.79954 3.28553
99 Al 6.58602 8.03155 0.27795
100 Al 8.97878 8.73543 4.07919
101 Al 5.60251 11.1533 3.31489
102 Al 8.24521 12.4017 6.98485
103 Al 5.71886 11.0963 0.300108
104 Al 7.97279 12.1384 4.12634
105 Al 9.20721 8.86188 7.09111
106 Al 7.70678 9.89693 1.84425
107 Al 5.33162 13.3757 5.74782
108 Al 7.09348 10.0107 5.63496
109 Ni 7.10354 12.4242 1.75173
110 Ni 5.11867 9.17337 1.78075
111 Ni 7.57628 7.60379 5.60133
112 Ni 9.45134 10.8214 5.56398
113 Al 9.44435 6.78459 9.3666
114 Al 6.84557 8.10679 10.7865
115 Al 6.7168 8.08968 7.79365
116 Al 9.43368 8.81548 11.6384
117 Al 5.84475 11.3229 10.7849
118 Al 8.21855 12.2919 14.5565
119 Al 5.80943 11.2044 7.73162
120 Al 8.15967 12.2962 11.6048
121 Al 9.18193 8.96824 14.4204
122 Al 7.86997 10.2675 9.20243
123 Al 5.72839 13.3872 12.8993
124 Al 6.97923 10.0911 12.9428
125 Ni 7.35778 12.5892 9.31338
126 Ni 5.43009 9.39733 9.34772
127 Ni 7.66046 7.77366 13.0344
128 Ni 9.6356 10.944 13.0572
ITEM: TIMESTEP
6300
ITEM: NUMBER OF ATOMS
128
ITEM: BOX BOUNDS xy xz yz pp pp pp
-2.2956692046395943e-02 9.9169751125475365e+00 1.7002002523298063e-01
-4.9341802850912941e-03 1.3339979571534272e+01 9.2992573011927690e-02
-7.6641974603475660e-02 1.4930119734415049e+01 1.3517717795670947e-01
ITEM: ATOMS id element xu yu zu
1 Al 4.34242 0.271348 1.90565
2 Al 1.82999 1.14614 3.1297
3 Al 1.51417 1.18011 0.269525
4 Al 4.22779 2.2903 4.12342
5 Al 0.84346 4.48258 3.2231
6 Al 3.25139 5.53608 7.0287
7 Al 0.684643 4.60257 0.144053
8 Al 3.30359 5.47863 4.09387
9 Al 4.39434 2.2077 6.99621
10 Al 2.85293 3.35537 1.79221
11 Al 0.578541 6.47736 5.47551
12 Al 1.89315 3.20743 5.57604
13 Ni 2.38097 5.76575 1.77743
14 Ni 0.303536 2.53308 1.86867
15 Ni 2.80915 0.850113 5.60425
16 Ni 4.77048 4.19501 5.50482
17 Al 4.28693 0.18968 9.25727
18 Al 1.79971 1.15017 10.6574
19 Al 1.72528 1.17263 7.73225
20 Al 4.26924 2.22847 11.5674
21 Al 0.795937 4.67419 10.7014
22 Al 3.23596 5.56432 14.5588
23 Al 0.814047 4.42182 7.84539
24 Al 3.16103 5.55646 11.6102
25 Al 4.15 2.32034 14.6697
26 Al 2.86113 3.35051 9.34302
27 Al 0.697666 6.6524 13.0776
28 Al 2.08441 3.23199 13.1615
29 Ni 2.41722 5.86169 9.23325
30 Ni 0.326298 2.4909 9.27165
31 Ni 2.77452 1.01081 13.0897
32 Ni 4.74755 4.18744 13.0713
33 Al 4.5915 6.70904 1.93766
34 Al 1.90174 7.72045 3.24869
35 Al 1.87231 7.71532 0.326146
36 Al 4.27047 8.86207 4.19306
37 Al 0.827585 11.0506 3.2701
38 Al 3.25511 12.0127 7.00388
39 Al 0.725374 11.0836 0.364037
40 Al 3.19916 12.1242 3.99116
41 Al 4.36016 8.96665 6.90853
42 Al 2.92174 9.90453 1.71427
43 Al 0.65255 13.1557 5.58152
44 Al 1.93577 9.90465 5.52813
45 Ni 2.18196 12.3352 1.6957
46 Ni 0.380568 9.1347 1.85863
47 Ni 2.84494 7.57057 5.58016
48 Ni 4.75041 11.0351 5.54446
49 Al 4.57987 6.83912 9.57596
50 Al 1.9295 7.85205 10.7342
51 Al 1.80684 7.77435 7.79844
52 Al 4.46411 8.96688 11.6379
53 Al 1.00904 10.9155 10.8934
54 Al 3.13173 12.1988 14.455
55 Al 0.668762 10.8918 7.76319
56 Al 3.32076 12.1333 11.6795
57 Al 4.39803 8.81521 14.4578
58 Al 2.93636 10.0374 9.17602
59 Al 0.462796 13.2664 13.0738
60 Al 2.29687 9.99842 13.1194
61 Ni 2.28423 12.3429 9.23001
62 Ni 0.459836 9.13246 9.31195
63 Ni 2.96365 7.56185 13.0884
64 Ni 4.86811 10.9203 13.1014
65 Al 9.1238 0.0817204 1.7383
66 Al 6.60919 1.27968 3.30282
67 Al 6.443 1.17627 0.254059
68 Al 9.01903 2.1913 4.06715
69 Al 5.63664 4.50085 3.3443
70 Al 8.05864 5.40407 6.95789
71 Al 5.55871 4.48753 0.479745
72 Al 8.09107 5.56997 3.98271
73 Al 9.12476 2.15545 7.00232
74 Al 7.85722 3.40923 1.85844
75 Al 5.39838 6.66159 5.56877
76 Al 7.01366 3.48375 5.5089
77 Ni 6.97153 5.72192 1.86419
78 Ni 5.11934 2.5174 1.85771
79 Ni 7.72987 0.921128 5.62809
80 Ni 9.45595 4.12049 5.47613
81 Al 9.32163 -0.0380525 9.21046
82 Al 6.63735 1.18906 10.6951
83 Al 6.67472 1.17324 7.71529
84 Al 9.1303 2.37914 11.5484
85 Al 5.61228 4.49814 10.8395
86 Al 8.06991 5.63748 14.4085
87 Al 5.55091 4.56665 8.06029
88 Al 8.14466 5.63994 11.5046
89 Al 8.98865 2.36322 14.4497
90 Al 7.82092 3.44324 9.23238
91 Al 5.48029 6.60293 12.9182
92 Al 6.99246 3.45387 12.9427
93 Ni 7.10518 5.81333 9.24942
94 Ni 5.13357 2.4109 9.23339
95 Ni 7.47871 1.03659 12.9375
96 Ni 9.44806 4.23235 12.9189
97 Al 9.31257 6.80126 1.72211
98 Al 6.7121 7.7932 3.18414
99 Al 6.62611 7.67847 0.272397
100 Al 9.14932 8.73145 4.07752
101 Al 5.65787 11.1132 3.19709
102 Al 7.99074 12.0735 6.91652
103 Al 5.72632 11.0635 0.340308
104 Al 7.95546 12.1957 4.09719
105 Al 9.13268 8.75643 6.94874
106 Al 7.86787 10.0818 1.76845
107 Al 5.48887 13.4072 5.39846
108 Al 6.9474 9.86756 5.34471
109 Ni 7.08134 12.4551 1.72744
110 Ni 5.14797 9.07708 1.75666
111 Ni 7.60519 7.55432 5.45548
112 Ni 9.46084 10.8098 5.4456
113 Al 9.26076 6.87985 9.17376
114 Al 6.7588 7.83155 10.7328
115 Al 6.68307 7.78446 7.69868
116 Al 9.11794 8.86419 11.5659
117 Al 5.74267 11.1874 10.7381
118 Al 8.1298 12.2041 14.5848
119 Al 5.63016 11.2242 7.9315
120 Al 8.1814 12.3321 11.4315
121 Al 9.18869 8.77993 14.4732
122 Al 7.72332 10.1255 9.28819
123 Al 5.23986 13.5031 13.1778
124 Al 7.07154 10.0954 13.1063
125 Ni 7.21665 12.4381 9.22475
126 Ni 5.27615 9.1817 9.22086
127 Ni 7.71092 7.5617 12.9533
128 Ni 9.54894 10.8707 13.0162
ITEM: TIMESTEP
6400
ITEM: NUMBER OF ATOMS
128
ITEM: BOX BOUNDS xy xz yz pp pp pp
-6.3463405941658696e-02 9.6815051299246004e+00 1.4717603356806953e-02
-3.2191284507890877e-01 1.3244345505524286e+01 -2.7681701630100222e-02
3.4111545989781611e-02 1.4819366213821787e+01 -2.7743555284708638e-01
ITEM: ATOMS id element xu yu zu
1 Al 4.50785 0.0229024 1.77084
2 Al 1.71826 1.08595 3.23116
3 Al 1.9037 1.17513 0.506996
4 Al 4.09724 1.97184 4.058
5 Al 0.532059 4.42948 3.40695
6 Al 3.0038 5.35286 7.09106
7 Al 0.707622 4.50327 0.375676
8 Al 3.11293 5.32926 3.91636
9 Al 4.14487 1.96288 7.00584
10 Al 2.82904 3.3816 1.84132
11 Al 0.419068 6.62905 5.66595
12 Al 1.93134 3.3777 5.51695
13 Ni 2.15561 5.7643 1.80323
14 Ni 0.321542 2.40427 1.85516
15 Ni 2.54336 0.806237 5.53009
16 Ni 4.48304 4.06057 5.55577
17 Al 4.47531 -0.300425 9.26329
18 Al 1.68744 0.932192 10.7449
19 Al 1.82161 1.07551 7.91447
20 Al 4.20955 1.94624 11.4938
21 Al 0.5163 4.11942 10.7725
22 Al 3.03348 5.30768 14.3776
23 Al 0.584204 4.24147 7.82417
24 Al 3.01004 5.41074 11.3698
25 Al 4.25242 1.82279 14.1632
26 Al 2.87008 3.21139 9.22873
27 Al 0.283304 6.47611 12.9088
28 Al 2.09052 3.12632 12.9493
29 Ni 1.94182 5.56878 9.32108
30 Ni 0.161092 2.19036 9.27374
31 Ni 2.66834 0.656844 12.934
32 Ni 4.52516 3.99743 12.8821
33 Al 4.56609 6.56867 1.81153
34 Al 1.8442 7.82354 3.22085
35 Al 1.76501 7.73866 0.429723
36 Al 4.22328 8.47002 3.9921
37 Al 0.588598 11.0812 3.18923
38 Al 3.14977 12.0839 6.94814
39 Al 0.680698 11.2722 0.4473
40 Al 3.00173 12.0653 4.12385
41 Al 4.21497 8.52851 6.98068
42 Al 2.83879 10 1.88364
43 Al 0.192683 13.1416 5.59219
44 Al 2.08752 9.83438 5.56365
45 Ni 2.23644 12.4116 1.92655
46 Ni 0.324122 9.012 1.84144
47 Ni 2.73452 7.34045 5.45846
48 Ni 4.46637 10.5383 5.5202
49 Al 4.43679 6.37706 9.17983
50 Al 1.6533 7.53318 10.5824
51 Al 1.69849 7.62626 7.76753
52 Al 3.9581 8.59629 11.5011
53 Al 0.502414 11.0069 10.6193
54 Al 3.05427 11.9757 14.3504
55 Al 0.70434 10.9575 7.7479
56 Al 3.01927 11.8717 11.501
57 Al 4.099 8.49929 14.403
58 Al 2.63391 9.79624 9.31601
59 Al 0.29235 12.9333 13.1617
60 Al 1.94265 9.68164 12.7867
61 Ni 2.22235 12.3108 9.2272
62 Ni 0.225345 8.97473 9.16092
63 Ni 2.46498 7.21325 12.9254
64 Ni 4.33048 10.4674 12.8683
65 Al 9.21227 0.0326846 1.77302
66 Al 6.53211 1.0033 3.25968
67 Al 6.56287 1.08752 0.365316
68 Al 8.9347 2.12536 4.17453
69 Al 5.50295 4.27752 3.30387
70 Al 8.07234 5.36364 7.03759
71 Al 5.50845 4.40378 0.46512
72 Al 7.77448 5.27146 4.24985
73 Al 9.0648 1.99398 7.00787
74 Al 7.75824 3.34689 1.74826
75 Al 5.28876 6.38388 5.29574
76 Al 6.72108 3.03691 5.70163
77 Ni 7.08335 5.78127 1.82389
78 Ni 5.05685 2.27502 1.77814
79 Ni 7.40087 0.596696 5.48642
80 Ni 9.47783 4.18426 5.68562
81 Al 9.01851 -0.0633209 9.27517
82 Al 6.42003 0.816218 10.8958
83 Al 6.42646 0.908763 7.6912
84 Al 8.89055 1.96607 11.5773
85 Al 5.44202 4.29795 10.7432
86 Al 7.99507 5.30564 14.3885
87 Al 5.61182 4.39263 7.76725
88 Al 7.81421 5.14926 11.6314
89 Al 9.11773 1.94996 14.2957
90 Al 7.64926 3.15256 9.22132
91 Al 5.23903 6.41631 13.0419
92 Al 6.79151 2.9318 12.9996
93 Ni 6.95641 5.4715 9.31343
94 Ni 5.12528 2.23369 9.31139
95 Ni 7.5391 0.59419 12.9939
96 Ni 9.37414 3.98803 13.0409
97 Al 9.36913 6.72974 1.91691
98 Al 6.74452 7.65122 3.33347
99 Al 6.76025 7.68384 0.480154
100 Al 9.06736 8.76838 4.17169
101 Al 5.55568 11.0099 3.3922
102 Al 7.87634 12.0099 7.12878
103 Al 5.52377 11.0322 0.418846
104 Al 7.94859 11.9612 4.05356
105 Al 9.0716 8.71627 7.01924
106 Al 7.69353 10.0195 1.75379
107 Al 5.29505 12.9056 5.62682
108 Al 6.85033 9.72014 5.59204
109 Ni 6.99534 12.3355 1.88103
110 Ni 5.30957 8.97234 1.81704
111 Ni 7.56048 7.39867 5.62589
112 Ni 9.51629 10.6764 5.57418
113 Al 9.26026 6.29034 9.37377
114 Al 6.57668 7.45778 10.7988
115 Al 6.53827 7.5281 7.72851
116 Al 8.94665 8.75095 11.5288
117 Al 5.39602 10.65 10.6544
118 Al 7.83211 11.7791 14.4386
119 Al 5.38706 10.7523 7.8994
120 Al 7.73969 11.8471 11.5253
121 Al 9.02916 8.63876 14.3586
122 Al 7.61381 9.82897 9.23702
123 Al 5.2747 12.7506 12.911
124 Al 6.5807 9.60665 12.9812
125 Ni 6.82029 12.0619 9.34795
126 Ni 5.01776 8.80173 9.32432
127 Ni 7.56815 7.27216 12.9865
128 Ni 9.43804 10.6633 12.9327
ITEM: TIMESTEP
6500
ITEM: NUMBER OF ATOMS
128
ITEM: BOX BOUNDS xy xz yz pp pp pp
-2.5616372288596623e-01 9.6805932059368267e+00 -1.2587756793273144e-01
-2.2291975667578584e-01 1.3229961753078484e+01 -8.0698771272670278e-02
-1.1341693487789684e-02 1.4864819453299358e+01 -1.9282621688975582e-01
ITEM: ATOMS id element xu yu zu
1 Al 4.53536 0.0472113 1.91263
2 Al 1.71774 1.0255 3.23296
3 Al 1.7289 1.03127 0.448182
4 Al 4.16096 1.97565 4.00505
5 Al 0.702129 4.25029 3.3868
6 Al 2.76972 5.38414 6.90251
7 Al 0.590226 4.30875 0.439298
8 Al 2.99495 5.47629 4.11909
9 Al 3.96427 1.86805 7.14177
10 Al 2.88278 3.35582 1.83003
11 Al 0.286847 6.37478 5.41052
12 Al 1.84787 3.19113 5.52146
13 Ni 1.98104 5.79978 1.84352
14 Ni 0.191328 2.33083 1.78757
15 Ni 2.71358 0.700946 5.59092
16 Ni 4.42734 4.05372 5.52622
17 Al 4.38327 -0.0827059 9.30908
18 Al 1.6825 1.05184 10.6437
19 Al 1.55655 0.975974 7.77796
20 Al 4.13636 1.97584 11.502
21 Al 0.422867 4.32824 10.651
22 Al 2.85902 5.40657 14.4595
23 Al 0.484306 4.45606 7.6292
24 Al 2.91935 5.30621 11.6148
25 Al 4.03853 1.98705 14.5099
26 Al 2.73762 3.29159 9.28673
27 Al 0.198699 6.36665 12.8834
28 Al 1.78921 3.01903 12.9983
29 Ni 2.00728 5.64662 9.25916
30 Ni 0.0810171 2.41038 9.2064
31 Ni 2.63941 0.666878 13.0095
32 Ni 4.46476 3.91683 13.0231
33 Al 4.23145 6.7131 1.88521
34 Al 1.60629 7.80638 3.18974
35 Al 1.48405 7.7824 0.376728
36 Al 3.98453 8.67278 4.20145
37 Al 0.538524 11.1143 3.39287
38 Al 2.85797 11.9604 6.97427
39 Al 0.54714 10.9905 0.340955
40 Al 3.03913 12.0658 4.08375
41 Al 4.0808 8.65547 7.04101
42 Al 2.56726 9.98471 1.97214
43 Al 0.164069 13.2117 5.39482
44 Al 1.87781 9.80149 5.58507
45 Ni 1.9961 12.3667 1.80699
46 Ni 0.136189 9.06912 1.80259
47 Ni 2.37221 7.3883 5.599
48 Ni 4.44659 10.7734 5.55278
49 Al 4.31427 6.46183 9.15476
50 Al 1.7349 7.613 10.7952
51 Al 1.57934 7.6713 7.92355
52 Al 4.09023 8.63244 11.503
53 Al 0.509736 10.9123 10.7584
54 Al 2.88017 11.973 14.4254
55 Al 0.441381 11.0455 7.83512
56 Al 2.9709 12.0101 11.5703
57 Al 4.03003 8.64964 14.443
58 Al 2.79953 10.0058 9.31554
59 Al 0.216689 13.0395 12.7027
60 Al 1.93166 9.71749 12.9365
61 Ni 1.94617 12.2703 9.3134
62 Ni 0.143732 9.03737 9.29736
63 Ni 2.53255 7.36867 13.0312
64 Ni 4.40778 10.6344 12.9609
65 Al 9.36185 -0.178791 1.94467
66 Al 6.69545 1.09225 3.28226
67 Al 6.58805 1.07006 0.475131
68 Al 9.05212 2.04633 4.05437
69 Al 5.2878 4.52578 3.38293
70 Al 7.76298 5.23027 6.8462
71 Al 5.41244 4.48215 0.360138
72 Al 7.83882 5.43202 4.02424
73 Al 8.86923 2.31731 7.10827
74 Al 7.41417 3.22094 1.88541
75 Al 5.28728 6.37372 5.80714
76 Al 6.7751 3.20106 5.3652
77 Ni 6.87595 5.71825 1.78403
78 Ni 5.19607 2.3955 1.85436
79 Ni 7.51909 0.835732 5.55047
80 Ni 9.25337 3.9734 5.43755
81 Al 9.18635 -0.13686 9.3086
82 Al 6.58298 1.09334 10.7587
83 Al 6.56623 0.96538 7.78001
84 Al 9.01346 2.00284 11.5716
85 Al 5.38392 4.22104 10.7865
86 Al 7.79426 5.21314 14.4244
87 Al 5.33828 4.33874 7.74281
88 Al 7.78289 5.28391 11.4579
89 Al 8.84781 1.87056 14.4544
90 Al 7.55586 3.45 9.31557
91 Al 5.19578 6.23811 12.9765
92 Al 6.90005 2.98303 12.9218
93 Ni 6.77474 5.66817 9.25769
94 Ni 4.9912 2.35751 9.21381
95 Ni 7.50302 0.610295 13.0093
96 Ni 9.33118 3.94356 12.9946
97 Al 9.18037 6.62025 1.79431
98 Al 6.37038 7.62304 3.2765
99 Al 6.46966 7.78863 0.426593
100 Al 8.95487 8.86734 4.13679
101 Al 5.26129 11.126 3.33103
102 Al 7.75731 12.0269 6.96599
103 Al 5.35725 11.0793 0.348944
104 Al 7.77627 12.071 4.0356
105 Al 9.0085 8.76476 6.98523
106 Al 7.41758 9.93728 1.97003
107 Al 5.15477 13.204 5.59948
108 Al 6.6612 9.64215 5.44481
109 Ni 6.86267 12.2618 1.87369
110 Ni 4.88192 9.02137 1.88752
111 Ni 7.46587 7.32255 5.52234
112 Ni 9.32424 10.7203 5.57562
113 Al 9.21889 6.62319 9.3055
114 Al 6.54259 7.61001 10.6676
115 Al 6.65917 7.69496 7.77825
116 Al 8.87038 8.74694 11.5623
117 Al 5.25603 10.9983 10.692
118 Al 7.76066 11.8689 14.4533
119 Al 5.30673 10.9697 7.78881
120 Al 7.68508 11.8939 11.4336
121 Al 8.71971 8.6844 14.4459
122 Al 7.49495 9.93174 9.26002
123 Al 5.13892 13.1626 12.9134
124 Al 6.61615 9.76257 12.8415
125 Ni 6.78418 12.2009 9.19521
126 Ni 4.93782 8.9658 9.19309
127 Ni 7.39389 7.21787 12.9956
128 Ni 9.30575 10.654 12.9593
ITEM: TIMESTEP
6600
ITEM: NUMBER OF ATOMS
128
ITEM: BOX BOUNDS xy xz yz pp pp pp
-5.7736175490663955e-02 9.6783051983272124e+00 -4.4186182477689628e-02
6.0428658077693598e-03 1.3374550091094598e+01 3.3749383057972294e-02
-6.0591686784943199e-02 1.4914069446596510e+01 1.8072474360991364e-01
ITEM: ATOMS id element xu yu zu
1 Al 4.37913 0.0618568 1.74693
2 Al 1.74781 1.1396 3.24068
3 Al 1.70898 1.12049 0.368126
4 Al 4.15075 2.29616 4.10593
5 Al 0.52266 4.48312 3.22495
6 Al 3.23402 5.65851 7.10938
7 Al 0.580795 4.4478 0.193638
8 Al 2.87191 5.38317 4.2099
9 Al 4.1737 2.18701 6.9644
10 Al 2.70983 3.329 1.7024
11 Al 0.435074 6.61511 5.68842
12 Al 1.87749 3.35484 5.62608
13 Ni 2.09955 5.67934 1.7552
14 Ni 0.27856 2.51139 1.76829
15 Ni 2.65528 1.01295 5.54166
16 Ni 4.54301 4.44056 5.54643
17 Al 4.36182 0.290581 9.24291
18 Al 1.81338 1.27879 10.8095
19 Al 1.87697 1.22727 7.79126
20 Al 4.24396 2.4218 11.5802
21 Al 0.814766 4.64702 10.8141
22 Al 3.04473 5.59633 14.5395
23 Al 0.714292 4.38108 7.83004
24 Al 3.19652 5.65461 11.5358
25 Al 4.20956 2.3565 14.4642
26 Al 2.96031 3.44865 9.25618
27 Al 0.438349 6.63307 13.1802
28 Al 1.94252 3.43143 12.9962
29 Ni 2.20504 5.88688 9.1992
30 Ni 0.415056 2.50721 9.34061
31 Ni 2.70644 1.01519 12.9633
32 Ni 4.50534 4.36996 13.0242
33 Al 4.33191 6.63712 1.74297
34 Al 1.61794 7.66534 3.27053
35 Al 1.7821 7.67882 0.474386
36 Al 3.98832 9.0116 4.0209
37 Al 0.525896 10.9902 3.2155
38 Al 3.10061 12.1653 6.98237
39 Al 0.571049 10.913 0.357587
40 Al 2.94548 12.0073 4.07699
41 Al 4.13179 9.01497 7.04416
42 Al 2.82018 9.9356 1.71228
43 Al 0.504213 12.9474 5.59579
44 Al 1.88175 9.91364 5.49604
45 Ni 1.99506 12.3197 1.79544
46 Ni 0.236847 8.96357 1.78475
47 Ni 2.68286 7.58268 5.5323
48 Ni 4.48866 10.8898 5.53939
49 Al 4.26731 6.89893 9.46802
50 Al 1.78163 7.77276 10.8518
51 Al 1.69896 7.72759 7.75398
52 Al 4.12371 9.04372 11.5165
53 Al 0.623119 11.0909 10.7513
54 Al 3.05963 12.1346 14.5229
55 Al 0.582417 11.1394 7.88809
56 Al 3.10239 12.1803 11.5385
57 Al 4.13515 9.04114 14.4222
58 Al 2.8917 10.0356 9.19458
59 Al 0.430781 13.3313 13.1748
60 Al 1.91705 9.91004 13.1784
61 Ni 2.09902 12.4136 9.22027
62 Ni 0.31176 9.06259 9.2671
63 Ni 2.80156 7.59766 12.9304
64 Ni 4.69906 10.9154 13.1051
65 Al 9.22794 0.1764 1.80026
66 Al 6.39827 1.09411 3.20305
67 Al 6.63561 1.29134 0.470203
68 Al 8.86668 2.21669 4.1023
69 Al 5.48441 4.41672 3.28583
70 Al 7.79767 5.52666 6.95613
71 Al 5.51464 4.36677 0.281198
72 Al 7.80952 5.60077 4.16333
73 Al 9.14608 2.24525 6.94835
74 Al 7.68199 3.44259 1.65138
75 Al 5.09863 6.83517 5.36759
76 Al 6.86925 3.37787 5.56973
77 Ni 6.90148 5.73335 1.85382
78 Ni 4.98175 2.46802 1.82767
79 Ni 7.47505 0.880022 5.49283
80 Ni 9.45774 4.2339 5.55725
81 Al 9.35909 0.179261 9.27945
82 Al 6.54955 1.2171 10.775
83 Al 6.66399 1.27553 7.74313
84 Al 8.90715 2.41881 11.4701
85 Al 5.45845 4.66255 10.6753
86 Al 7.7836 5.69001 14.4424
87 Al 5.56948 4.47759 7.87499
88 Al 7.91889 5.66996 11.447
89 Al 8.84829 2.45667 14.3671
90 Al 7.68626 3.39667 9.27961
91 Al 5.15849 6.79719 12.9784
92 Al 6.81258 3.47955 12.9707
93 Ni 6.98645 5.90055 9.27346
94 Ni 5.08076 2.52999 9.3347
95 Ni 7.50477 1.14007 12.8949
96 Ni 9.29412 4.37675 12.9027
97 Al 9.15627 6.63098 1.6917
98 Al 6.37678 7.73987 3.16026
99 Al 6.44681 7.75843 0.189187
100 Al 8.90342 8.6771 4.0009
101 Al 5.4745 11.0609 3.21981
102 Al 7.93636 12.2216 7.05767
103 Al 5.5077 10.9765 0.354237
104 Al 7.8412 12.2182 3.98344
105 Al 8.90928 8.9082 7.06957
106 Al 7.59515 9.94178 1.72303
107 Al 5.19808 13.2053 5.40244
108 Al 6.8493 10.0156 5.70221
109 Ni 6.96666 12.3706 1.74138
110 Ni 5.10147 8.99549 1.75528
111 Ni 7.36463 7.55469 5.53228
112 Ni 9.22893 10.7837 5.53384
113 Al 9.27962 6.82438 9.30057
114 Al 6.57592 7.89035 10.7354
115 Al 6.44215 7.88308 7.72777
116 Al 9.04966 8.75944 11.5224
117 Al 5.65377 11.3309 10.9626
118 Al 7.87826 12.2365 14.4184
119 Al 5.62319 11.2174 7.88788
120 Al 8.14746 12.2943 11.6173
121 Al 9.12904 8.81193 14.5642
122 Al 7.73002 10.154 9.38559
123 Al 5.21516 13.4626 13.0138
124 Al 6.92495 10.0344 13.1207
125 Ni 7.15803 12.6227 9.28394
126 Ni 5.15842 9.27375 9.30861
127 Ni 7.50706 7.70351 13.0158
128 Ni 9.3551 10.7858 13.0626
ITEM: TIMESTEP
6700
ITEM: NUMBER OF ATOMS
128
ITEM: BOX BOUNDS xy xz yz pp pp pp
-3.6801298815179351e-02 9.8561899401794317e+00 6.7643067247514399e-02
-6.1609101980906189e-03 1.3482669661126453e+01 1.2073975186047295e-01
-3.4299394928043014e-02 1.4887777154739611e+01 2.7664053763591556e-01
ITEM: ATOMS id element xu yu zu
1 Al 4.39021 0.0750627 1.76206
2 Al 1.76886 1.16528 3.26186
3 Al 1.81083 1.18246 0.418702
4 Al 4.15075 2.22237 4.02722
5 Al 0.771341 4.59 3.36865
6 Al 3.07117 5.58119 6.95149
7 Al 0.707788 4.57355 0.369391
8 Al 3.33998 5.67743 4.07265
9 Al 4.23245 2.42491 6.96716
10 Al 2.79392 3.36659 1.9027
11 Al 0.488173 6.70204 5.43373
12 Al 2.06727 3.46288 5.58
13 Ni 2.18247 5.8564 1.82105
14 Ni 0.258083 2.48588 1.86473
15 Ni 2.81532 0.904967 5.52816
16 Ni 4.65739 4.1169 5.48433
17 Al 4.54549 0.330381 9.31446
18 Al 1.78653 1.37152 10.6763
19 Al 1.93787 1.34756 7.7505
20 Al 4.26748 2.36495 11.4421
21 Al 0.63058 4.48801 10.7656
22 Al 3.23417 5.70272 14.5111
23 Al 0.756506 4.41579 7.72912
24 Al 3.08341 5.64513 11.5983
25 Al 4.28139 2.57214 14.4233
26 Al 2.94683 3.46906 9.22186
27 Al 0.458035 6.77376 12.8083
28 Al 2.12939 3.47324 13.0901
29 Ni 2.20186 5.97204 9.33946
30 Ni 0.28331 2.6005 9.15388
31 Ni 2.78416 1.08354 13.0584
32 Ni 4.73018 4.39386 12.9393
33 Al 4.55044 6.79591 1.77345
34 Al 1.8219 7.87291 3.26641
35 Al 1.60453 7.75803 0.319186
36 Al 4.30257 8.81946 4.05749
37 Al 0.798182 10.9821 3.32565
38 Al 3.06829 12.1589 7.00642
39 Al 0.663657 11.0166 0.312698
40 Al 3.15216 12.1772 4.07599
41 Al 4.38178 8.89415 6.9457
42 Al 2.83929 9.92936 1.65306
43 Al 0.358764 13.395 5.57431
44 Al 2.23494 9.97173 5.47936
45 Ni 2.17994 12.3913 1.74859
46 Ni 0.258606 9.09 1.77001
47 Ni 2.83055 7.57768 5.41942
48 Ni 4.56911 10.8323 5.4429
49 Al 4.42316 6.69985 9.19897
50 Al 1.94724 8.01129 10.7945
51 Al 1.94437 7.87692 7.76788
52 Al 4.3495 8.80872 11.6258
53 Al 0.644703 11.3818 10.6985
54 Al 3.09894 12.2247 14.4901
55 Al 0.730113 11.1028 7.80838
56 Al 3.11318 12.4252 11.5603
57 Al 4.44257 8.97828 14.4234
58 Al 2.94724 10.0563 9.26591
59 Al 0.622984 13.4544 13.0455
60 Al 2.1546 10.18 12.9708
61 Ni 2.23845 12.5489 9.321
62 Ni 0.261763 9.24762 9.27788
63 Ni 2.76848 7.71106 12.9785
64 Ni 4.56707 11.0227 12.9709
65 Al 9.22933 0.0933245 1.71071
66 Al 6.58686 1.16063 3.25825
67 Al 6.44553 1.15593 0.320346
68 Al 9.00038 2.39366 4.20159
69 Al 5.67622 4.3127 3.19471
70 Al 8.07144 5.88259 7.02045
71 Al 5.52247 4.39576 0.374834
72 Al 7.90909 5.52665 4.0208
73 Al 9.07596 2.23416 7.01878
74 Al 7.80729 3.41775 1.83151
75 Al 5.40309 6.57567 5.61671
76 Al 6.96562 3.42512 5.69514
77 Ni 7.04545 5.76643 1.8343
78 Ni 5.12522 2.42857 1.76869
79 Ni 7.58311 1.04199 5.57055
80 Ni 9.34844 4.27028 5.60666
81 Al 9.24733 0.0566407 9.21719
82 Al 6.70517 1.47762 10.8342
83 Al 6.6521 1.14661 7.86652
84 Al 9.20865 2.08857 11.5691
85 Al 5.64791 4.53419 10.7643
86 Al 8.08409 5.67526 14.5388
87 Al 5.53258 4.76406 7.79287
88 Al 8.02012 5.72707 11.5941
89 Al 9.18329 2.42963 14.5563
90 Al 7.7449 3.48627 9.05052
91 Al 5.27026 6.78343 12.9742
92 Al 7.09727 3.45065 13.1617
93 Ni 7.07895 5.88836 9.29557
94 Ni 5.27594 2.7021 9.22821
95 Ni 7.70888 1.17011 13.1151
96 Ni 9.64606 4.32108 13.1407
97 Al 9.3578 6.65933 1.97549
98 Al 6.70318 7.96325 3.24035
99 Al 6.76891 7.76312 0.381307
100 Al 9.16352 8.85999 4.07443
101 Al 5.57638 11.0564 3.19302
102 Al 8.01156 12.1518 7.05285
103 Al 5.4543 11.0798 0.312546
104 Al 7.87339 12.2277 4.17486
105 Al 9.14393 8.81319 7.01167
106 Al 7.7291 10.0849 1.73063
107 Al 5.29756 13.3642 5.68077
108 Al 6.95871 9.97552 5.52509
109 Ni 7.02003 12.4309 1.89476
110 Ni 5.13051 9.18723 1.83033
111 Ni 7.58744 7.64428 5.585
112 Ni 9.53159 10.9323 5.54642
113 Al 9.43715 6.96287 9.24744
114 Al 6.66142 7.94034 10.7813
115 Al 6.60803 8.00289 7.80611
116 Al 9.15588 9.07113 11.5145
117 Al 5.45268 11.0674 10.7511
118 Al 8.05671 12.2501 14.5276
119 Al 5.61066 11.1765 7.67876
120 Al 8.00762 12.3331 11.6072
121 Al 9.20123 9.21042 14.3855
122 Al 7.74736 9.98162 9.03367
123 Al 5.38085 13.3724 13.0179
124 Al 6.91198 10.1293 12.938
125 Ni 7.03172 12.4075 9.24884
126 Ni 5.19589 9.19416 9.26451
127 Ni 7.73103 7.70303 12.9867
128 Ni 9.45696 11.1955 12.9651
ITEM: TIMESTEP
6800
ITEM: NUMBER OF ATOMS
128
ITEM: BOX BOUNDS xy xz yz pp pp pp
-3.4898793245266013e-02 9.7743026987229076e+00 7.4618127955800348e-02
-9.4154528436278376e-02 1.3249742433120547e+01 3.3779955265602533e-02
6.9781378715205733e-03 1.4846499621940080e+01 -4.4280308608182231e-02
ITEM: ATOMS id element xu yu zu
1 Al 4.57764 0.0320887 1.91529
2 Al 1.8437 1.19084 3.33227
3 Al 1.71994 1.08008 0.368144
4 Al 4.23239 2.1656 4.17545
5 Al 0.6486 4.4092 3.16277
6 Al 3.04182 5.46179 7.05665
7 Al 0.72838 4.43383 0.29724
8 Al 2.99631 5.54178 4.21259
9 Al 4.06999 2.14042 6.99432
10 Al 2.98399 3.39504 1.83756
11 Al 0.388288 6.56838 5.53626
12 Al 2.12605 3.25495 5.50154
13 Ni 2.17608 5.72254 1.81339
14 Ni 0.380716 2.45066 1.83098
15 Ni 2.60327 0.816495 5.58433
16 Ni 4.56302 4.20203 5.63934
17 Al 4.44696 -0.038107 9.20184
18 Al 1.6329 1.03154 10.7427
19 Al 1.58589 1.10806 7.92467
20 Al 4.23489 2.26649 11.5672
21 Al 0.853451 4.32642 10.8369
22 Al 3.10791 5.51069 14.3648
23 Al 0.69477 4.40114 7.76417
24 Al 3.21697 5.54247 11.5298
25 Al 4.31405 1.9652 14.5104
26 Al 2.82388 3.24058 9.26823
27 Al 0.487707 6.58602 13.0479
28 Al 2.0396 3.30583 13.0604
29 Ni 2.19096 5.69151 9.23031
30 Ni 0.210898 2.51866 9.39975
31 Ni 2.71909 0.860147 12.9433
32 Ni 4.56811 4.0538 13.1311
33 Al 4.51892 6.58843 1.85931
34 Al 1.88938 7.8554 3.26334
35 Al 1.75529 7.8384 0.461263
36 Al 4.26058 8.792 4.1824
37 Al 0.763875 11.0754 3.23296
38 Al 3.10058 12.2432 6.95135
39 Al 0.726766 11.2459 0.264708
40 Al 3.14472 12.1866 4.21689
41 Al 4.15278 8.62377 7.06852
42 Al 3.00924 10.1309 1.96963
43 Al 0.456168 13.133 5.50919
44 Al 2.06151 9.71088 5.64895
45 Ni 2.28997 12.4969 1.84777
46 Ni 0.302826 9.1884 1.83109
47 Ni 2.55834 7.46351 5.63928
48 Ni 4.66457 10.7471 5.62916
49 Al 4.52923 6.53099 9.26582
50 Al 1.74395 7.63069 10.7749
51 Al 1.65051 7.5717 7.85056
52 Al 4.07682 8.74301 11.5399
53 Al 0.772393 11.0906 10.6676
54 Al 3.28569 12.2342 14.4657
55 Al 0.612036 11.2367 7.76337
56 Al 3.03269 11.9741 11.5324
57 Al 4.16339 8.75385 14.4577
58 Al 2.79693 9.90996 9.2012
59 Al 0.451632 13.21 12.7896
60 Al 1.99674 9.78475 12.9596
61 Ni 2.17738 12.3977 9.23499
62 Ni 0.310328 9.14582 9.21783
63 Ni 2.68008 7.37891 12.8885
64 Ni 4.60306 10.754 12.9381
65 Al 9.21868 0.0686858 1.85459
66 Al 6.71868 1.12141 3.267
67 Al 6.72876 1.16005 0.405569
68 Al 9.081 2.06801 4.17613
69 Al 5.56437 4.64 3.30458
70 Al 7.86626 5.25391 6.90505
71 Al 5.46726 4.44818 0.403993
72 Al 8.05712 5.36749 3.94357
73 Al 9.00925 2.22695 6.92351
74 Al 7.71881 3.33299 1.8297
75 Al 5.39212 6.59817 5.47779
76 Al 6.7418 3.06742 5.35952
77 Ni 7.06913 5.74851 1.72152
78 Ni 5.24703 2.46438 1.91278
79 Ni 7.58506 0.746522 5.52021
80 Ni 9.64199 4.07406 5.4764
81 Al 9.04934 -0.0397106 9.37802
82 Al 6.55103 1.01848 10.6839
83 Al 6.61654 1.18629 7.76633
84 Al 8.8707 2.19535 11.5981
85 Al 5.42612 4.46281 10.6818
86 Al 8.10959 5.53194 14.5208
87 Al 5.49312 4.29656 7.84635
88 Al 7.94362 5.52424 11.5375
89 Al 9.12639 2.08232 14.3039
90 Al 7.73587 3.34846 9.42139
91 Al 5.40599 6.37524 12.9868
92 Al 6.70918 3.05995 13.0137
93 Ni 7.01535 5.61023 9.21254
94 Ni 5.03322 2.3467 9.25152
95 Ni 7.55456 0.697004 12.7947
96 Ni 9.38816 4.19983 13.0426
97 Al 9.34397 6.69346 1.74199
98 Al 6.72505 7.65803 3.32281
99 Al 6.62626 7.72535 0.350603
100 Al 9.09579 8.8949 4.0628
101 Al 5.6392 11.0705 3.31392
102 Al 7.76124 12.0491 6.98385
103 Al 5.50417 10.9816 0.393919
104 Al 7.9919 12.1263 4.03532
105 Al 9.03391 8.82282 6.97941
106 Al 7.6051 9.88268 1.9285
107 Al 5.45152 13.1105 5.50206
108 Al 6.81426 9.73452 5.54351
109 Ni 7.01918 12.3541 1.78251
110 Ni 5.20516 9.00276 1.85982
111 Ni 7.78072 7.45737 5.54149
112 Ni 9.45119 10.7966 5.49901
113 Al 9.2695 6.61395 9.39883
114 Al 6.63704 7.81903 10.6817
115 Al 6.78687 7.71632 7.78866
116 Al 9.03448 8.80927 11.5163
117 Al 5.43194 10.9227 10.6757
118 Al 8.03864 12.0836 14.3521
119 Al 5.53705 10.8738 7.91159
120 Al 8.08464 11.8788 11.5023
121 Al 9.0696 8.77156 14.505
122 Al 7.76686 9.92578 9.36808
123 Al 5.3774 13.0813 12.9139
124 Al 6.85445 9.7931 12.9694
125 Ni 6.85891 12.5085 9.16658
126 Ni 5.13657 8.92764 9.21649
127 Ni 7.56722 7.42813 12.9286
128 Ni 9.50716 10.6788 12.9501
ITEM: TIMESTEP
6900
ITEM: NUMBER OF ATOMS
128
ITEM: BOX BOUNDS xy xz yz pp pp pp
-1.2569868483605745e-01 9.6607049911949154e+00 -2.2861282247887558e-02
-2.8281189157389397e-01 1.3214836309925746e+01 -7.3138233649493581e-02
-1.7551278082160060e-02 1.4871029037893768e+01 -2.6784379494059829e-01
ITEM: ATOMS id element xu yu zu
1 Al 4.3993 -0.00910498 1.85432
2 Al 1.68785 1.05464 3.2112
3 Al 1.72457 1.14878 0.391924
4 Al 4.17424 2.01842 4.01111
5 Al 0.594859 4.3147 3.36654
6 Al 3.04246 5.41479 7.04709
7 Al 0.449189 4.49124 0.372587
8 Al 3.07057 5.36948 4.04682
9 Al 4.1859 2.028 6.99318
10 Al 2.78268 3.39645 1.6612
11 Al 0.457698 6.48968 5.68132
12 Al 1.91122 3.15845 5.56223
13 Ni 2.00556 5.7775 1.83048
14 Ni 0.17846 2.36373 1.75776
15 Ni 2.67299 0.77466 5.44265
16 Ni 4.46439 4.02836 5.45614
17 Al 4.39046 -0.183791 9.35214
18 Al 1.72061 0.880209 10.6475
19 Al 1.74099 0.900589 7.78374
20 Al 4.15452 1.93771 11.5451
21 Al 0.424718 4.44334 10.3732
22 Al 3.01308 5.2046 14.4507
23 Al 0.60424 4.49593 7.72509
24 Al 2.87168 5.28464 11.6308
25 Al 4.08485 1.99192 14.3311
26 Al 2.78062 3.28714 9.36092
27 Al 0.390488 6.34035 13.0893
28 Al 1.83397 3.02837 12.9368
29 Ni 2.11427 5.59259 9.24266
30 Ni 0.350476 2.174 9.13941
31 Ni 2.54231 0.50631 13.0422
32 Ni 4.42239 3.95996 12.897
33 Al 4.29579 6.66412 1.8436
34 Al 1.69797 7.58686 3.43003
35 Al 1.70565 7.66376 0.332682
36 Al 4.07282 8.70359 4.01977
37 Al 0.526812 11.0943 3.2442
38 Al 3.01955 12.0248 7.04919
39 Al 0.576844 10.9304 0.400944
40 Al 3.02834 12.0751 4.06069
41 Al 4.02844 8.80178 7.06262
42 Al 2.77399 9.93972 1.78287
43 Al 0.382177 13.1561 5.54413
44 Al 1.91909 9.82376 5.47144
45 Ni 2.11704 12.2107 1.8222
46 Ni 0.313911 8.91835 1.89174
47 Ni 2.68117 7.43419 5.54564
48 Ni 4.46178 10.6976 5.49399
49 Al 4.38716 6.58957 9.45535
50 Al 1.74956 7.5465 10.7786
51 Al 1.68329 7.70491 7.77223
52 Al 4.03114 8.69674 11.5453
53 Al 0.579756 10.8033 10.8142
54 Al 3.00544 11.8927 14.5074
55 Al 0.558033 10.8441 7.94172
56 Al 3.10215 11.7794 11.5139
57 Al 4.2291 8.58653 14.4798
58 Al 2.79029 9.91113 9.36921
59 Al 0.298806 12.9602 13.2025
60 Al 1.96575 9.74109 13.0394
61 Ni 1.97982 12.1233 9.3512
62 Ni 0.120862 8.70849 9.27693
63 Ni 2.69374 7.32166 13.0689
64 Ni 4.55761 10.5275 13.0048
65 Al 9.3276 -0.0373061 1.73236
66 Al 6.56816 1.08827 3.26466
67 Al 6.48004 0.939705 0.463283
68 Al 8.94342 2.00624 4.00243
69 Al 5.4835 4.34861 3.1762
70 Al 7.79703 5.21348 7.18772
71 Al 5.38387 4.51175 0.368047
72 Al 7.81327 5.45173 4.202
73 Al 8.99376 2.09986 6.89686
74 Al 7.52589 3.33206 1.81588
75 Al 5.12919 6.39578 5.5007
76 Al 6.93632 3.22695 5.53882
77 Ni 6.97446 5.75454 1.9854
78 Ni 5.04409 2.34801 1.76861
79 Ni 7.54731 0.802953 5.44912
80 Ni 9.29176 4.13136 5.6097
81 Al 9.30308 -0.104144 9.19391
82 Al 6.68916 0.963288 10.6457
83 Al 6.37607 0.755749 7.81068
84 Al 8.98284 1.98194 11.4924
85 Al 5.45534 4.16408 10.6723
86 Al 7.65064 5.20469 14.3725
87 Al 5.32143 4.21373 7.80881
88 Al 7.74576 5.12769 11.5291
89 Al 8.8525 1.98446 14.4122
90 Al 7.65452 3.08399 9.16873
91 Al 5.13523 6.40544 12.937
92 Al 6.75256 3.03949 12.8654
93 Ni 6.81528 5.63251 9.3028
94 Ni 5.0578 2.22458 9.26449
95 Ni 7.514 0.663107 13.1227
96 Ni 9.41314 3.91802 12.8339
97 Al 9.0751 6.5772 1.7953
98 Al 6.47001 7.68821 3.33261
99 Al 6.64618 7.65569 0.535085
100 Al 8.88019 8.69007 4.11097
101 Al 5.52996 10.9932 3.23291
102 Al 7.96693 12.1601 7.00169
103 Al 5.50145 11.1087 0.400426
104 Al 7.88836 11.9404 4.1013
105 Al 8.87329 8.55808 6.82717
106 Al 7.8139 9.9697 1.85257
107 Al 5.11086 13.0872 5.45854
108 Al 6.74861 9.88284 5.56767
109 Ni 7.01359 12.2715 1.81165
110 Ni 5.02675 9.04899 1.81872
111 Ni 7.2316 7.3547 5.52003
112 Ni 9.28148 10.7036 5.60917
113 Al 9.07075 6.53143 9.00161
114 Al 6.55196 7.52508 10.6699
115 Al 6.51757 7.59995 7.80896
116 Al 8.91357 8.53068 11.5447
117 Al 5.34348 10.9168 10.7338
118 Al 7.91765 11.8546 14.5206
119 Al 5.50695 11.052 7.8776
120 Al 7.90392 12.0533 11.6802
121 Al 8.95444 8.4311 14.4357
122 Al 7.61127 9.66231 9.24495
123 Al 5.11896 13.0919 13.0116
124 Al 6.82521 9.64702 12.9305
125 Ni 7.103 12.2081 9.27198
126 Ni 5.07351 9.01454 9.23392
127 Ni 7.42861 7.22038 13.0708
128 Ni 9.33723 10.5464 13.0169
ITEM: TIMESTEP
7000
ITEM: NUMBER OF ATOMS
128
ITEM: BOX BOUNDS xy xz yz pp pp pp
-1.3741281214776097e-01 9.6689242101261321e+00 -5.9356118592152327e-02
-1.9598913163365813e-02 1.3212973786195747e+01 -4.0138305685707670e-02
-6.9976927029909319e-02 1.4923454686841517e+01 -6.4933402600655362e-03
ITEM: ATOMS id element xu yu zu
1 Al 4.2776 0.0572027 1.71927
2 Al 1.6695 1.12035 3.27874
3 Al 1.61856 1.07681 0.201367
4 Al 4.13925 2.17672 4.09477
5 Al 0.462727 4.46834 3.3107
6 Al 2.91133 5.36064 7.03895
7 Al 0.753837 4.24589 0.281657
8 Al 3.0237 5.39973 4.07378
9 Al 4.30945 2.14779 7.02186
10 Al 2.68304 3.24756 2.00183
11 Al 0.495907 6.53186 5.47683
12 Al 1.81014 3.16352 5.46989
13 Ni 2.14438 5.74129 1.78862
14 Ni 0.188381 2.48027 1.84619
15 Ni 2.66122 0.75443 5.51383
16 Ni 4.42643 4.23646 5.53452
17 Al 4.40079 0.0564731 9.2454
18 Al 1.78066 1.22881 10.6187
19 Al 1.66005 1.089 7.75636
20 Al 4.14048 2.05491 11.498
21 Al 0.615657 4.45646 10.8421
22 Al 3.04968 5.4153 14.4402
23 Al 0.468579 4.36664 7.84129
24 Al 3.04996 5.47538 11.5202
25 Al 4.02579 2.13094 14.5164
26 Al 2.80608 3.39516 9.21496
27 Al 0.271913 6.58463 12.8572
28 Al 1.98174 3.30906 13.0321
29 Ni 1.96148 5.72432 9.26812
30 Ni 0.157558 2.46692 9.35785
31 Ni 2.7989 0.88989 13.0449
32 Ni 4.4588 4.09411 13.0045
33 Al 4.28194 6.54395 1.74236
34 Al 1.74768 7.69793 3.27133
35 Al 1.71149 7.71687 0.263155
36 Al 4.17133 8.78687 4.08281
37 Al 0.547372 10.943 3.23074
38 Al 3.06882 12.049 6.99253
39 Al 0.548176 11.0058 0.392517
40 Al 2.93001 12.0739 4.03116
41 Al 4.17912 8.91184 7.01135
42 Al 2.76252 9.99994 1.82517
43 Al 0.364565 13.001 5.58841
44 Al 2.00754 9.77485 5.57768
45 Ni 1.86755 12.4052 1.83908
46 Ni 0.0335833 9.07811 1.74786
47 Ni 2.68773 7.42623 5.49973
48 Ni 4.54518 10.8774 5.55308
49 Al 4.2969 6.7511 9.11691
50 Al 1.85493 7.81033 10.6365
51 Al 1.73223 7.79079 7.75589
52 Al 4.10509 8.81634 11.6857
53 Al 0.670531 11.0061 10.8079
54 Al 2.94227 12.0027 14.4353
55 Al 0.809753 11.0178 7.71208
56 Al 2.98746 12.0195 11.512
57 Al 4.02118 8.85759 14.4694
58 Al 2.92227 10.0648 9.28167
59 Al 0.420311 13.1043 12.9301
60 Al 1.8184 9.75631 12.9072
61 Ni 2.1041 12.3565 9.16787
62 Ni 0.219998 9.1166 9.34846
63 Ni 2.57955 7.38916 12.9567
64 Ni 4.51783 10.7634 13.064
65 Al 9.26589 0.0780793 1.88322
66 Al 6.5384 1.21366 3.21645
67 Al 6.53022 1.20023 0.21315
68 Al 8.86177 2.18358 4.08992
69 Al 5.44017 4.41142 3.2008
70 Al 8.01449 5.70581 6.88389
71 Al 5.46353 4.30015 0.21514
72 Al 7.7378 5.5512 4.0103
73 Al 9.02919 2.00665 7.02525
74 Al 7.67504 3.46715 1.84164
75 Al 5.17747 6.54475 5.48016
76 Al 6.76453 3.16575 5.66399
77 Ni 6.79088 5.69036 1.64343
78 Ni 5.0319 2.45362 1.8134
79 Ni 7.47315 0.899189 5.60424
80 Ni 9.21346 4.19052 5.5214
81 Al 9.35461 0.0119503 9.25133
82 Al 6.51575 1.04663 10.6782
83 Al 6.70115 1.1369 8.08135
84 Al 8.8959 2.21179 11.5779
85 Al 5.47648 4.40953 10.7337
86 Al 7.84822 5.5634 14.4958
87 Al 5.41858 4.50418 7.74356
88 Al 7.76676 5.323 11.5442
89 Al 8.9682 2.07327 14.4654
90 Al 7.51794 3.4268 9.34507
91 Al 5.08807 6.57944 13.0298
92 Al 6.87052 3.36792 13.0276
93 Ni 6.94695 5.80426 9.25871
94 Ni 5.14387 2.51678 9.22784
95 Ni 7.55992 0.815718 12.9677
96 Ni 9.23373 4.09652 13.1313
97 Al 9.13696 6.63212 1.78254
98 Al 6.52336 7.68899 3.10878
99 Al 6.36062 7.68177 0.15594
100 Al 9.01304 8.5576 4.08859
101 Al 5.38327 11.1757 3.24548
102 Al 7.97945 12.0196 7.03532
103 Al 5.3908 11.0608 0.409689
104 Al 7.9119 12.0298 4.14504
105 Al 8.92652 8.58973 7.21324
106 Al 7.56492 10.0045 1.76868
107 Al 5.00016 13.332 5.56187
108 Al 6.90687 10.0452 5.48726
109 Ni 6.95584 12.4096 1.76106
110 Ni 5.02299 9.06389 1.79339
111 Ni 7.35598 7.63709 5.54904
112 Ni 9.41672 10.6275 5.48472
113 Al 9.34165 6.53483 9.37245
114 Al 6.52762 7.69727 10.6596
115 Al 6.45043 7.69692 7.97218
116 Al 8.94637 8.81582 11.5684
117 Al 5.29952 11.1039 10.8447
118 Al 7.76288 12.1391 14.5034
119 Al 5.41317 11.1995 7.89473
120 Al 7.92368 12.1726 11.5603
121 Al 8.89611 8.74029 14.4926
122 Al 7.66708 10.0366 9.23189
123 Al 5.18794 13.2268 12.9784
124 Al 6.80822 9.86385 13.0945
125 Ni 6.96858 12.368 9.27058
126 Ni 5.12945 9.15728 9.38174
127 Ni 7.46459 7.52251 13.072
128 Ni 9.35023 10.7808 13.0801
ITEM: TIMESTEP
7100
ITEM: NUMBER OF ATOMS
128
ITEM: BOX BOUNDS xy xz yz pp pp pp
-4.6126746618440129e-02 9.7239412924427615e+00 -1.1834524867217644e-02
-6.0432865236492717e-05 1.3417220645702509e+01 5.8643248435297841e-02
1.3027616251394036e-02 1.4840450143560211e+01 2.1729199954484624e-01
ITEM: ATOMS id element xu yu zu
1 Al 4.44929 0.0481406 1.98697
2 Al 1.92118 1.21918 3.24681
3 Al 1.86811 1.14441 0.499428
4 Al 4.16727 2.24445 4.15953
5 Al 0.664805 4.35492 3.2467
6 Al 3.1866 5.58863 6.98459
7 Al 0.477512 4.51713 0.426946
8 Al 3.12677 5.55982 4.12966
9 Al 4.10948 2.3987 7.0878
10 Al 2.88464 3.49265 1.63137
11 Al 0.412811 6.70619 5.49782
12 Al 2.01129 3.4934 5.56736
13 Ni 2.08324 5.73333 1.8046
14 Ni 0.336425 2.43281 1.92379
15 Ni 2.61153 1.05767 5.67426
16 Ni 4.65593 4.25778 5.63159
17 Al 4.46391 0.154746 9.23097
18 Al 1.62098 1.2063 10.7749
19 Al 1.77266 1.27859 7.88098
20 Al 4.07295 2.39965 11.5925
21 Al 0.704104 4.48778 10.6962
22 Al 3.10543 5.71539 14.3638
23 Al 0.714378 4.58532 7.86107
24 Al 3.00923 5.55587 11.6204
25 Al 4.19136 2.38854 14.3955
26 Al 2.79485 3.41601 9.37686
27 Al 0.49597 6.73611 13.1001
28 Al 2.00122 3.39734 13.0466
29 Ni 2.15658 5.93961 9.25213
30 Ni 0.283329 2.51536 9.19458
31 Ni 2.62392 1.12204 13.0005
32 Ni 4.62121 4.48087 13.1153
33 Al 4.42339 6.6681 1.89121
34 Al 1.74931 7.83799 3.34485
35 Al 1.70452 7.75119 0.3258
36 Al 4.13082 8.83232 4.01441
37 Al 0.748944 11.1709 3.28318
38 Al 2.98933 12.1322 7.0231
39 Al 0.687434 11.0433 0.392242
40 Al 3.10289 12.1833 4.16783
41 Al 4.07502 8.84258 6.95936
42 Al 2.72895 9.88013 1.81917
43 Al 0.39911 13.2251 5.66848
44 Al 1.87222 10.0791 5.56045
45 Ni 2.24352 12.3558 1.88823
46 Ni 0.287778 9.15467 1.82173
47 Ni 2.65121 7.59375 5.5223
48 Ni 4.48638 10.7251 5.52813
49 Al 4.42002 6.80881 9.34962
50 Al 1.57144 7.85861 10.8391
51 Al 1.75695 7.76103 7.80863
52 Al 4.04715 8.9714 11.5834
53 Al 0.702709 11.2048 10.675
54 Al 3.08318 12.3198 14.3463
55 Al 0.629154 11.3499 7.81035
56 Al 3.12688 12.2887 11.4568
57 Al 4.24429 8.85269 14.4498
58 Al 2.7888 9.99819 9.19636
59 Al 0.211324 13.3188 13.0186
60 Al 2.04018 10.1358 12.9803
61 Ni 2.24983 12.5655 9.26953
62 Ni 0.351465 9.20456 9.14978
63 Ni 2.69319 7.71615 12.9866
64 Ni 4.43464 11.0013 12.923
65 Al 9.24041 0.0192361 1.80177
66 Al 6.57407 1.20225 3.33616
67 Al 6.6018 1.16476 0.411092
68 Al 9.06664 2.30887 4.11739
69 Al 5.55787 4.53802 3.4246
70 Al 7.95423 5.43105 6.87059
71 Al 5.44455 4.5137 0.523813
72 Al 8.15123 5.55355 3.97291
73 Al 9.0148 2.24069 6.99347
74 Al 7.63144 3.31992 1.89078
75 Al 5.29007 6.60574 5.52299
76 Al 6.9363 3.23845 5.46157
77 Ni 7.06738 5.7847 1.94943
78 Ni 5.11581 2.53345 1.9258
79 Ni 7.69781 0.948154 5.48313
80 Ni 9.54728 4.26774 5.52091
81 Al 9.15803 0.307552 9.25
82 Al 6.54163 1.30294 10.6611
83 Al 6.39709 1.45936 7.6943
84 Al 9.04721 2.338 11.5992
85 Al 5.58528 4.76995 10.7913
86 Al 7.82281 5.61709 14.3726
87 Al 5.4633 4.54832 7.91946
88 Al 8.08918 5.74824 11.5124
89 Al 9.09562 2.47568 14.4216
90 Al 7.61553 3.44562 9.23965
91 Al 5.33806 6.68376 13.0977
92 Al 6.73191 3.38766 13.0274
93 Ni 7.14178 5.86597 9.35266
94 Ni 5.17298 2.61165 9.2963
95 Ni 7.44252 1.00927 12.9847
96 Ni 9.52836 4.36685 12.933
97 Al 9.3228 6.7354 1.89377
98 Al 6.54136 7.81288 3.24614
99 Al 6.71037 7.92516 0.309329
100 Al 8.99534 9.01253 4.02677
101 Al 5.45699 10.9598 3.30671
102 Al 7.76728 12.0928 6.95051
103 Al 5.47441 11.021 0.276717
104 Al 7.97895 12.0459 4.0268
105 Al 9.22302 8.84755 6.91842
106 Al 7.67311 9.96949 1.77473
107 Al 5.33728 12.9418 5.57358
108 Al 6.8302 9.74881 5.47778
109 Ni 6.84666 12.3227 1.86998
110 Ni 5.13386 9.16893 1.77522
111 Ni 7.72159 7.40755 5.47384
112 Ni 9.30748 11.0275 5.49347
113 Al 9.26537 6.85447 9.21217
114 Al 6.5468 7.92784 10.6061
115 Al 6.65237 7.79619 7.78616
116 Al 9.05054 8.93774 11.5365
117 Al 5.39712 11.0957 10.7085
118 Al 7.8848 12.2524 14.3964
119 Al 5.45839 10.9391 7.79662
120 Al 7.82363 12.2588 11.4107
121 Al 9.05316 9.13715 14.3104
122 Al 7.81543 10.0527 9.24957
123 Al 5.26352 13.3622 13.1177
124 Al 6.78351 10.0113 12.9492
125 Ni 6.85729 12.4972 9.17352
126 Ni 5.03423 9.00341 9.10881
127 Ni 7.58264 7.69173 12.9469
128 Ni 9.44607 10.918 12.8384
ITEM: TIMESTEP
7200
ITEM: NUMBER OF ATOMS
128
ITEM: BOX BOUNDS xy xz yz pp pp pp
-4.5624060182907655e-02 9.7694176698936381e+00 6.0641522789632654e-02
-4.2073395917140211e-02 1.3317566061722088e+01 3.2146264664858600e-02
-2.2657611070229677e-02 1.4876135370881848e+01 7.5624452512509197e-02
ITEM: ATOMS id element xu yu zu
1 Al 4.3943 0.0722506 1.69404
2 Al 1.6942 1.04466 3.16447
3 Al 1.76245 1.14725 0.338524
4 Al 4.22559 2.21696 4.03888
5 Al 0.631847 4.50411 3.33936
6 Al 3.19794 5.58217 6.92513
7 Al 0.785223 4.50945 0.419667
8 Al 3.2513 5.70251 4.11439
9 Al 4.24875 2.08597 7.0095
10 Al 2.85105 3.28489 1.9753
11 Al 0.243862 6.63353 5.69868
12 Al 2.12128 3.25648 5.61802
13 Ni 2.17966 5.85322 1.8911
14 Ni 0.210066 2.46927 1.71275
15 Ni 2.85431 0.831825 5.4243
16 Ni 4.55936 4.19444 5.49123
17 Al 4.29586 0.0631746 9.2937
18 Al 1.74144 1.16879 10.7633
19 Al 1.64903 1.18566 7.80773
20 Al 4.05959 2.16191 11.6161
21 Al 0.637794 4.60368 10.9355
22 Al 3.21246 5.59425 14.4466
23 Al 0.858891 4.45593 7.81374
24 Al 3.14557 5.54139 11.537
25 Al 4.20086 2.08805 14.4329
26 Al 2.82052 3.32392 9.22428
27 Al 0.478816 6.73149 12.9455
28 Al 2.09674 3.38685 12.9934
29 Ni 2.19496 5.68366 9.27114
30 Ni 0.25471 2.4928 9.28864
31 Ni 2.69899 0.890083 12.9908
32 Ni 4.57581 4.1722 12.9388
33 Al 4.49209 6.66081 1.85523
34 Al 1.75459 7.89665 3.32943
35 Al 1.88786 7.89837 0.364091
36 Al 4.30109 8.76224 4.1573
37 Al 0.629191 11.1614 3.22449
38 Al 2.98684 12.2674 7.00729
39 Al 0.663247 11.0853 0.445741
40 Al 3.12036 12.0342 3.99219
41 Al 4.26929 8.66777 6.99055
42 Al 2.92944 10.1711 1.86916
43 Al 0.398417 13.3049 5.46529
44 Al 2.19568 9.91027 5.57283
45 Ni 2.24644 12.4534 1.77734
46 Ni 0.327378 9.13201 1.83438
47 Ni 2.63126 7.43125 5.57356
48 Ni 4.54123 10.8511 5.45819
49 Al 4.56468 6.6012 9.32373
50 Al 1.75793 7.84769 10.6274
51 Al 1.66327 7.92393 7.79167
52 Al 4.21607 8.81658 11.5876
53 Al 0.536785 11.222 10.7446
54 Al 3.22391 12.1763 14.3672
55 Al 0.7156 10.9759 7.83738
56 Al 3.03389 12.0757 11.5358
57 Al 4.25136 8.90098 14.4124
58 Al 2.86883 10.0348 9.1868
59 Al 0.438606 13.2922 12.9141
60 Al 1.99277 9.92568 12.9366
61 Ni 2.07689 12.3954 9.29969
62 Ni 0.166395 9.05962 9.27485
63 Ni 2.69242 7.585 12.9811
64 Ni 4.70506 10.8467 12.9109
65 Al 9.13708 0.0575292 1.76135
66 Al 6.72345 1.15782 3.15115
67 Al 6.67625 1.10331 0.269331
68 Al 8.93288 2.27535 4.09824
69 Al 5.4622 4.37045 3.11507
70 Al 8.04728 5.46962 7.05849
71 Al 5.58194 4.53874 0.229695
72 Al 7.8664 5.39414 4.18555
73 Al 8.95912 2.29385 6.99835
74 Al 7.76505 3.38543 1.68118
75 Al 5.40103 6.4391 5.54836
76 Al 6.87644 3.24881 5.65235
77 Ni 7.11871 5.67591 1.8773
78 Ni 5.18095 2.37741 1.75308
79 Ni 7.49456 0.854282 5.54694
80 Ni 9.49339 4.10062 5.56038
81 Al 9.35654 0.0790571 9.29739
82 Al 6.57417 1.20539 10.7782
83 Al 6.65105 1.20794 7.93515
84 Al 9.1398 2.22999 11.6083
85 Al 5.48752 4.26704 10.6363
86 Al 8.12469 5.58562 14.4623
87 Al 5.44503 4.31298 7.78208
88 Al 7.85287 5.58117 11.5616
89 Al 9.08444 2.35497 14.4558
90 Al 7.66173 3.3418 9.19506
91 Al 5.25786 6.58037 12.8693
92 Al 6.85328 3.37451 13.1495
93 Ni 6.90129 5.71945 9.28154
94 Ni 5.05919 2.35725 9.25478
95 Ni 7.60629 0.913534 13.0223
96 Ni 9.38686 4.24239 13.061
97 Al 9.29143 6.69305 1.71603
98 Al 6.78332 7.82417 3.24383
99 Al 6.55314 7.76274 0.222771
100 Al 9.16347 8.88125 4.18043
101 Al 5.5201 11.0417 3.20506
102 Al 7.97693 12.0408 7.00849
103 Al 5.58383 11.0274 0.403448
104 Al 7.95616 12.0591 4.17672
105 Al 8.92193 8.94136 7.10812
106 Al 7.64064 9.88891 1.86858
107 Al 5.24408 13.2628 5.47085
108 Al 6.79315 9.97242 5.55258
109 Ni 7.03749 12.4265 1.77468
110 Ni 5.18916 8.95957 1.89198
111 Ni 7.54202 7.59696 5.61989
112 Ni 9.60276 10.7729 5.55152
113 Al 9.24037 6.68686 9.21369
114 Al 6.67458 7.79997 10.6415
115 Al 6.56612 7.75854 7.85187
116 Al 9.10794 8.93544 11.6096
117 Al 5.53467 11.1999 10.7721
118 Al 7.91493 12.2559 14.4049
119 Al 5.46449 11.2171 7.79055
120 Al 7.92142 12.2898 11.5231
121 Al 8.96587 8.97309 14.5048
122 Al 7.50691 9.91047 9.21372
123 Al 5.39399 13.2145 12.8737
124 Al 7.00516 9.91291 13.0035
125 Ni 6.97535 12.4164 9.39269
126 Ni 5.19789 9.10977 9.23364
127 Ni 7.61246 7.56452 12.9634
128 Ni 9.46929 10.8708 13.0932
ITEM: TIMESTEP
7300
ITEM: NUMBER OF ATOMS
128
ITEM: BOX BOUNDS xy xz yz pp pp pp
-8.3787008307402391e-02 9.6787441695986427e+00 4.6430361738647924e-02
-2.0620151643289605e-01 1.3209195021063188e+01 -8.2479022703648500e-02
-3.4492981498333464e-02 1.4887970741309942e+01 -1.9687470866214915e-01
ITEM: ATOMS id element xu yu zu
1 Al 4.33997 0.0277722 1.7442
2 Al 1.76886 1.16533 3.22415
3 Al 1.82279 1.13883 0.335461
4 Al 4.12228 2.06737 4.12072
5 Al 0.63232 4.35306 3.30518
6 Al 2.81352 5.25963 6.92967
7 Al 0.579686 4.39393 0.432335
8 Al 2.98079 5.33305 4.10325
9 Al 4.06875 2.08875 6.90656
10 Al 2.77177 3.29166 1.60454
11 Al 0.49002 6.40418 5.39707
12 Al 1.82144 3.05499 5.44711
13 Ni 2.16566 5.70951 1.68077
14 Ni 0.344175 2.49164 1.80725
15 Ni 2.47351 0.811993 5.56083
16 Ni 4.38963 4.0652 5.56457
17 Al 4.39769 -0.048449 9.35398
18 Al 1.71082 0.966474 10.7232
19 Al 1.8198 0.980342 7.96446
20 Al 4.20493 1.99319 11.5528
21 Al 0.683218 4.24004 10.7248
22 Al 3.05339 5.24274 14.3827
23 Al 0.495128 4.39207 7.82105
24 Al 3.05797 5.32863 11.5216
25 Al 4.09998 1.97553 14.408
26 Al 2.84107 3.3864 9.10797
27 Al 0.398189 6.40894 12.9295
28 Al 1.97945 2.97415 12.8804
29 Ni 2.0214 5.6593 9.28156
30 Ni 0.308453 2.28656 9.1917
31 Ni 2.7019 0.692851 12.9326
32 Ni 4.50653 4.03245 12.9776
33 Al 4.30721 6.70196 1.81821
34 Al 1.7973 7.60736 3.23554
35 Al 1.6715 7.57797 0.288612
36 Al 4.14259 8.78707 4.0527
37 Al 0.675711 10.9394 3.28153
38 Al 3.20008 12.0433 7.04455
39 Al 0.612386 10.8133 0.389066
40 Al 3.07386 12.0909 4.14617
41 Al 4.0938 8.8426 7.15035
42 Al 2.68353 9.85134 1.81885
43 Al 0.41955 13.0496 5.57554
44 Al 1.95588 9.73571 5.40063
45 Ni 2.1071 12.2996 1.90108
46 Ni 0.290949 8.98558 1.88186
47 Ni 2.7828 7.47803 5.61587
48 Ni 4.632 10.661 5.60895
49 Al 4.32798 6.67541 9.13507
50 Al 1.77614 7.68032 10.7529
51 Al 1.7612 7.76374 7.83116
52 Al 4.17226 8.63044 11.6538
53 Al 0.734233 10.8591 10.8291
54 Al 3.02334 11.8761 14.5518
55 Al 0.657101 10.8948 7.77884
56 Al 3.0929 11.9158 11.5395
57 Al 4.08351 8.60522 14.5191
58 Al 2.73475 9.86496 9.35802
59 Al 0.450865 12.9978 12.9666
60 Al 1.99012 9.6357 13.067
61 Ni 2.15235 12.162 9.17236
62 Ni 0.268504 8.8817 9.29533
63 Ni 2.7027 7.21635 12.9863
64 Ni 4.4549 10.619 13.1184
65 Al 9.30987 -0.00654855 1.92153
66 Al 6.50991 1.08248 3.24895
67 Al 6.5787 1.12875 0.361309
68 Al 8.93066 2.05976 4.23307
69 Al 5.5219 4.46588 3.36065
70 Al 7.62017 5.38397 6.94584
71 Al 5.54215 4.41552 0.296115
72 Al 7.83348 5.42803 4.01449
73 Al 8.92865 2.08396 7.01087
74 Al 7.76456 3.31697 1.93577
75 Al 4.93699 6.57805 5.6822
76 Al 6.78374 3.13697 5.48738
77 Ni 6.8279 5.76179 1.73583
78 Ni 4.99172 2.47625 1.85731
79 Ni 7.53495 0.758398 5.49299
80 Ni 9.19149 4.13746 5.53145
81 Al 9.34831 -0.0736473 9.2701
82 Al 6.70426 0.905322 10.5428
83 Al 6.39253 0.929262 7.73221
84 Al 8.96893 2.04432 11.5001
85 Al 5.35616 4.41292 10.6895
86 Al 7.7852 5.20852 14.4395
87 Al 5.36888 4.35503 7.82465
88 Al 7.91553 5.2811 11.4631
89 Al 8.88239 1.86913 14.5659
90 Al 7.5562 3.17182 9.1635
91 Al 5.1506 6.46465 13.0687
92 Al 6.81016 3.21491 12.9107
93 Ni 6.96511 5.66289 9.2494
94 Ni 5.09291 2.40929 9.19872
95 Ni 7.5256 0.691118 12.9275
96 Ni 9.41792 3.98249 12.9071
97 Al 9.08783 6.51625 1.9418
98 Al 6.3798 7.69838 3.35025
99 Al 6.66299 7.86364 0.503677
100 Al 8.94891 8.6667 4.04475
101 Al 5.44659 11.0512 3.35033
102 Al 7.88455 12.0148 6.93197
103 Al 5.46777 11.1317 0.437362
104 Al 8.00626 12.1298 4.02373
105 Al 9.0707 8.6353 6.92575
106 Al 7.65124 10.0637 1.87675
107 Al 5.23964 13.1042 5.49472
108 Al 6.85567 9.80795 5.56987
109 Ni 7.08394 12.4306 1.82506
110 Ni 5.11572 9.09667 1.79618
111 Ni 7.46802 7.35508 5.54838
112 Ni 9.27361 10.6906 5.53354
113 Al 9.23718 6.58807 9.42925
114 Al 6.50918 7.48047 10.7655
115 Al 6.66457 7.80284 7.82213
116 Al 8.90135 8.48579 11.5277
117 Al 5.5642 10.9923 10.7903
118 Al 7.97646 12.0158 14.5081
119 Al 5.74987 10.9449 7.79355
120 Al 7.90972 11.9261 11.5386
121 Al 8.93713 8.44595 14.3896
122 Al 7.82053 10.0438 9.32819
123 Al 5.12861 13.0293 13.0646
124 Al 6.86447 9.67229 12.9413
125 Ni 7.08757 12.2982 9.18787
126 Ni 5.16135 9.02938 9.38465
127 Ni 7.42929 7.24103 13.1131
128 Ni 9.3056 10.5626 12.9446
ITEM: TIMESTEP
7400
ITEM: NUMBER OF ATOMS
128
ITEM: BOX BOUNDS xy xz yz pp pp pp
-1.7628328239800056e-01 9.6673494400469995e+00 -3.9186918497411065e-02
-1.8008959949231290e-01 1.3240414495715381e+01 -1.0075274610983535e-01
-1.4392756034882659e-02 1.4867870515846494e+01 -1.3954331706935591e-01
ITEM: ATOMS id element xu yu zu
1 Al 4.43014 -0.0205251 2.03717
2 Al 1.66224 1.02624 3.36732
3 Al 1.72053 1.06623 0.394001
4 Al 4.05772 2.17161 4.20193
5 Al 0.395893 4.44334 3.21779
6 Al 3.11921 5.49294 7.04004
7 Al 0.643379 4.29849 0.420649
8 Al 2.96014 5.49926 4.14693
9 Al 4.15394 2.19509 6.97474
10 Al 2.67217 3.1756 1.96137
11 Al 0.281645 6.4882 5.5095
12 Al 2.11284 3.33197 5.66981
13 Ni 1.99681 5.71077 1.93044
14 Ni 0.176533 2.32412 1.71908
15 Ni 2.7958 0.699164 5.61902
16 Ni 4.57669 4.23534 5.4984
17 Al 4.47409 -0.0104842 9.13962
18 Al 1.67032 0.959253 10.6911
19 Al 1.56758 0.953479 7.71603
20 Al 3.94366 2.05482 11.5936
21 Al 0.412263 4.42073 10.6878
22 Al 2.91477 5.43931 14.4955
23 Al 0.598699 4.28518 7.84628
24 Al 3.01719 5.37752 11.5542
25 Al 3.9973 2.0013 14.4745
26 Al 2.64103 3.20608 9.41765
27 Al 0.277596 6.41036 13.1241
28 Al 1.73759 3.10863 12.9866
29 Ni 2.06841 5.66872 9.26952
30 Ni 0.126533 2.29427 9.3179
31 Ni 2.5853 0.669081 13.0255
32 Ni 4.42734 4.01452 13.0071
33 Al 4.35118 6.57668 1.69908
34 Al 1.59966 7.69752 3.18991
35 Al 1.85329 7.7773 0.511344
36 Al 4.09251 8.74321 4.0577
37 Al 0.516856 10.9091 3.13918
38 Al 2.9813 12.0378 7.02072
39 Al 0.644528 11.12 0.253676
40 Al 2.91552 11.9501 4.0798
41 Al 4.18467 8.55561 6.73606
42 Al 2.71749 9.96587 1.82942
43 Al 0.33453 13.2052 5.41607
44 Al 1.87513 9.66841 5.73741
45 Ni 2.11303 12.3316 1.78664
46 Ni 0.203286 9.06485 1.70296
47 Ni 2.47004 7.45355 5.43553
48 Ni 4.54253 10.835 5.51287
49 Al 4.32232 6.61422 9.44394
50 Al 1.56651 7.61394 10.7414
51 Al 1.72817 7.63048 7.81734
52 Al 4.02851 8.66659 11.5167
53 Al 0.604902 10.9772 10.7024
54 Al 3.08645 12.0203 14.4504
55 Al 0.604781 11.0786 7.90007
56 Al 2.93135 12.0744 11.5914
57 Al 4.04356 8.73245 14.4081
58 Al 2.72605 9.93693 9.25362
59 Al 0.299838 13.0428 13.0119
60 Al 1.89089 9.77946 12.944
61 Ni 2.14813 12.4 9.36148
62 Ni 0.35055 9.08433 9.23119
63 Ni 2.56013 7.42679 13.0622
64 Ni 4.5184 10.6846 12.9677
65 Al 9.12433 -0.0328052 1.75406
66 Al 6.48722 1.12262 3.32823
67 Al 6.76715 1.00819 0.45056
68 Al 8.92767 2.09178 4.09487
69 Al 5.39206 4.46962 3.25138
70 Al 7.83234 5.45467 7.02577
71 Al 5.35249 4.44103 0.367402
72 Al 7.79168 5.42595 4.07931
73 Al 9.07037 1.98484 6.93539
74 Al 7.61144 3.25851 1.76341
75 Al 5.22693 6.4695 5.36775
76 Al 6.79818 3.26381 5.53315
77 Ni 6.937 5.73329 1.87034
78 Ni 5.07361 2.37757 1.77061
79 Ni 7.47569 0.92059 5.50787
80 Ni 9.33724 4.08706 5.49725
81 Al 9.15152 0.0183398 9.28253
82 Al 6.51231 0.999455 10.7349
83 Al 6.69649 0.991482 7.9389
84 Al 8.949 1.90407 11.5504
85 Al 5.40512 4.36863 10.8435
86 Al 7.58661 5.3208 14.3891
87 Al 5.6027 4.42663 7.92031
88 Al 7.85275 5.43414 11.5101
89 Al 8.92663 2.00964 14.3749
90 Al 7.73642 3.44854 9.50501
91 Al 5.14938 6.39497 13.0796
92 Al 6.64247 3.05518 12.8619
93 Ni 6.89743 5.76414 9.2681
94 Ni 5.06537 2.36699 9.29325
95 Ni 7.40628 0.681376 13.0443
96 Ni 9.13677 4.04045 12.8727
97 Al 9.25822 6.54709 1.61036
98 Al 6.46709 7.70902 3.22587
99 Al 6.42395 7.74587 0.347457
100 Al 8.94721 8.66726 3.98856
101 Al 5.26353 11.0683 3.25203
102 Al 7.81131 11.8947 7.08237
103 Al 5.32118 11.0146 0.429036
104 Al 7.76715 12.1136 4.13457
105 Al 8.87359 8.81649 7.06341
106 Al 7.58773 9.91169 1.7959
107 Al 5.1905 13.2512 5.53374
108 Al 6.67174 9.82075 5.49405
109 Ni 6.88777 12.278 1.80149
110 Ni 5.07159 9.04715 1.85457
111 Ni 7.5208 7.46918 5.49707
112 Ni 9.35529 10.7112 5.53874
113 Al 9.16994 6.62359 9.21943
114 Al 6.56951 7.6657 10.7794
115 Al 6.44615 7.46734 7.66572
116 Al 8.99812 8.77274 11.5382
117 Al 5.46524 10.838 10.7273
118 Al 7.77529 11.9034 14.4226
119 Al 5.32715 11.0689 7.86769
120 Al 7.85028 11.9455 11.5671
121 Al 8.83901 8.65122 14.3977
122 Al 7.53109 9.8564 9.31531
123 Al 5.07118 13.1092 12.9853
124 Al 6.74585 9.69638 12.9565
125 Ni 6.78622 12.2906 9.31467
126 Ni 4.99801 8.86573 9.17553
127 Ni 7.43323 7.41705 12.8848
128 Ni 9.31988 10.7615 13.0211
ITEM: TIMESTEP
7500
ITEM: NUMBER OF ATOMS
128
ITEM: BOX BOUNDS xy xz yz pp pp pp
-8.4778494201339094e-02 9.7202036216656307e+00 -5.4467911410846725e-02
-3.6703171238866794e-02 1.3376385823277111e+01 5.8887216618891701e-02
-1.4594060014205823e-02 1.4868071819825808e+01 1.3981443874581126e-01
ITEM: ATOMS id element xu yu zu
1 Al 4.38788 -0.054385 1.66362
2 Al 1.81932 1.2078 3.22133
3 Al 1.62268 1.2293 0.322853
4 Al 4.27105 2.06388 4.15723
5 Al 0.768941 4.53908 3.22901
6 Al 3.11579 5.57714 6.94651
7 Al 0.600341 4.48357 0.493247
8 Al 3.18111 5.51769 4.16917
9 Al 4.14189 2.10824 6.94827
10 Al 3.03157 3.51114 1.77206
11 Al 0.412281 6.72778 5.63874
12 Al 1.97459 3.22198 5.38877
13 Ni 2.1372 5.80861 1.69348
14 Ni 0.219964 2.44278 1.90238
15 Ni 2.72193 0.950575 5.47223
16 Ni 4.53163 4.0561 5.539
17 Al 4.46193 0.00812962 9.25386
18 Al 1.75697 1.20246 10.7007
19 Al 1.75791 1.33193 7.855
20 Al 4.18718 2.27503 11.6125
21 Al 0.558457 4.477 10.6716
22 Al 3.16583 5.6656 14.4875
23 Al 0.797479 4.55653 7.77856
24 Al 3.01025 5.55807 11.4752
25 Al 4.13961 2.31862 14.5401
26 Al 2.929 3.44572 9.28189
27 Al 0.330221 6.71655 12.7602
28 Al 2.10827 3.41458 12.9526
29 Ni 2.21145 5.78729 9.28732
30 Ni 0.329512 2.60973 9.28767
31 Ni 2.6693 0.9846 12.9735
32 Ni 4.62 4.25803 12.9701
33 Al 4.51541 6.60865 2.00281
34 Al 1.75227 7.72831 3.30879
35 Al 1.66894 7.7623 0.36293
36 Al 4.1903 8.78525 4.0756
37 Al 0.677599 11.3077 3.36898
38 Al 2.99842 12.2305 6.98654
39 Al 0.556316 11.2223 0.41955
40 Al 3.31686 12.2798 4.01705
41 Al 3.93283 8.85102 7.11501
42 Al 2.87204 10.0248 1.8123
43 Al 0.418487 13.4887 5.84363
44 Al 2.01346 10.0745 5.35745
45 Ni 2.08723 12.417 1.90534
46 Ni 0.266036 9.16097 2.00165
47 Ni 2.73687 7.44741 5.56272
48 Ni 4.42847 10.7341 5.47645
49 Al 4.54368 6.67766 9.16862
50 Al 1.70795 7.84068 10.5115
51 Al 1.6273 7.71304 7.88518
52 Al 4.10058 8.97901 11.492
53 Al 0.492501 11.1305 10.673
54 Al 2.89564 12.2035 14.29
55 Al 0.506628 11.15 7.79875
56 Al 2.93011 12.3701 11.4487
57 Al 4.21592 8.77954 14.3478
58 Al 2.62064 10.0276 9.30359
59 Al 0.196746 13.3795 12.9571
60 Al 1.99573 9.96415 12.9027
61 Ni 2.03473 12.3865 9.2563
62 Ni 0.126943 9.19926 9.25769
63 Ni 2.58699 7.55406 12.9051
64 Ni 4.46892 10.8689 12.8995
65 Al 9.23902 0.0906618 1.80039
66 Al 6.6554 1.09786 3.29378
67 Al 6.47892 1.11575 0.324155
68 Al 9.03832 2.13075 4.22303
69 Al 5.55214 4.46091 3.36126
70 Al 8.01926 5.56999 7.05852
71 Al 5.46769 4.48409 0.345034
72 Al 8.01171 5.38958 4.09347
73 Al 8.96177 2.32184 7.06604
74 Al 7.68942 3.39529 1.73389
75 Al 5.30203 6.61485 5.56304
76 Al 6.77546 3.23179 5.49587
77 Ni 7.06473 5.75565 1.85273
78 Ni 5.16846 2.41533 1.88517
79 Ni 7.4774 0.845071 5.5791
80 Ni 9.55124 4.23708 5.54037
81 Al 9.32918 0.270762 9.19579
82 Al 6.59481 1.23006 10.8111
83 Al 6.50021 1.18598 7.83015
84 Al 8.8519 2.38436 11.4361
85 Al 5.54155 4.52367 10.8215
86 Al 8.0252 5.73402 14.4743
87 Al 5.59537 4.58508 7.66789
88 Al 7.903 5.52035 11.611
89 Al 8.93173 2.29153 14.591
90 Al 7.57653 3.34986 9.14657
91 Al 5.26188 6.5812 12.7638
92 Al 6.83678 3.36294 13.1259
93 Ni 6.92516 5.68652 9.19912
94 Ni 5.12349 2.42292 9.3418
95 Ni 7.55703 0.985876 13.0192
96 Ni 9.48836 4.23644 13.099
97 Al 9.32162 6.77757 1.94176
98 Al 6.76663 7.84485 3.23992
99 Al 6.46527 7.64166 0.406869
100 Al 9.05376 9.03794 4.2216
101 Al 5.51055 10.9364 3.20627
102 Al 7.80937 12.3621 7.0848
103 Al 5.46467 10.9985 0.258651
104 Al 7.78297 12.0924 4.15883
105 Al 9.08508 8.86327 6.93784
106 Al 7.71289 10.0321 1.7883
107 Al 5.20477 13.1406 5.64127
108 Al 6.76289 9.86275 5.67283
109 Ni 6.90387 12.4226 1.8247
110 Ni 5.08388 8.98784 1.75591
111 Ni 7.56826 7.50771 5.57086
112 Ni 9.37039 10.9728 5.6219
113 Al 9.2822 6.54473 9.25513
114 Al 6.69991 7.94561 10.7915
115 Al 6.63129 7.83495 7.8364
116 Al 9.014 8.94895 11.5297
117 Al 5.42392 11.1703 10.5842
118 Al 7.99409 12.2735 14.504
119 Al 5.44833 11.0619 7.70946
120 Al 7.77491 12.1453 11.5474
121 Al 9.04372 9.10633 14.4661
122 Al 7.65935 10.1968 9.16271
123 Al 5.16463 13.1556 12.9264
124 Al 6.80258 9.97463 13.0214
125 Ni 6.85635 12.4637 9.15602
126 Ni 4.97619 9.15343 9.28825
127 Ni 7.5596 7.62968 13.0102
128 Ni 9.32253 10.8804 12.9689
ITEM: TIMESTEP
7600
ITEM: NUMBER OF ATOMS
128
ITEM: BOX BOUNDS xy xz yz pp pp pp
-8.0756171472966543e-03 9.7668986123475641e+00 8.4269250174368038e-03
8.9135762812295738e-03 1.3360336663359423e+01 1.1939024792659192e-01
-6.4280203544096359e-02 1.4917757963355708e+01 1.6938202634822949e-01
ITEM: ATOMS id element xu yu zu
1 Al 4.41238 0.186226 1.7857
2 Al 1.74837 1.21972 3.2339
3 Al 1.84048 1.20938 0.329162
4 Al 4.12864 2.19836 4.02167
5 Al 0.776383 4.49534 3.23896
6 Al 3.01133 5.60821 7.03552
7 Al 0.761499 4.5517 0.213278
8 Al 3.19354 5.60489 4.13824
9 Al 4.13474 2.15195 6.9002
10 Al 2.7926 3.28394 1.80758
11 Al 0.552879 6.57039 5.364
12 Al 1.91682 3.20987 5.56593
13 Ni 2.21751 5.77137 1.83027
14 Ni 0.35067 2.54109 1.70181
15 Ni 2.61918 0.945959 5.54345
16 Ni 4.63626 4.28914 5.54849
17 Al 4.2576 0.300594 9.32293
18 Al 1.86889 1.24366 10.7748
19 Al 1.68206 1.17167 7.82678
20 Al 4.22925 2.30235 11.4625
21 Al 0.936356 4.6043 10.8109
22 Al 3.28932 5.55784 14.6394
23 Al 0.577894 4.66886 7.89712
24 Al 3.38525 5.79541 11.6001
25 Al 4.50643 2.3612 14.4486
26 Al 2.7891 3.41055 9.16723
27 Al 0.578386 6.71521 13.197
28 Al 2.30908 3.36715 13.1624
29 Ni 2.09921 5.90939 9.28517
30 Ni 0.250592 2.48804 9.22792
31 Ni 2.84439 1.03773 13.0388
32 Ni 4.68176 4.33078 13.0816
33 Al 4.44095 6.83435 1.62668
34 Al 1.86712 7.88197 3.27146
35 Al 1.75592 7.61392 0.359636
36 Al 4.22985 8.98362 4.14886
37 Al 0.716074 10.9824 3.12348
38 Al 3.07944 12.0306 7.01723
39 Al 0.568758 11.1088 0.297144
40 Al 2.96907 11.9933 4.21603
41 Al 4.46579 8.96795 6.89059
42 Al 2.91923 10.0343 1.81726
43 Al 0.49321 13.1614 5.17843
44 Al 1.99217 9.92497 5.596
45 Ni 2.15726 12.359 1.70523
46 Ni 0.291195 9.00726 1.70625
47 Ni 2.82537 7.54724 5.57858
48 Ni 4.65529 10.9056 5.57048
49 Al 4.3779 6.72871 9.14595
50 Al 1.78585 7.79903 10.7592
51 Al 1.8182 7.93964 7.79356
52 Al 4.28807 8.87837 11.5207
53 Al 0.676361 11.0467 10.6939
54 Al 3.14135 12.311 14.4665
55 Al 0.66333 10.9628 7.74653
56 Al 3.03925 12.1447 11.5656
57 Al 4.23557 9.04657 14.6664
58 Al 3.02798 10.1209 9.246
59 Al 0.523544 13.1454 13.1078
60 Al 2.01723 9.91979 13.1616
61 Ni 2.07613 12.561 9.28215
62 Ni 0.385495 9.06941 9.34326
63 Ni 2.8441 7.65438 13.0992
64 Ni 4.57105 10.867 13.168
65 Al 9.35057 0.0858416 1.83324
66 Al 6.61486 1.17879 3.17986
67 Al 6.84123 1.33229 0.362803
68 Al 9.00716 2.24796 4.00576
69 Al 5.45415 4.4196 3.23184
70 Al 7.8506 5.5386 7.04879
71 Al 5.54646 4.41496 0.239107
72 Al 7.88857 5.68557 4.14216
73 Al 9.23061 2.18156 6.89507
74 Al 7.74955 3.472 1.86562
75 Al 5.23188 6.65347 5.7113
76 Al 6.8702 3.40238 5.56026
77 Ni 6.95298 5.82119 1.73072
78 Ni 5.14317 2.53627 1.67526
79 Ni 7.71578 0.866986 5.44433
80 Ni 9.35233 4.22116 5.54317
81 Al 9.29156 0.107304 9.29536
82 Al 6.57875 1.34586 10.7513
83 Al 6.68297 1.23039 7.76816
84 Al 9.08528 2.39584 11.5399
85 Al 5.52954 4.47905 10.7839
86 Al 8.04462 5.58456 14.6696
87 Al 5.54366 4.51014 7.91807
88 Al 7.96867 5.56243 11.4951
89 Al 9.35989 2.3101 14.3431
90 Al 7.78106 3.48519 9.34667
91 Al 5.33517 6.80978 13.3306
92 Al 7.03717 3.4928 12.9808
93 Ni 7.0753 5.84762 9.24575
94 Ni 5.10464 2.49627 9.17184
95 Ni 7.58704 1.08333 12.9481
96 Ni 9.50379 4.39776 12.9354
97 Al 9.33784 6.61685 1.83406
98 Al 6.54323 7.78749 3.2386
99 Al 6.63399 7.85511 0.409454
100 Al 8.9952 8.70554 3.99568
101 Al 5.48705 11.2166 3.34173
102 Al 7.80516 12.0328 7.0114
103 Al 5.56074 11.0407 0.412859
104 Al 7.98236 12.068 4.00007
105 Al 8.98023 8.83805 6.98646
106 Al 7.6589 9.84972 1.79704
107 Al 5.29355 13.3303 5.45964
108 Al 6.93705 9.92615 5.37518
109 Ni 6.95461 12.3504 1.76556
110 Ni 5.1326 9.15585 1.83839
111 Ni 7.48255 7.56534 5.56341
112 Ni 9.43699 10.6125 5.43787
113 Al 9.23015 6.83369 9.27237
114 Al 6.55643 7.66931 10.8734
115 Al 6.61645 7.82272 7.80819
116 Al 8.92816 8.96113 11.5013
117 Al 5.50371 11.2265 10.7984
118 Al 7.80811 12.1948 14.4353
119 Al 5.45006 11.2134 7.9201
120 Al 7.98153 12.2962 11.5965
121 Al 9.2018 8.84395 14.3542
122 Al 7.75065 9.9699 9.40261
123 Al 5.2513 13.2757 13.0089
124 Al 6.89613 9.98961 13.0081
125 Ni 7.02317 12.3622 9.34625
126 Ni 5.25711 9.22604 9.26602
127 Ni 7.63153 7.50319 12.963
128 Ni 9.36923 10.9232 13.0455
ITEM: TIMESTEP
7700
ITEM: NUMBER OF ATOMS
128
ITEM: BOX BOUNDS xy xz yz pp pp pp
-7.5507442516652895e-02 9.7239700950378793e+00 7.4389812624880799e-02
-1.4464361607017900e-01 1.3263482253900989e+01 -5.6932982359885892e-02
-3.0327292821885621e-02 1.4883805052633523e+01 -8.1029575461602679e-02
ITEM: ATOMS id element xu yu zu
1 Al 4.42263 0.0177753 1.80705
2 Al 1.73152 1.19264 3.27891
3 Al 1.73753 1.01524 0.337435
4 Al 4.1173 2.16461 4.05005
5 Al 0.654293 4.23088 3.22466
6 Al 3.08698 5.43258 7.04406
7 Al 0.654219 4.38175 0.359163
8 Al 2.94218 5.34569 4.07682
9 Al 4.16333 2.06173 7.03211
10 Al 2.94632 3.32405 1.69349
11 Al 0.395716 6.48273 5.71657
12 Al 2.07978 3.16327 5.56313
13 Ni 2.0705 5.71123 1.85961
14 Ni 0.260688 2.34062 1.83109
15 Ni 2.73918 0.79763 5.48859
16 Ni 4.52878 4.17994 5.49284
17 Al 4.3824 -0.141281 9.24618
18 Al 1.8928 0.920562 10.6326
19 Al 1.71918 1.10694 7.78259
20 Al 4.16724 2.11433 11.4683
21 Al 0.583006 4.27112 10.5433
22 Al 2.90761 5.4139 14.399
23 Al 0.69509 4.24342 7.67806
24 Al 2.93624 5.32791 11.4545
25 Al 4.07775 2.16114 14.3645
26 Al 2.9057 3.31581 9.32287
27 Al 0.529802 6.39991 12.949
28 Al 1.9479 3.03035 12.9063
29 Ni 2.19721 5.66025 9.24287
30 Ni 0.275959 2.31204 9.2493
31 Ni 2.65463 0.746455 12.9394
32 Ni 4.47915 4.12668 12.9475
33 Al 4.36448 6.59619 1.83831
34 Al 1.68263 7.66408 3.25437
35 Al 1.82527 7.82096 0.369344
36 Al 4.11205 8.84618 4.17324
37 Al 0.700385 11.0183 3.35553
38 Al 3.12027 12.0618 7.03179
39 Al 0.79323 10.9664 0.347727
40 Al 3.07113 12.1176 4.09295
41 Al 4.20984 8.87185 7.02296
42 Al 2.83272 9.83154 1.80875
43 Al 0.565089 13.2322 5.6851
44 Al 1.91355 9.98556 5.64334
45 Ni 2.02383 12.3605 1.83815
46 Ni 0.217134 9.03075 1.89114
47 Ni 2.67624 7.45126 5.51246
48 Ni 4.55318 10.8287 5.5079
49 Al 4.33797 6.62785 9.41025
50 Al 1.90597 7.76412 10.7518
51 Al 1.73695 7.60707 7.85111
52 Al 4.28229 8.71356 11.6086
53 Al 0.668628 11.0786 10.7589
54 Al 3.16165 12.1366 14.5343
55 Al 0.796312 11.0051 7.7949
56 Al 3.2689 12.0826 11.5566
57 Al 4.29241 8.80327 14.4416
58 Al 2.81941 9.83002 9.36178
59 Al 0.416598 13.2706 12.891
60 Al 2.02504 9.84704 13.0659
61 Ni 2.26485 12.335 9.3041
62 Ni 0.264045 9.04827 9.24608
63 Ni 2.71171 7.41641 13.0121
64 Ni 4.71241 10.8669 12.9139
65 Al 9.33114 0.0266645 1.86481
66 Al 6.57262 1.1047 3.24121
67 Al 6.41167 1.05422 0.291076
68 Al 9.06633 1.9934 4.1259
69 Al 5.46534 4.33015 3.2941
70 Al 7.87006 5.35153 7.01564
71 Al 5.39148 4.35958 0.27513
72 Al 7.90205 5.44609 4.16173
73 Al 8.8723 2.00772 7.0737
74 Al 7.52079 3.20627 1.77282
75 Al 5.02356 6.57216 5.49049
76 Al 6.69539 3.22526 5.47289
77 Ni 6.93744 5.7157 1.81276
78 Ni 5.14761 2.38483 1.92128
79 Ni 7.39439 0.868604 5.55024
80 Ni 9.31541 4.07992 5.52879
81 Al 9.33555 -0.0446265 9.24697
82 Al 6.53765 1.01847 10.6951
83 Al 6.398 0.950626 7.74744
84 Al 8.92051 2.06473 11.5529
85 Al 5.42968 4.37257 10.7278
86 Al 7.78826 5.35688 14.4969
87 Al 5.49349 4.48684 7.85772
88 Al 7.92472 5.52845 11.4917
89 Al 8.8549 2.04231 14.5795
90 Al 7.56711 3.18517 9.13642
91 Al 5.29289 6.44587 12.7638
92 Al 6.73762 3.08185 12.9508
93 Ni 7.03174 5.76869 9.23366
94 Ni 5.1183 2.47911 9.32042
95 Ni 7.51968 0.714828 13.0027
96 Ni 9.31877 4.04433 12.9482
97 Al 9.21717 6.60247 1.66652
98 Al 6.58327 7.7176 3.30884
99 Al 6.56444 7.71091 0.576015
100 Al 8.99139 8.64816 4.13682
101 Al 5.4515 11.1557 3.23041
102 Al 7.86912 12.0622 7.02428
103 Al 5.7037 11.2178 0.377738
104 Al 7.93812 12.2212 4.14614
105 Al 9.02499 8.86038 7.00126
106 Al 7.61842 10.0869 1.86908
107 Al 5.28015 13.26 5.49756
108 Al 6.87134 9.84407 5.6561
109 Ni 7.10682 12.5054 1.7198
110 Ni 5.14846 9.05757 1.84169
111 Ni 7.47057 7.47286 5.49814
112 Ni 9.30626 10.7245 5.58292
113 Al 9.36816 6.57268 9.28877
114 Al 6.66717 7.71994 10.7682
115 Al 6.49838 7.74458 7.77234
116 Al 9.02344 8.73108 11.4975
117 Al 5.64178 10.8926 10.6467
118 Al 8.01644 12.0557 14.417
119 Al 5.54537 10.9611 7.76487
120 Al 7.93232 12.0596 11.5686
121 Al 8.94239 8.61669 14.547
122 Al 7.71664 9.88147 9.21945
123 Al 5.31366 13.2917 12.9382
124 Al 6.9471 9.93326 13.0662
125 Ni 7.04663 12.3844 9.24283
126 Ni 5.08413 9.02141 9.34522
127 Ni 7.45776 7.5442 13.032
128 Ni 9.46772 10.7888 13.0604
ITEM: TIMESTEP
7800
ITEM: NUMBER OF ATOMS
128
ITEM: BOX BOUNDS xy xz yz pp pp pp
-1.3810719545925543e-01 9.6961551485990505e+00 3.7668446331703263e-02
-2.2229198173474296e-01 1.3220294316695801e+01 -1.1062631544814550e-01
2.5388518029529017e-02 1.4828089241782095e+01 -2.0186587833136682e-01
ITEM: ATOMS id element xu yu zu
1 Al 4.57191 0.0311583 1.84863
2 Al 1.69144 1.03453 3.35478
3 Al 1.69652 1.05588 0.461395
4 Al 4.18164 2.12016 4.13266
5 Al 0.570852 4.55908 3.27611
6 Al 3.02048 5.41519 7.06629
7 Al 0.606455 4.41414 0.487949
8 Al 2.9854 5.54043 4.022
9 Al 4.14934 2.11887 7.01814
10 Al 2.68375 3.26667 2.1155
11 Al 0.258615 6.56006 5.45362
12 Al 2.0609 3.20073 5.3666
13 Ni 2.02873 5.71923 1.76784
14 Ni 0.178374 2.35723 1.84059
15 Ni 2.64643 0.762798 5.57973
16 Ni 4.50518 4.0978 5.5241
17 Al 4.35633 -0.106738 9.2141
18 Al 1.61743 1.02624 10.7721
19 Al 1.7482 1.08465 7.89153
20 Al 4.07128 2.01411 11.5023
21 Al 0.493988 4.42044 10.761
22 Al 2.89518 5.28154 14.3472
23 Al 0.548861 4.28348 7.85915
24 Al 3.00494 5.24432 11.4412
25 Al 3.89512 1.92267 14.3524
26 Al 2.79658 3.24359 9.27701
27 Al 0.227202 6.5134 12.995
28 Al 1.95337 3.14936 12.9791
29 Ni 2.07165 5.64488 9.32706
30 Ni 0.171895 2.38875 9.25175
31 Ni 2.56453 0.642633 12.9563
32 Ni 4.48737 3.87271 13.0415
33 Al 4.38642 6.64849 1.80785
34 Al 1.69106 7.64489 3.21558
35 Al 1.71547 7.82709 0.346148
36 Al 4.15843 8.51085 4.12504
37 Al 0.677675 11.1344 3.32405
38 Al 2.99689 11.9477 6.95139
39 Al 0.688783 11.0723 0.460606
40 Al 3.2052 12.0123 4.09928
41 Al 4.17839 8.56346 7.02356
42 Al 2.84502 10.0021 1.96838
43 Al 0.487386 13.2447 5.52733
44 Al 1.95098 9.78177 5.31155
45 Ni 2.29407 12.4082 1.85573
46 Ni 0.346642 9.06539 1.84089
47 Ni 2.50104 7.38915 5.497
48 Ni 4.47929 10.5044 5.53931
49 Al 4.33161 6.44329 9.28855
50 Al 1.69051 7.56791 10.7983
51 Al 1.69426 7.53985 7.91509
52 Al 4.02975 8.63259 11.3092
53 Al 0.703236 10.8915 10.709
54 Al 2.81495 11.7934 14.3565
55 Al 0.611493 10.9746 7.88824
56 Al 3.04749 12.0354 11.5528
57 Al 3.97331 8.46662 14.3879
58 Al 2.77547 9.89755 9.08588
59 Al 0.451165 12.9438 12.958
60 Al 1.9381 9.68863 12.8175
61 Ni 2.12341 12.2911 9.15723
62 Ni 0.261615 8.9854 9.32383
63 Ni 2.60986 7.26584 12.8818
64 Ni 4.45318 10.5135 13.0011
65 Al 9.14268 0.0958788 1.83993
66 Al 6.45995 1.08523 3.30913
67 Al 6.54849 1.11486 0.549002
68 Al 8.9358 2.08 4.04936
69 Al 5.41336 4.40716 3.2466
70 Al 7.96191 5.48192 6.95484
71 Al 5.46602 4.31062 0.437864
72 Al 7.82681 5.26171 4.18151
73 Al 9.08084 2.07127 6.85715
74 Al 7.61181 3.41537 1.8136
75 Al 5.3404 6.32582 5.50726
76 Al 6.78539 3.14697 5.59719
77 Ni 7.03217 5.80415 1.82708
78 Ni 4.93641 2.43733 1.84099
79 Ni 7.37236 0.727729 5.59689
80 Ni 9.43203 4.13732 5.56637
81 Al 9.22108 -0.00218668 9.31182
82 Al 6.56144 0.974685 10.7045
83 Al 6.82698 1.25061 7.94666
84 Al 8.89686 1.97949 11.5993
85 Al 5.21912 4.23172 10.7225
86 Al 7.77068 5.33828 14.4591
87 Al 5.53082 4.36912 7.76756
88 Al 7.755 5.43266 11.4394
89 Al 8.897 1.96964 14.3771
90 Al 7.68569 3.37201 9.3479
91 Al 5.07554 6.46067 12.9535
92 Al 6.72756 3.08791 13.0016
93 Ni 6.82039 5.56821 9.33575
94 Ni 5.10521 2.32971 9.26362
95 Ni 7.38658 0.691972 12.9605
96 Ni 9.24933 3.98534 13.0226
97 Al 9.16069 6.6801 1.85328
98 Al 6.70239 7.67395 3.24275
99 Al 6.58468 7.75242 0.394332
100 Al 8.94205 8.81416 4.19064
101 Al 5.4502 10.7751 3.35852
102 Al 7.9205 12.0954 7.01464
103 Al 5.48385 11.0601 0.481835
104 Al 7.89038 11.9897 4.18098
105 Al 8.99668 8.7377 7.09051
106 Al 7.64375 9.89404 1.73053
107 Al 5.31636 13.0042 5.67111
108 Al 6.84326 9.7439 5.62282
109 Ni 6.88496 12.1875 1.95566
110 Ni 5.12686 8.97791 1.73309
111 Ni 7.66275 7.36364 5.50764
112 Ni 9.52464 10.8179 5.63057
113 Al 9.12764 6.58864 9.23051
114 Al 6.63919 7.84296 10.6767
115 Al 6.59973 7.62483 7.8489
116 Al 9.0397 8.53352 11.4818
117 Al 5.42613 11.0104 10.7287
118 Al 7.91994 11.9517 14.3798
119 Al 5.45996 10.9281 7.67404
120 Al 7.99054 11.8811 11.5314
121 Al 8.90394 8.66373 14.4439
122 Al 7.67224 9.93295 9.16557
123 Al 5.30722 12.9064 12.9729
124 Al 6.73489 9.70167 12.9681
125 Ni 6.91849 12.251 9.22482
126 Ni 4.99167 8.96804 9.17623
127 Ni 7.4208 7.28478 12.8669
128 Ni 9.35283 10.6024 12.9263
ITEM: TIMESTEP
7900
ITEM: NUMBER OF ATOMS
128
ITEM: BOX BOUNDS xy xz yz pp pp pp
-1.0618486675720060e-01 9.7116429696161255e+00 -5.1940928325487336e-02
1.8046505282427461e-03 1.3203148982298295e+01 2.6393208928173505e-02
-5.4720684893625027e-02 1.4908198444705242e+01 5.0854195341224970e-03
ITEM: ATOMS id element xu yu zu
1 Al 4.52404 0.0512255 1.88386
2 Al 1.74521 1.02221 3.30208
3 Al 1.71431 1.1857 0.364161
4 Al 4.22941 2.11012 4.06682
5 Al 0.701938 4.60386 3.28393
6 Al 3.1331 5.555 6.99168
7 Al 0.658476 4.59081 0.326941
8 Al 3.10418 5.52817 4.04508
9 Al 4.06421 2.26478 6.96021
10 Al 2.9827 3.35191 1.64026
11 Al 0.346836 6.46302 5.42151
12 Al 1.86042 3.16476 5.67147
13 Ni 2.19324 5.76477 1.88601
14 Ni 0.32825 2.49248 1.7971
15 Ni 2.53792 0.860161 5.56778
16 Ni 4.61063 4.07892 5.59482
17 Al 4.40093 0.0956529 9.19313
18 Al 1.68033 1.14805 10.8953
19 Al 1.59957 1.01544 7.82483
20 Al 4.14541 2.2897 11.6465
21 Al 0.712405 4.44913 10.7487
22 Al 3.15482 5.43646 14.5394
23 Al 0.619885 4.53587 7.80752
24 Al 3.0384 5.56131 11.534
25 Al 4.17399 2.23501 14.4455
26 Al 2.79767 3.29019 9.27473
27 Al 0.368503 6.61402 12.8956
28 Al 1.97877 3.24267 13.0529
29 Ni 2.17172 5.77958 9.21145
30 Ni 0.270218 2.43411 9.25055
31 Ni 2.69754 0.871349 13.0938
32 Ni 4.48838 4.14989 12.9596
33 Al 4.49472 6.69896 1.85128
34 Al 1.74276 7.80113 3.29112
35 Al 1.68335 7.6843 0.509829
36 Al 4.07825 8.92311 4.17957
37 Al 0.584198 11.0535 3.24094
38 Al 3.03677 12.1283 7.1249
39 Al 0.535652 11.2721 0.237372
40 Al 3.02368 12.0173 4.06183
41 Al 4.20546 8.83693 7.10185
42 Al 2.6569 9.97922 1.70889
43 Al 0.29026 13.1843 5.4603
44 Al 2.02362 9.90904 5.64747
45 Ni 2.09612 12.2637 1.73655
46 Ni 0.226261 9.19163 1.65221
47 Ni 2.78024 7.40767 5.54864
48 Ni 4.54599 10.8806 5.57428
49 Al 4.31283 6.60868 9.16263
50 Al 1.66474 7.78292 10.7392
51 Al 1.61803 7.72544 7.77705
52 Al 4.08273 8.64228 11.5488
53 Al 0.393738 11.0995 10.7093
54 Al 2.98732 12.1071 14.4915
55 Al 0.560714 11.0494 7.74283
56 Al 2.84505 12.0726 11.5362
57 Al 4.12683 8.63831 14.5004
58 Al 2.79092 9.98145 9.45639
59 Al 0.22466 13.2185 13.0831
60 Al 1.81754 9.9356 13.1388
61 Ni 1.98299 12.3042 9.2969
62 Ni 0.122326 9.06363 9.11853
63 Ni 2.55368 7.51552 13.0985
64 Ni 4.42418 10.8461 12.9273
65 Al 9.33471 0.174643 1.76796
66 Al 6.6823 1.09341 3.29985
67 Al 6.72319 1.2013 0.392749
68 Al 9.13256 2.23763 4.08622
69 Al 5.49535 4.38736 3.30629
70 Al 7.83471 5.36777 6.97466
71 Al 5.56915 4.43031 0.266311
72 Al 8.08664 5.63086 3.9905
73 Al 8.78452 2.34995 7.16757
74 Al 7.77888 3.40427 1.9052
75 Al 5.29947 6.50259 5.57938
76 Al 6.9543 3.30166 5.49667
77 Ni 6.92342 5.68347 1.77298
78 Ni 5.25815 2.36583 1.79901
79 Ni 7.75155 0.856518 5.54041
80 Ni 9.32805 4.22118 5.52866
81 Al 9.24815 0.103573 9.20627
82 Al 6.57585 1.19944 10.7796
83 Al 6.5961 1.08739 7.67696
84 Al 8.97594 2.11132 11.534
85 Al 5.44151 4.41797 10.7542
86 Al 7.99601 5.46871 14.5202
87 Al 5.39747 4.40733 7.98585
88 Al 8.02564 5.44595 11.4669
89 Al 9.135 2.24032 14.4411
90 Al 7.60134 3.28909 9.31184
91 Al 5.25327 6.48826 13.1358
92 Al 6.8324 3.22888 13.0322
93 Ni 6.97424 5.8238 9.20009
94 Ni 5.03055 2.39829 9.28761
95 Ni 7.55411 0.82288 13.0203
96 Ni 9.49035 4.0824 12.9794
97 Al 9.24294 6.63552 1.77239
98 Al 6.67088 7.76146 3.20894
99 Al 6.57931 7.77609 0.3459
100 Al 8.94275 8.65423 4.08174
101 Al 5.36936 11.1343 3.25738
102 Al 7.7806 12.0114 6.93656
103 Al 5.41033 10.8403 0.490256
104 Al 7.88602 12.0765 4.00262
105 Al 9.04468 8.70919 6.91303
106 Al 7.67673 9.98394 1.87145
107 Al 5.37384 13.1727 5.43316
108 Al 6.78049 9.94821 5.3879
109 Ni 6.83302 12.4074 1.74494
110 Ni 5.04979 9.02924 1.82661
111 Ni 7.61599 7.47126 5.54862
112 Ni 9.35562 10.7222 5.3798
113 Al 9.20026 6.67471 9.3209
114 Al 6.54459 7.58687 10.8302
115 Al 6.69807 7.8271 7.79797
116 Al 8.92412 8.83321 11.4533
117 Al 5.35811 11.0519 10.7479
118 Al 7.77502 11.9913 14.4585
119 Al 5.37315 11.0666 7.88637
120 Al 7.74547 12.0371 11.6453
121 Al 9.17055 8.8162 14.4128
122 Al 7.55649 9.92431 9.34557
123 Al 5.17097 13.2969 13.0672
124 Al 6.64071 9.83907 12.9201
125 Ni 6.88765 12.3626 9.31562
126 Ni 5.12208 8.94068 9.27324
127 Ni 7.51186 7.45718 13.0005
128 Ni 9.29275 10.9021 12.971
ITEM: TIMESTEP
8000
ITEM: NUMBER OF ATOMS
128
ITEM: BOX BOUNDS xy xz yz pp pp pp
-5.0363873137623839e-02 9.7278384800677848e+00 -3.3321002954460090e-02
8.9158294408617778e-03 1.3357579098187749e+01 7.9789787628387190e-02
-5.1969057998473289e-02 1.4905446817810079e+01 1.6662671433619933e-01
ITEM: ATOMS id element xu yu zu
1 Al 4.25669 0.211314 1.73862
2 Al 1.74524 1.19568 3.34076
3 Al 1.68416 1.37479 0.224922
4 Al 4.2579 2.30752 4.08395
5 Al 0.59542 4.50362 3.26496
6 Al 3.09324 5.49675 7.10863
7 Al 0.758099 4.42722 0.232748
8 Al 3.03949 5.4271 4.02873
9 Al 4.24586 2.15704 7.05891
10 Al 2.95091 3.45923 1.79991
11 Al 0.464349 6.57236 5.74754
12 Al 2.11618 3.2871 5.60641
13 Ni 2.17453 5.71338 1.7926
14 Ni 0.345287 2.46748 1.80603
15 Ni 2.72256 1.02134 5.47498
16 Ni 4.55499 4.25545 5.4903
17 Al 4.43718 0.117666 9.40622
18 Al 1.70914 1.18168 10.6596
19 Al 1.80717 1.21921 7.82711
20 Al 4.18047 2.3125 11.5481
21 Al 0.70382 4.57117 10.817
22 Al 3.28563 5.73134 14.4823
23 Al 0.633564 4.44364 7.82517
24 Al 3.15986 5.63499 11.5551
25 Al 4.28293 2.41856 14.3259
26 Al 2.91975 3.52998 9.15235
27 Al 0.579594 6.69682 13.068
28 Al 2.15735 3.50668 12.9524
29 Ni 2.13901 5.81412 9.29557
30 Ni 0.220524 2.51539 9.24094
31 Ni 2.71285 1.09209 12.9055
32 Ni 4.66793 4.44014 13.0005
33 Al 4.44211 6.69109 1.75098
34 Al 1.93012 7.60967 3.18056
35 Al 1.63048 7.81992 0.215604
36 Al 4.12677 8.9354 4.02239
37 Al 0.563342 11.0303 3.30335
38 Al 2.97903 12.1144 7.00544
39 Al 0.715164 10.8686 0.43271
40 Al 3.0276 12.1735 4.04268
41 Al 4.17216 9.01875 6.96436
42 Al 2.77451 10.0653 1.80542
43 Al 0.495919 13.0687 5.6782
44 Al 1.77966 9.81074 5.41883
45 Ni 1.99334 12.3772 1.85927
46 Ni 0.310791 8.87575 1.91082
47 Ni 2.69503 7.62587 5.54517
48 Ni 4.63023 10.8483 5.38579
49 Al 4.34979 6.64988 9.33046
50 Al 1.77534 7.76822 10.7213
51 Al 1.83325 7.96337 7.89527
52 Al 4.24422 8.9183 11.5863
53 Al 0.706599 11.1381 10.8537
54 Al 2.95843 12.2755 14.4982
55 Al 0.570925 11.0573 7.85897
56 Al 3.02224 12.1233 11.5844
57 Al 4.29702 9.01987 14.5772
58 Al 2.80869 10.0641 9.1796
59 Al 0.382704 13.4069 12.8775
60 Al 1.94509 9.93569 13.0288
61 Ni 2.07733 12.4196 9.27659
62 Ni 0.240308 9.06685 9.36414
63 Ni 2.75406 7.58666 12.8928
64 Ni 4.62128 10.8412 13.0205
65 Al 9.375 0.114391 1.7758
66 Al 6.51368 1.09874 3.174
67 Al 6.4964 1.05343 0.286142
68 Al 8.99714 2.14801 4.14818
69 Al 5.56747 4.51454 3.21339
70 Al 8.02637 5.58746 6.96705
71 Al 5.47261 4.68974 0.328471
72 Al 7.9555 5.55137 4.22932
73 Al 9.02977 2.06101 6.92676
74 Al 7.74932 3.49238 1.64565
75 Al 4.95813 6.7088 5.60663
76 Al 6.85151 3.21056 5.59922
77 Ni 7.04979 5.85739 1.82034
78 Ni 5.06587 2.56216 1.80707
79 Ni 7.41394 0.965303 5.52366
80 Ni 9.51897 4.25827 5.52433
81 Al 9.25214 0.164441 9.29497
82 Al 6.61276 1.29071 10.7425
83 Al 6.57887 1.0864 7.73219
84 Al 9.08677 2.41397 11.5856
85 Al 5.4697 4.40704 10.7731
86 Al 7.99673 5.59258 14.5161
87 Al 5.70659 4.39081 7.72296
88 Al 7.94068 5.6488 11.6325
89 Al 8.99172 2.31209 14.4175
90 Al 7.66714 3.25237 9.11613
91 Al 5.36032 6.81933 12.8917
92 Al 6.87037 3.4227 12.9474
93 Ni 7.0551 5.79518 9.25147
94 Ni 5.08655 2.6204 9.26055
95 Ni 7.59787 1.12908 12.9349
96 Ni 9.4558 4.39702 13.0053
97 Al 9.37766 6.49475 1.83108
98 Al 6.55501 7.7561 3.2858
99 Al 6.46054 7.68165 0.344634
100 Al 8.91443 8.7487 4.25947
101 Al 5.53942 11.2058 3.25363
102 Al 7.85482 12.1836 7.01241
103 Al 5.59068 11.3463 0.390803
104 Al 7.84047 12.209 4.19304
105 Al 8.90002 8.64318 7.12354
106 Al 7.60616 9.85144 1.78128
107 Al 5.09998 13.2541 5.56838
108 Al 6.75974 9.99298 5.5549
109 Ni 7.13409 12.4311 1.78069
110 Ni 5.15838 9.13135 1.79604
111 Ni 7.3108 7.60015 5.53699
112 Ni 9.22949 10.8275 5.61087
113 Al 9.32682 6.65629 9.23375
114 Al 6.74639 7.83211 10.6282
115 Al 6.39701 7.7358 7.81593
116 Al 9.02584 8.97007 11.6301
117 Al 5.61221 11.0868 10.7888
118 Al 8.13258 12.3459 14.356
119 Al 5.5052 11.1327 7.75153
120 Al 7.92206 12.19 11.5845
121 Al 8.98643 8.83917 14.6483
122 Al 7.66837 9.9782 9.28448
123 Al 5.17066 13.2134 12.9165
124 Al 6.91644 10.1095 13.0882
125 Ni 6.86535 12.3725 9.23857
126 Ni 5.05801 9.31524 9.26611
127 Ni 7.6507 7.57336 13.055
128 Ni 9.4643 10.8304 13.0679
ITEM: TIMESTEP
8100
ITEM: NUMBER OF ATOMS
128
ITEM: BOX BOUNDS xy xz yz pp pp pp
-5.7981304538574641e-02 9.7054615360046110e+00 9.8492718514613092e-03
-4.5959159292512375e-02 1.3290550832194427e+01 6.6251373583301135e-03
1.0063874118131366e-02 1.4843413885693465e+01 4.4723459609503302e-02
ITEM: ATOMS id element xu yu zu
1 Al 4.3744 0.0520447 1.74341
2 Al 1.73771 1.19812 3.26765
3 Al 1.59598 0.948048 0.479521
4 Al 4.06928 2.27359 4.09461
5 Al 0.667221 4.37452 3.38869
6 Al 2.89619 5.44731 6.87526
7 Al 0.403535 4.48594 0.448597
8 Al 2.99727 5.5786 4.06085
9 Al 4.2216 2.18983 7.07809
10 Al 2.82817 3.26846 1.86815
11 Al 0.249359 6.45226 5.44771
12 Al 1.95535 3.2531 5.41727
13 Ni 1.98586 5.81311 1.88504
14 Ni 0.0747815 2.35077 1.80182
15 Ni 2.74139 0.696842 5.59973
16 Ni 4.46687 4.31618 5.52132
17 Al 4.35545 0.129107 9.13185
18 Al 1.78744 1.18381 10.7324
19 Al 1.75331 1.14939 7.71079
20 Al 4.22697 2.21238 11.5152
21 Al 0.54827 4.3279 10.6739
22 Al 2.97755 5.33172 14.3633
23 Al 0.633227 4.47371 7.7315
24 Al 3.06996 5.47253 11.4642
25 Al 3.9924 2.17832 14.4376
26 Al 2.82197 3.32709 9.26376
27 Al 0.515022 6.58481 12.9748
28 Al 1.91208 3.17754 12.9912
29 Ni 2.13949 5.77174 9.24849
30 Ni 0.29284 2.41022 9.24149
31 Ni 2.80202 0.852258 12.9705
32 Ni 4.59591 4.14689 13.0102
33 Al 4.30693 6.64466 1.90715
34 Al 1.60429 7.85245 3.32563
35 Al 1.78747 7.89582 0.471098
36 Al 4.21728 8.71938 4.15625
37 Al 0.678854 11.0135 3.2803
38 Al 3.0198 12.1479 7.10383
39 Al 0.732906 11.039 0.359054
40 Al 2.94681 12.1676 4.09174
41 Al 4.07887 8.7012 7.07016
42 Al 2.8595 10.0355 1.92587
43 Al 0.372563 13.1334 5.45287
44 Al 2.01811 9.82687 5.51187
45 Ni 2.13257 12.3734 1.76978
46 Ni 0.125984 9.16569 1.82826
47 Ni 2.65177 7.52052 5.5449
48 Ni 4.45191 10.7618 5.62322
49 Al 4.32725 6.81894 9.34113
50 Al 1.77163 7.71635 10.7611
51 Al 1.61401 7.73812 7.78269
52 Al 4.17966 8.94958 11.6121
53 Al 0.689815 11.0333 10.7099
54 Al 3.08866 12.1157 14.4661
55 Al 0.751035 11.1416 7.78265
56 Al 3.1375 12.3428 11.5032
57 Al 4.35057 8.92387 14.4106
58 Al 2.77896 9.86537 9.21431
59 Al 0.516171 13.1849 13.1441
60 Al 2.02072 10.1201 12.9025
61 Ni 2.11191 12.4315 9.28352
62 Ni 0.286931 9.08037 9.26164
63 Ni 2.74404 7.49143 13.0386
64 Ni 4.58919 10.9145 12.9556
65 Al 9.19628 -0.0184824 1.85216
66 Al 6.45602 1.0688 3.28465
67 Al 6.64906 0.998822 0.412064
68 Al 8.90831 2.08788 4.06799
69 Al 5.37099 4.41904 3.15978
70 Al 8.01896 5.55191 7.08755
71 Al 5.44736 4.55043 0.362282
72 Al 7.94405 5.40894 3.94214
73 Al 9.13605 2.0876 6.91156
74 Al 7.5239 3.25391 1.89092
75 Al 5.39232 6.49238 5.36627
76 Al 6.7938 3.34349 5.53858
77 Ni 6.96089 5.73856 1.80895
78 Ni 5.09391 2.39696 1.83615
79 Ni 7.37523 0.957344 5.52783
80 Ni 9.21824 4.08886 5.53191
81 Al 9.53783 0.0735569 9.34912
82 Al 6.56827 1.01961 10.6918
83 Al 6.76798 1.27357 7.85935
84 Al 8.9801 2.07413 11.5732
85 Al 5.53644 4.43385 10.879
86 Al 7.91332 5.61742 14.377
87 Al 5.2776 4.61035 7.95095
88 Al 8.00402 5.58259 11.5422
89 Al 9.13033 2.00759 14.3496
90 Al 7.79386 3.56122 9.20975
91 Al 5.18273 6.57654 13.0294
92 Al 7.01231 3.33185 13.1418
93 Ni 6.95912 5.91714 9.26971
94 Ni 5.1939 2.4886 9.2006
95 Ni 7.60013 0.806243 13.084
96 Ni 9.3206 4.17183 12.9168
97 Al 9.20782 6.83631 1.7917
98 Al 6.60579 7.80042 3.27225
99 Al 6.63399 7.71515 0.483747
100 Al 8.87532 8.82551 4.10151
101 Al 5.36082 11.087 3.41171
102 Al 8.01336 12.2697 6.97461
103 Al 5.59188 11.2323 0.449355
104 Al 7.96135 12.144 4.21684
105 Al 9.14559 8.91198 6.93965
106 Al 7.62579 9.95313 1.76702
107 Al 5.19591 13.1738 5.63591
108 Al 6.76984 9.88817 5.55424
109 Ni 7.04183 12.2822 1.91626
110 Ni 5.11512 9.07647 1.8364
111 Ni 7.67956 7.42731 5.5128
112 Ni 9.49759 10.7597 5.53545
113 Al 9.31073 6.73417 9.23545
114 Al 6.61483 7.92386 10.8124
115 Al 6.708 7.84208 7.73038
116 Al 9.02272 8.87443 11.4526
117 Al 5.57406 11.1596 10.5914
118 Al 7.80996 12.0806 14.3365
119 Al 5.5547 10.993 7.80153
120 Al 7.98137 12.1272 11.5468
121 Al 9.19189 8.83449 14.2598
122 Al 7.70702 10.0324 9.16209
123 Al 5.16789 13.3144 13.0625
124 Al 6.91416 9.9444 13.0779
125 Ni 7.20216 12.4376 9.3127
126 Ni 5.11758 9.08835 9.16007
127 Ni 7.48812 7.57265 12.9289
128 Ni 9.48214 10.7683 12.9412
ITEM: TIMESTEP
8200
ITEM: NUMBER OF ATOMS
128
ITEM: BOX BOUNDS xy xz yz pp pp pp
-7.9844446953578119e-02 9.6892061520638695e+00 2.4307335150839153e-02
-1.4353080938852475e-01 1.3219572257679873e+01 -4.5951452296792934e-02
1.1850739112979625e-03 1.4852292685900302e+01 -1.2382676500106576e-01
ITEM: ATOMS id element xu yu zu
1 Al 4.41143 0.0686528 2.00453
2 Al 1.73917 1.12358 3.33726
3 Al 1.83282 1.20085 0.548243
4 Al 4.13173 2.04393 4.05872
5 Al 0.453288 4.43197 3.33504
6 Al 3.15206 5.37308 7.06081
7 Al 0.708431 4.33178 0.313158
8 Al 2.93335 5.32959 4.14059
9 Al 4.13943 2.07814 7.17604
10 Al 2.79357 3.24469 1.95879
11 Al 0.254618 6.52643 5.41665
12 Al 1.89292 3.3964 5.68189
13 Ni 2.07699 5.71166 1.8041
14 Ni 0.289807 2.39823 1.83602
15 Ni 2.59155 0.995283 5.61464
16 Ni 4.51629 3.98463 5.58603
17 Al 4.44793 -0.0219057 9.38869
18 Al 1.81151 1.05553 10.6263
19 Al 1.73252 1.15783 7.84281
20 Al 4.03105 2.12201 11.5942
21 Al 0.537648 4.37353 10.7699
22 Al 3.02675 5.35841 14.3179
23 Al 0.572662 4.60321 7.83432
24 Al 2.91934 5.42045 11.4207
25 Al 4.19286 1.8597 14.3024
26 Al 2.75978 3.26572 9.30545
27 Al 0.228679 6.55818 13.0028
28 Al 1.98019 3.10307 13.0462
29 Ni 2.08168 5.68031 9.28523
30 Ni 0.231036 2.43937 9.31673
31 Ni 2.54999 0.731636 13.0363
32 Ni 4.42361 4.06045 12.9877
33 Al 4.28663 6.59931 1.68746
34 Al 1.78204 7.75849 3.28654
35 Al 1.6077 7.58946 0.370592
36 Al 4.15136 8.68557 4.14347
37 Al 0.598038 11.1646 3.25819
38 Al 3.07884 12.1868 6.96304
39 Al 0.735845 11.0971 0.377168
40 Al 3.16712 12.1129 4.19865
41 Al 4.13618 8.7873 7.00778
42 Al 2.76187 9.89607 1.69479
43 Al 0.386159 13.2695 5.69111
44 Al 2.11598 9.88344 5.72935
45 Ni 2.27648 12.3156 1.87572
46 Ni 0.286408 9.06606 1.75158
47 Ni 2.65088 7.35858 5.52758
48 Ni 4.69538 10.7011 5.54234
49 Al 4.4817 6.56833 9.2198
50 Al 1.75608 7.65146 10.6532
51 Al 1.81308 7.65513 7.82309
52 Al 4.12478 8.57472 11.4897
53 Al 0.615453 10.9246 10.5991
54 Al 2.97344 12.014 14.3688
55 Al 0.704304 11.0641 7.8289
56 Al 3.02203 11.9898 11.5488
57 Al 3.94685 8.58748 14.3875
58 Al 2.866 10.0161 9.2449
59 Al 0.330116 13.1942 12.7885
60 Al 1.77196 9.72875 12.9139
61 Ni 2.29977 12.3517 9.22269
62 Ni 0.357731 8.98816 9.15917
63 Ni 2.61476 7.29751 12.8857
64 Ni 4.5073 10.6157 12.9705
65 Al 9.23939 0.139191 1.7843
66 Al 6.73766 1.20991 3.28483
67 Al 6.53299 1.16461 0.380927
68 Al 8.96269 2.26828 4.17103
69 Al 5.39169 4.395 3.3931
70 Al 7.87036 5.48876 6.95352
71 Al 5.40658 4.25293 0.449558
72 Al 7.73122 5.44666 4.18213
73 Al 8.90751 2.29435 7.15865
74 Al 7.64265 3.32585 1.87732
75 Al 5.26433 6.52086 5.66473
76 Al 6.87547 3.03623 5.54324
77 Ni 6.91389 5.68167 1.74179
78 Ni 5.11437 2.40197 1.96902
79 Ni 7.68382 0.680529 5.62801
80 Ni 9.45315 4.22309 5.57677
81 Al 9.28236 0.120365 9.13575
82 Al 6.66945 1.08365 10.5772
83 Al 6.43699 1.0154 7.72515
84 Al 8.98409 2.19554 11.5858
85 Al 5.27766 4.49273 10.7702
86 Al 7.74818 5.23362 14.4341
87 Al 5.48538 4.21834 7.87142
88 Al 7.88867 5.22449 11.605
89 Al 8.77418 2.0166 14.4329
90 Al 7.50856 3.30451 9.4584
91 Al 5.151 6.40314 13.0439
92 Al 6.61416 3.0792 12.6984
93 Ni 6.97241 5.62 9.15277
94 Ni 5.07157 2.32108 9.35067
95 Ni 7.5531 0.721631 12.9297
96 Ni 9.38818 4.00277 12.9927
97 Al 9.21427 6.64134 1.82024
98 Al 6.52763 7.69248 3.23161
99 Al 6.48962 7.81684 0.288491
100 Al 9.11775 8.74201 3.9974
101 Al 5.45882 10.7934 3.29203
102 Al 7.89671 11.9666 6.95471
103 Al 5.5907 10.8982 0.311227
104 Al 7.96528 12.005 4.03769
105 Al 9.13253 8.72923 7.00184
106 Al 7.74859 10.0725 1.84429
107 Al 5.43147 13.0268 5.56721
108 Al 6.90715 9.75154 5.543
109 Ni 6.84993 12.3716 1.79845
110 Ni 5.07216 8.98605 1.84553
111 Ni 7.57215 7.49725 5.51667
112 Ni 9.51981 10.8364 5.48175
113 Al 9.25045 6.60513 9.26814
114 Al 6.57946 7.6419 10.6752
115 Al 6.62984 7.73112 7.93428
116 Al 9.11898 8.57591 11.5141
117 Al 5.51089 10.9967 10.7436
118 Al 7.83137 12.096 14.4929
119 Al 5.46434 10.8844 7.84855
120 Al 7.8776 12.0592 11.4449
121 Al 8.8477 8.83579 14.4059
122 Al 7.68877 9.96916 9.32018
123 Al 5.25051 12.9856 13.0087
124 Al 6.93202 9.75967 12.6953
125 Ni 6.91459 12.3311 9.28666
126 Ni 5.06953 9.02358 9.26283
127 Ni 7.36771 7.3296 12.9346
128 Ni 9.40682 10.6709 12.9228
ITEM: TIMESTEP
8300
ITEM: NUMBER OF ATOMS
128
ITEM: BOX BOUNDS xy xz yz pp pp pp
-8.6987806986474153e-02 9.6503233707452267e+00 -2.8439524609932185e-02
-1.1682961674372566e-01 1.3206388577320702e+01 -3.9230733887566822e-02
-6.2303981136365927e-02 1.4915781740947979e+01 -1.1030925271541941e-01
ITEM: ATOMS id element xu yu zu
1 Al 4.37285 0.0417885 1.58385
2 Al 1.85759 1.02879 3.09909
3 Al 1.66621 1.09336 0.32862
4 Al 4.22749 2.07772 4.00264
5 Al 0.686941 4.41553 3.41561
6 Al 2.99835 5.4898 6.95399
7 Al 0.538215 4.58111 0.446353
8 Al 3.13324 5.4837 4.07313
9 Al 4.24567 2.08371 6.93209
10 Al 2.74761 3.27593 1.77553
11 Al 0.517495 6.51143 5.71459
12 Al 1.92868 3.17582 5.38518
13 Ni 2.2719 5.77513 1.80477
14 Ni 0.310977 2.43526 1.86596
15 Ni 2.56961 0.673074 5.42819
16 Ni 4.53 4.16499 5.51223
17 Al 4.33693 -0.0356904 9.24542
18 Al 1.58489 0.906385 10.7289
19 Al 1.69427 0.923706 7.86634
20 Al 4.04377 1.96354 11.6189
21 Al 0.611804 4.5438 10.7207
22 Al 3.08496 5.48285 14.5122
23 Al 0.692722 4.24302 7.88382
24 Al 3.0225 5.46453 11.5377
25 Al 3.98404 2.17473 14.5314
26 Al 2.901 3.29356 9.31993
27 Al 0.432718 6.4672 12.8691
28 Al 1.92114 3.21154 12.8072
29 Ni 2.09576 5.72278 9.26814
30 Ni 0.14579 2.35363 9.27161
31 Ni 2.66817 0.758792 12.9769
32 Ni 4.5202 4.00266 12.9577
33 Al 4.5045 6.64144 1.90936
34 Al 1.69621 7.63371 3.3224
35 Al 1.83751 7.80838 0.405205
36 Al 4.15746 8.86323 3.94952
37 Al 0.57701 11.0041 3.30685
38 Al 3.02233 12.0227 7.14457
39 Al 0.582146 10.9041 0.368508
40 Al 3.13941 12.0535 3.96348
41 Al 4.22618 8.78589 6.83835
42 Al 2.77639 9.95307 1.8489
43 Al 0.369839 13.0649 5.57239
44 Al 2.06022 9.81244 5.324
45 Ni 2.01952 12.3438 1.80346
46 Ni 0.284149 8.9848 1.85023
47 Ni 2.81163 7.52889 5.45449
48 Ni 4.35449 10.8018 5.46481
49 Al 4.44752 6.52363 9.24162
50 Al 1.56719 7.64825 10.7862
51 Al 1.61242 7.79982 7.84786
52 Al 4.12224 8.46773 11.4816
53 Al 0.559304 11.0078 10.885
54 Al 3.066 11.9345 14.4378
55 Al 0.701239 10.8204 7.75376
56 Al 3.05533 11.9047 11.5159
57 Al 4.12135 8.51293 14.4424
58 Al 2.76507 9.82438 9.26421
59 Al 0.281887 13.0268 13.1185
60 Al 1.89614 9.80299 13.0724
61 Ni 1.95557 12.2764 9.30034
62 Ni 0.12551 9.12921 9.35736
63 Ni 2.50484 7.46196 13.0736
64 Ni 4.4936 10.6747 12.9976
65 Al 9.39381 0.0268 1.88364
66 Al 6.65575 1.1368 3.13766
67 Al 6.70056 1.21362 0.36691
68 Al 8.94838 2.22122 4.04434
69 Al 5.51422 4.29098 3.26079
70 Al 7.87804 5.45466 7.02292
71 Al 5.59369 4.51385 0.339647
72 Al 7.93591 5.58433 4.18483
73 Al 8.9735 2.12132 6.93095
74 Al 7.68642 3.31417 1.75556
75 Al 5.24321 6.58545 5.44977
76 Al 6.92585 3.35852 5.46162
77 Ni 6.95881 5.79724 1.87027
78 Ni 5.154 2.38887 1.66353
79 Ni 7.48153 0.944123 5.50849
80 Ni 9.40667 4.17276 5.51073
81 Al 9.12599 -0.0663652 9.33057
82 Al 6.45662 1.08465 10.729
83 Al 6.63788 1.03586 7.89588
84 Al 8.91232 2.15668 11.6186
85 Al 5.45596 4.16141 10.726
86 Al 7.88172 5.44156 14.5563
87 Al 5.54865 4.46277 7.75141
88 Al 7.90528 5.37691 11.6064
89 Al 9.01582 2.14364 14.427
90 Al 7.55491 3.27759 9.19853
91 Al 5.27693 6.38201 13.0067
92 Al 6.81747 3.24854 13.2837
93 Ni 6.85586 5.72862 9.31631
94 Ni 5.07372 2.33296 9.18808
95 Ni 7.43393 0.82357 13.0631
96 Ni 9.30919 4.10886 12.9942
97 Al 9.20658 6.68599 1.7774
98 Al 6.60962 7.78337 3.2921
99 Al 6.53243 7.68518 0.302943
100 Al 9.00181 8.74961 4.06578
101 Al 5.46147 11.1096 3.24624
102 Al 7.8962 12.0647 6.96962
103 Al 5.45074 10.9118 0.384317
104 Al 7.9805 12.0534 4.06903
105 Al 8.77182 8.69975 7.10891
106 Al 7.61127 9.84929 1.79772
107 Al 5.19714 13.1725 5.54421
108 Al 6.6544 9.94938 5.42332
109 Ni 7.07353 12.3245 1.80186
110 Ni 5.06759 9.0383 1.79596
111 Ni 7.34383 7.43966 5.46613
112 Ni 9.27461 10.749 5.57065
113 Al 9.13361 6.6595 9.33834
114 Al 6.53267 7.72692 10.7685
115 Al 6.48898 7.59639 7.87509
116 Al 8.82076 8.88039 11.5969
117 Al 5.35502 10.9286 10.7079
118 Al 7.6408 11.9413 14.4822
119 Al 5.46916 10.9899 7.69715
120 Al 7.69959 11.9573 11.5641
121 Al 8.99028 8.57698 14.5535
122 Al 7.45289 9.85161 9.24981
123 Al 5.12533 13.0608 12.9566
124 Al 6.63421 9.54735 13.215
125 Ni 6.81867 12.1807 9.28827
126 Ni 5.06665 8.99019 9.28346
127 Ni 7.60614 7.39571 13.0626
128 Ni 9.30973 10.6484 13.0405
ITEM: TIMESTEP
8400
ITEM: NUMBER OF ATOMS
128
ITEM: BOX BOUNDS xy xz yz pp pp pp
-9.5018220156756261e-02 9.7040317217917078e+00 -4.9538727825703614e-02
-3.2314462535207866e-03 1.3286491638249444e+01 2.7546407204401165e-02
-1.9360853889691221e-02 1.4872838613701310e+01 8.3391978703519956e-02
ITEM: ATOMS id element xu yu zu
1 Al 4.25769 0.109597 1.95348
2 Al 1.65478 1.19072 3.26281
3 Al 1.79245 1.17681 0.404152
4 Al 4.08523 2.30243 4.1629
5 Al 0.613971 4.23825 3.2306
6 Al 3.02134 5.48873 7.0054
7 Al 0.713606 4.25192 0.306522
8 Al 2.98696 5.52932 4.07747
9 Al 4.20529 2.28046 7.1413
10 Al 2.96997 3.44369 1.80063
11 Al 0.324565 6.55692 5.41531
12 Al 1.94718 3.38164 5.54296
13 Ni 2.07062 5.75384 1.79804
14 Ni 0.243994 2.50088 1.67743
15 Ni 2.83743 0.970585 5.5519
16 Ni 4.57626 4.26664 5.55528
17 Al 4.3583 0.101108 9.26135
18 Al 1.76889 1.30425 10.6957
19 Al 1.71575 1.12402 7.72145
20 Al 4.20304 2.26103 11.5967
21 Al 0.729823 4.44302 10.7783
22 Al 3.00418 5.62138 14.4888
23 Al 0.567042 4.44147 7.79514
24 Al 2.95798 5.40569 11.5998
25 Al 4.33 2.2454 14.4407
26 Al 2.76055 3.42495 9.16106
27 Al 0.506295 6.58049 13.0681
28 Al 2.15201 3.28976 13.0641
29 Ni 2.10458 5.75185 9.30327
30 Ni 0.341402 2.41769 9.15963
31 Ni 2.67719 1.03468 12.9351
32 Ni 4.63291 4.23658 12.9778
33 Al 4.38977 6.77981 1.77291
34 Al 1.8849 7.81425 3.22623
35 Al 1.74018 7.84265 0.280351
36 Al 4.16041 8.8068 4.21122
37 Al 0.562531 11.0247 3.1989
38 Al 2.89043 12.0706 6.94251
39 Al 0.456561 11.0469 0.414152
40 Al 2.91623 12.0707 4.18173
41 Al 3.96431 8.90672 6.99367
42 Al 2.84119 9.9615 1.81075
43 Al 0.340997 13.1526 5.37708
44 Al 1.76558 9.6992 5.55488
45 Ni 1.99239 12.48 1.82409
46 Ni 0.226953 9.08318 1.83004
47 Ni 2.50831 7.44057 5.68384
48 Ni 4.61445 10.7233 5.59512
49 Al 4.28809 6.74943 9.20426
50 Al 1.86429 7.72095 10.7807
51 Al 1.64818 7.63868 7.92953
52 Al 4.24459 9.01614 11.5881
53 Al 0.511584 11.0098 10.7602
54 Al 2.97527 12.0539 14.4017
55 Al 0.432667 11.1647 7.94468
56 Al 3.01238 12.2371 11.5701
57 Al 4.26486 8.9538 14.5372
58 Al 2.67269 9.98123 9.36649
59 Al 0.340329 13.2367 12.8778
60 Al 1.93309 9.90568 12.9387
61 Ni 2.05304 12.4547 9.23397
62 Ni 0.165511 8.91026 9.28283
63 Ni 2.75107 7.48074 13.0426
64 Ni 4.49158 10.9708 12.999
65 Al 9.15094 0.236593 1.78338
66 Al 6.52726 1.1667 3.29688
67 Al 6.45915 1.12719 0.416225
68 Al 8.8496 2.24694 4.11961
69 Al 5.57586 4.60332 3.31116
70 Al 7.78717 5.47289 6.97782
71 Al 5.5582 4.52986 0.33261
72 Al 7.97238 5.43486 4.13197
73 Al 8.94576 2.09924 6.9616
74 Al 7.63537 3.29103 1.77567
75 Al 5.25807 6.63894 5.48753
76 Al 6.76982 3.30476 5.63949
77 Ni 7.03631 5.77748 1.767
78 Ni 5.10881 2.51932 1.83597
79 Ni 7.38665 0.926469 5.47122
80 Ni 9.40226 4.11451 5.5183
81 Al 9.36358 0.0868251 9.33147
82 Al 6.44276 1.12268 10.7219
83 Al 6.54514 1.2302 7.81659
84 Al 9.03236 2.13527 11.4867
85 Al 5.47259 4.62803 10.6443
86 Al 7.95644 5.38475 14.4409
87 Al 5.54727 4.59814 7.88866
88 Al 8.10341 5.58381 11.5505
89 Al 8.96313 2.21873 14.3576
90 Al 7.75509 3.26872 9.12024
91 Al 5.10293 6.82837 13.1043
92 Al 6.86467 3.28635 12.9288
93 Ni 6.98699 5.76533 9.21001
94 Ni 5.09241 2.56247 9.31141
95 Ni 7.60075 0.894102 12.96
96 Ni 9.45401 4.21415 12.9332
97 Al 9.34141 6.66185 1.77195
98 Al 6.64069 7.70447 3.44415
99 Al 6.79416 7.77853 0.402589
100 Al 9.01304 8.76352 4.00476
101 Al 5.32653 11.1129 3.27024
102 Al 7.8872 12.1125 7.10388
103 Al 5.42542 11.2956 0.262344
104 Al 7.72868 12.0687 4.05845
105 Al 9.10083 8.81984 7.01606
106 Al 7.64735 10.1022 1.88149
107 Al 5.1333 13.1792 5.42957
108 Al 6.84863 9.903 5.65079
109 Ni 6.83257 12.3801 1.83206
110 Ni 5.19567 9.15152 1.78187
111 Ni 7.54707 7.36211 5.63443
112 Ni 9.26262 10.781 5.51802
113 Al 9.33296 6.49466 9.23372
114 Al 6.51078 7.75308 10.6779
115 Al 6.53208 7.81667 7.78275
116 Al 9.07447 8.67805 11.5964
117 Al 5.46114 11.183 10.6675
118 Al 8.02924 12.2843 14.5257
119 Al 5.33119 11.1614 7.91947
120 Al 7.935 12.1858 11.3723
121 Al 9.02329 8.858 14.4648
122 Al 7.68607 10.0011 9.3459
123 Al 5.19179 13.2244 12.9729
124 Al 6.95045 10.0763 12.9607
125 Ni 6.95334 12.4685 9.23336
126 Ni 5.05808 9.05099 9.33556
127 Ni 7.51005 7.57058 12.9746
128 Ni 9.3701 10.8429 12.9752
ITEM: TIMESTEP
8500
ITEM: NUMBER OF ATOMS
128
ITEM: BOX BOUNDS xy xz yz pp pp pp
-3.8720432293331108e-02 9.6907582462527504e+00 -5.8492935126471819e-03
-3.5951552042125634e-02 1.3365600475112030e+01 2.6881285215812980e-02
2.6871549283985274e-02 1.4826606210527626e+01 1.2978070977749606e-01
ITEM: ATOMS id element xu yu zu
1 Al 4.50198 0.0177548 1.87105
2 Al 1.74922 1.11145 3.28059
3 Al 1.60874 1.03201 0.4699
4 Al 4.07541 2.14987 4.18431
5 Al 0.549707 4.51301 3.29938
6 Al 3.08455 5.59867 6.95527
7 Al 0.520961 4.4606 0.469973
8 Al 3.03148 5.59562 4.12639
9 Al 4.16527 2.14757 7.00122
10 Al 2.64698 3.33445 1.72339
11 Al 0.377219 6.64314 5.56907
12 Al 1.91041 3.27285 5.63958
13 Ni 2.03178 5.80775 1.87295
14 Ni 0.189201 2.41465 1.93747
15 Ni 2.56487 0.804653 5.55456
16 Ni 4.51413 4.14347 5.49062
17 Al 4.4992 0.0170377 9.27684
18 Al 1.76641 1.19083 10.713
19 Al 1.77268 1.23895 7.98271
20 Al 4.16779 2.37954 11.5245
21 Al 0.680022 4.61613 10.7442
22 Al 2.95813 5.70534 14.3484
23 Al 0.666944 4.48899 7.78013
24 Al 3.18265 5.80846 11.5064
25 Al 4.11529 2.3289 14.4203
26 Al 2.78951 3.40705 9.25957
27 Al 0.450968 6.66207 12.9199
28 Al 2.02356 3.32141 13.0131
29 Ni 2.16167 5.85286 9.26894
30 Ni 0.172918 2.49516 9.30141
31 Ni 2.76873 0.938657 12.9391
32 Ni 4.53417 4.31697 13.0384
33 Al 4.25852 6.67799 1.81217
34 Al 1.54623 7.7836 3.32739
35 Al 1.76487 7.77846 0.455503
36 Al 4.0751 8.8011 4.06349
37 Al 0.636265 11.0424 3.28835
38 Al 3.15794 12.2263 6.98511
39 Al 0.723413 11.1241 0.342716
40 Al 3.03121 12.1812 4.12195
41 Al 4.27117 8.77301 6.93717
42 Al 2.79417 10.0269 1.95895
43 Al 0.281299 13.2376 5.74053
44 Al 2.20742 9.97789 5.59034
45 Ni 2.22423 12.4185 1.89246
46 Ni 0.175315 9.20887 1.81877
47 Ni 2.68228 7.5528 5.44893
48 Ni 4.54237 10.8088 5.55374
49 Al 4.50264 6.67381 9.27861
50 Al 1.76374 7.90647 10.663
51 Al 1.83326 7.87451 7.71172
52 Al 4.1467 8.9113 11.4272
53 Al 0.586109 11.1911 10.6282
54 Al 3.37517 12.3201 14.5577
55 Al 0.734306 11.1509 7.76599
56 Al 3.06454 12.1808 11.5559
57 Al 4.07408 9.01063 14.469
58 Al 2.92099 10.0969 9.11245
59 Al 0.432022 13.2498 12.9338
60 Al 2.07893 10.1088 12.9788
61 Ni 2.20156 12.3625 9.18677
62 Ni 0.400067 9.21011 9.16648
63 Ni 2.67422 7.63139 12.941
64 Ni 4.57515 10.8949 13.0069
65 Al 9.26253 -0.235476 1.84438
66 Al 6.60807 1.16119 3.36025
67 Al 6.49635 1.14619 0.380573
68 Al 9.06906 2.09152 4.26086
69 Al 5.41604 4.58911 3.21886
70 Al 7.886 5.56271 7.03582
71 Al 5.52342 4.34627 0.38322
72 Al 7.85861 5.41967 4.17397
73 Al 8.91989 2.32166 7.09195
74 Al 7.78058 3.42575 1.84047
75 Al 5.33753 6.56885 5.77591
76 Al 6.81697 3.26679 5.45618
77 Ni 6.91169 5.74442 1.77055
78 Ni 5.01413 2.50106 1.79616
79 Ni 7.58602 0.874985 5.59009
80 Ni 9.35784 4.1383 5.51854
81 Al 9.24917 -0.0127733 9.05166
82 Al 6.73251 1.16888 10.5099
83 Al 6.55781 1.23518 7.74792
84 Al 9.18708 2.13393 11.6128
85 Al 5.51672 4.56421 10.7097
86 Al 7.92043 5.71993 14.491
87 Al 5.55203 4.47821 7.82875
88 Al 8.00815 5.58168 11.5926
89 Al 8.96517 2.25619 14.4554
90 Al 7.79339 3.47734 9.32968
91 Al 5.42652 6.52459 12.9387
92 Al 6.94692 3.42187 12.9297
93 Ni 7.07818 5.82568 9.30169
94 Ni 5.1912 2.52046 9.17951
95 Ni 7.50378 1.0459 12.9147
96 Ni 9.35511 4.27108 13.0046
97 Al 9.14207 6.83319 1.87433
98 Al 6.60922 7.63715 3.34587
99 Al 6.34696 7.74747 0.335638
100 Al 8.97151 8.97847 4.0801
101 Al 5.57686 11.0537 3.31016
102 Al 7.89059 11.9798 7.12367
103 Al 5.43924 10.9923 0.436735
104 Al 7.75646 12.1829 4.18687
105 Al 9.03352 8.79535 7.06135
106 Al 7.65548 9.97127 1.75784
107 Al 5.21863 13.2442 5.62171
108 Al 6.74858 9.84176 5.44299
109 Ni 6.91699 12.3061 1.78785
110 Ni 4.91569 9.04912 1.88125
111 Ni 7.55065 7.52867 5.45841
112 Ni 9.41128 10.7802 5.64311
113 Al 9.35419 6.84117 9.31866
114 Al 6.60157 7.89871 10.6832
115 Al 6.65072 7.77859 7.79544
116 Al 9.04237 8.95281 11.5225
117 Al 5.4933 11.1824 10.6774
118 Al 7.94815 12.0294 14.43
119 Al 5.58172 11.0529 7.75984
120 Al 7.89315 12.2415 11.5074
121 Al 8.98318 8.95693 14.4097
122 Al 7.80847 10.0205 9.35245
123 Al 5.15539 13.4065 12.9172
124 Al 6.80516 9.90481 12.7932
125 Ni 7.02697 12.4381 9.27081
126 Ni 5.19181 9.17537 9.26289
127 Ni 7.51481 7.60474 12.9512
128 Ni 9.50836 10.8974 12.879
ITEM: TIMESTEP
8600
ITEM: NUMBER OF ATOMS
128
ITEM: BOX BOUNDS xy xz yz pp pp pp
-9.1298569211825525e-02 9.6513583132879646e+00 -5.9658892897295705e-03
-9.3826617913413679e-02 1.3230106071766922e+01 -6.4980188890395391e-02
-4.7718240967827619e-02 1.4901196000779423e+01 -6.3588759438894138e-02
ITEM: ATOMS id element xu yu zu
1 Al 4.35044 -0.0747099 1.65336
2 Al 1.70354 0.992918 3.27081
3 Al 1.84915 1.24956 0.40973
4 Al 4.18246 1.86792 4.14478
5 Al 0.633251 4.49067 3.30323
6 Al 2.96746 5.41186 6.99869
7 Al 0.639746 4.48907 0.337079
8 Al 2.98192 5.39292 4.10234
9 Al 4.28077 2.00837 6.94842
10 Al 2.72141 3.24723 1.97211
11 Al 0.423149 6.59773 5.6133
12 Al 1.95878 3.25363 5.50406
13 Ni 2.09458 5.6973 1.77544
14 Ni 0.332874 2.46506 1.81248
15 Ni 2.64005 0.907627 5.51997
16 Ni 4.48941 4.05569 5.53691
17 Al 4.40251 0.119162 9.25082
18 Al 1.54301 1.16844 10.8566
19 Al 1.70319 1.15935 7.94229
20 Al 4.01634 1.91729 11.5392
21 Al 0.508062 4.45467 10.5702
22 Al 2.9958 5.36741 14.4326
23 Al 0.650007 4.30467 7.82435
24 Al 2.95413 5.41161 11.5202
25 Al 4.20544 2.06291 14.3744
26 Al 2.82955 3.34107 9.35233
27 Al 0.194907 6.47938 12.956
28 Al 1.91584 3.19734 12.9363
29 Ni 2.11598 5.73272 9.3113
30 Ni 0.310917 2.53262 9.34219
31 Ni 2.53199 0.784168 12.9891
32 Ni 4.41454 4.05022 12.9194
33 Al 4.40236 6.564 1.86748
34 Al 1.78292 7.65694 3.24628
35 Al 1.64282 7.50535 0.304731
36 Al 4.12462 8.82042 4.0825
37 Al 0.76077 11.1007 3.16915
38 Al 3.1027 12.1177 6.99986
39 Al 0.408195 11.1433 0.540516
40 Al 3.08874 12.2024 4.11014
41 Al 4.19844 8.71875 6.97347
42 Al 2.8403 9.83146 1.68591
43 Al 0.430046 13.2325 5.49753
44 Al 2.01692 9.75025 5.43088
45 Ni 2.1471 12.2696 1.7061
46 Ni 0.301539 8.97157 1.8745
47 Ni 2.67639 7.3462 5.61391
48 Ni 4.57044 10.837 5.50916
49 Al 4.34876 6.62741 9.20139
50 Al 1.68188 7.64599 10.6816
51 Al 1.67446 7.82346 7.79738
52 Al 4.18542 8.60189 11.5749
53 Al 0.70306 11.1476 10.8018
54 Al 2.8363 11.9778 14.3901
55 Al 0.714674 11.0539 7.84819
56 Al 3.1672 12.1081 11.4258
57 Al 4.05382 8.697 14.4755
58 Al 2.80787 10.007 9.42161
59 Al 0.302716 13.1977 13.1045
60 Al 1.8745 9.77815 12.8751
61 Ni 2.11808 12.46 9.29317
62 Ni 0.119166 9.11632 9.33107
63 Ni 2.50895 7.36483 12.9955
64 Ni 4.48625 10.6587 12.9321
65 Al 9.22325 0.128592 1.69503
66 Al 6.63458 1.05191 3.36561
67 Al 6.58237 1.13965 0.399347
68 Al 8.96779 2.28316 4.06223
69 Al 5.41227 4.23186 3.30519
70 Al 7.84749 5.39877 7.04817
71 Al 5.33935 4.37107 0.373262
72 Al 7.92552 5.54198 4.1676
73 Al 9.09754 2.17467 6.97079
74 Al 7.66129 3.33918 1.75108
75 Al 5.14387 6.47146 5.20027
76 Al 6.87442 3.21337 5.62331
77 Ni 6.82085 5.71401 1.89633
78 Ni 5.09504 2.2702 1.75159
79 Ni 7.62954 0.828246 5.50018
80 Ni 9.4386 4.26632 5.5751
81 Al 9.06956 -0.0530055 9.35458
82 Al 6.54429 1.06938 10.8287
83 Al 6.64984 1.10796 7.89544
84 Al 8.76043 2.33355 11.5309
85 Al 5.34907 4.38947 10.7468
86 Al 7.63631 5.36833 14.4843
87 Al 5.35989 4.37275 7.82017
88 Al 7.77724 5.29127 11.56
89 Al 8.92971 2.23421 14.4229
90 Al 7.57858 3.19072 9.23539
91 Al 5.12565 6.40423 12.9675
92 Al 6.63827 3.14143 13.1764
93 Ni 6.77779 5.72642 9.22231
94 Ni 5.03716 2.39158 9.31114
95 Ni 7.51133 0.82807 13.0879
96 Ni 9.32347 4.1732 13.0285
97 Al 9.29863 6.52133 1.82997
98 Al 6.60034 7.87085 3.32524
99 Al 6.58869 7.72315 0.316545
100 Al 9.056 8.64626 4.07554
101 Al 5.52065 11.0026 3.13982
102 Al 7.838 12.1315 6.87111
103 Al 5.4223 11.0398 0.285661
104 Al 8.00415 12.1665 3.92848
105 Al 9.0451 8.83652 6.94275
106 Al 7.7333 10.0005 1.98351
107 Al 5.32724 13.115 5.46889
108 Al 6.80682 9.88179 5.5619
109 Ni 6.9814 12.4317 1.86696
110 Ni 5.09698 9.00163 1.65443
111 Ni 7.39762 7.49223 5.54337
112 Ni 9.40394 10.826 5.41403
113 Al 9.22069 6.7676 9.20703
114 Al 6.57522 7.75663 10.7383
115 Al 6.63701 7.68643 7.84522
116 Al 8.88257 8.89496 11.5397
117 Al 5.56053 10.8644 10.7296
118 Al 7.79078 12.0294 14.6213
119 Al 5.41261 11.0733 7.79627
120 Al 7.90391 12.0224 11.4665
121 Al 8.99533 8.84855 14.527
122 Al 7.59971 9.9473 9.1216
123 Al 5.20001 12.9695 13.1403
124 Al 6.86437 9.87659 13.1551
125 Ni 6.90637 12.3201 9.31032
126 Ni 4.96601 9.01936 9.23974
127 Ni 7.45595 7.46311 12.9784
128 Ni 9.24088 10.8176 13.058
ITEM: TIMESTEP
8700
ITEM: NUMBER OF ATOMS
128
ITEM: BOX BOUNDS xy xz yz pp pp pp
-7.4638488447103579e-02 9.6329884994236359e+00 -1.6488296586140278e-02
-1.3670130015778342e-01 1.3196212711104533e+01 -5.6167514693594080e-02
-3.6806915603190049e-02 1.4890284675414787e+01 -1.4035680234566689e-01
ITEM: ATOMS id element xu yu zu
1 Al 4.43058 0.0890833 1.90376
2 Al 1.86768 1.24392 3.28517
3 Al 1.63701 1.0005 0.395611
4 Al 4.15453 2.24237 4.18054
5 Al 0.715053 4.46437 3.25896
6 Al 3.01303 5.52727 6.98089
7 Al 0.812537 4.46343 0.369602
8 Al 3.15629 5.48614 4.11202
9 Al 4.02119 2.26666 7.02212
10 Al 2.85932 3.43024 1.69913
11 Al 0.434839 6.49505 5.49032
12 Al 1.88624 3.30637 5.58345
13 Ni 2.29354 5.75484 1.84282
14 Ni 0.353061 2.47066 1.71272
15 Ni 2.78042 0.736975 5.45642
16 Ni 4.54522 4.17469 5.627
17 Al 4.31634 -0.0851889 9.15326
18 Al 1.88572 0.989329 10.6049
19 Al 1.64741 1.07483 7.72715
20 Al 4.03163 2.02506 11.6255
21 Al 0.636315 4.27668 10.6505
22 Al 3.11356 5.38211 14.5501
23 Al 0.423751 4.44715 7.82273
24 Al 3.0525 5.2719 11.5162
25 Al 4.14357 1.99804 14.6329
26 Al 2.69392 3.25357 9.26727
27 Al 0.417648 6.40877 13.0265
28 Al 1.945 3.15355 12.9698
29 Ni 2.0328 5.65726 9.23294
30 Ni 0.22766 2.38836 9.23403
31 Ni 2.61039 0.769526 13.0471
32 Ni 4.49197 3.99989 13.0982
33 Al 4.49709 6.6671 1.79172
34 Al 1.70234 7.63127 3.18976
35 Al 1.83748 7.75322 0.400627
36 Al 4.23781 8.71718 4.17332
37 Al 0.543426 11.0914 3.23726
38 Al 3.02326 11.8743 7.02742
39 Al 0.773218 10.8338 0.280275
40 Al 3.0863 12.0315 4.07992
41 Al 3.98348 8.83106 7.12415
42 Al 2.90123 10.0201 1.86968
43 Al 0.386923 13.1007 5.50284
44 Al 1.83956 9.83362 5.62751
45 Ni 2.01011 12.365 1.88284
46 Ni 0.252115 9.01555 1.78341
47 Ni 2.66891 7.56555 5.4984
48 Ni 4.48818 10.7069 5.54732
49 Al 4.23296 6.57971 9.32086
50 Al 1.66889 7.48083 10.7973
51 Al 1.63869 7.5577 7.82837
52 Al 4.01162 8.7734 11.5036
53 Al 0.460062 10.9736 10.6806
54 Al 2.98151 12.0146 14.6016
55 Al 0.624979 10.8539 7.93681
56 Al 2.82463 11.83 11.5542
57 Al 4.27463 8.57121 14.5285
58 Al 2.68888 9.75938 9.23647
59 Al 0.364578 12.9927 12.9502
60 Al 2.00052 9.67073 12.9561
61 Ni 2.00287 12.2183 9.31469
62 Ni 0.260122 8.9106 9.24631
63 Ni 2.71456 7.38987 13.0278
64 Ni 4.39283 10.684 12.9998
65 Al 9.1566 -0.0732722 1.9926
66 Al 6.62301 1.07664 3.27157
67 Al 6.612 1.29902 0.334477
68 Al 9.08598 2.06151 3.93433
69 Al 5.49138 4.47768 3.30138
70 Al 7.76888 5.46941 6.96265
71 Al 5.59281 4.53083 0.226512
72 Al 7.98475 5.40607 4.10707
73 Al 8.97138 2.15157 6.95274
74 Al 7.62356 3.33172 1.86855
75 Al 5.19025 6.56686 5.6865
76 Al 6.86935 3.17201 5.50252
77 Ni 7.00464 5.75478 1.67761
78 Ni 5.18155 2.51887 1.87892
79 Ni 7.44583 0.824122 5.53152
80 Ni 9.26173 4.03978 5.51254
81 Al 9.16428 -0.0313588 9.16109
82 Al 6.56457 1.16189 10.7222
83 Al 6.45294 1.10967 7.87228
84 Al 9.01241 2.01148 11.3895
85 Al 5.40024 4.32329 10.7667
86 Al 7.99697 5.39495 14.448
87 Al 5.46541 4.35086 7.83186
88 Al 7.78169 5.40058 11.6045
89 Al 8.9472 2.04679 14.3598
90 Al 7.56645 3.22115 9.32147
91 Al 5.01386 6.43754 13.0488
92 Al 6.88526 3.17628 12.783
93 Ni 6.85248 5.69979 9.25776
94 Ni 5.0523 2.28153 9.26175
95 Ni 7.45453 0.721312 12.9021
96 Ni 9.2522 3.99648 12.9851
97 Al 9.26216 6.74472 1.78362
98 Al 6.67661 7.73722 3.20926
99 Al 6.53566 7.66249 0.370693
100 Al 9.01392 8.67765 4.06359
101 Al 5.45752 11.1292 3.2734
102 Al 7.84224 12.1126 6.95404
103 Al 5.47774 11.0276 0.280733
104 Al 7.87382 11.9839 4.10783
105 Al 8.86504 8.65914 7.17092
106 Al 7.61518 9.94071 1.59566
107 Al 5.14193 13.1353 5.48747
108 Al 6.80078 9.84762 5.54316
109 Ni 6.95347 12.3122 1.70177
110 Ni 5.15864 9.15448 1.92019
111 Ni 7.55627 7.38867 5.56046
112 Ni 9.28794 10.6935 5.68766
113 Al 9.1753 6.68025 9.2942
114 Al 6.48802 7.66129 10.7663
115 Al 6.50083 7.75156 7.89566
116 Al 8.8546 8.59615 11.4817
117 Al 5.24284 11.0758 10.683
118 Al 7.80769 11.8633 14.4116
119 Al 5.48015 10.9366 7.74029
120 Al 7.69067 11.8697 11.4622
121 Al 8.85836 8.64074 14.4657
122 Al 7.51008 9.88407 9.51658
123 Al 5.11435 13.0841 12.9205
124 Al 6.62506 9.59448 12.8695
125 Ni 6.89435 12.3008 9.25726
126 Ni 5.0217 9.00624 9.29315
127 Ni 7.41536 7.27155 13.0098
128 Ni 9.3052 10.5384 12.9583
ITEM: TIMESTEP
8800
ITEM: NUMBER OF ATOMS
128
ITEM: BOX BOUNDS xy xz yz pp pp pp
-1.0376227721920976e-01 9.7420000899005892e+00 -4.5582461251276560e-02
-5.1380319766689629e-02 1.3243750674192647e+01 5.2814451676397006e-02
-2.2354152043575937e-02 1.4875831911855173e+01 -7.4978588664570038e-03
ITEM: ATOMS id element xu yu zu
1 Al 4.32158 0.101964 1.88159
2 Al 1.64465 1.09172 3.36545
3 Al 1.83625 1.17833 0.291091
4 Al 4.1158 2.19298 4.04648
5 Al 0.629886 4.3091 3.34264
6 Al 3.10982 5.5071 6.99527
7 Al 0.684484 4.34946 0.435554
8 Al 2.99095 5.42379 3.98307
9 Al 4.26794 2.16355 6.89956
10 Al 2.7912 3.42777 1.80021
11 Al 0.309836 6.66527 5.56152
12 Al 2.08794 3.28463 5.44757
13 Ni 1.96683 5.79831 1.77241
14 Ni 0.174356 2.42031 1.98428
15 Ni 2.55934 0.875008 5.58495
16 Ni 4.57604 4.21672 5.40476
17 Al 4.27184 0.00657461 9.38347
18 Al 1.78795 1.07924 10.7009
19 Al 1.74829 1.06488 7.84963
20 Al 4.10367 2.2624 11.4762
21 Al 0.81296 4.21414 10.6954
22 Al 3.16228 5.46983 14.4985
23 Al 0.746907 4.24014 7.61815
24 Al 3.17372 5.53333 11.5314
25 Al 4.29787 2.24471 14.3609
26 Al 2.72699 3.25155 9.24682
27 Al 0.524186 6.422 13.0652
28 Al 2.06671 3.18977 13.0081
29 Ni 2.19193 5.7318 9.29271
30 Ni 0.240356 2.27294 9.27367
31 Ni 2.76986 0.849907 12.8784
32 Ni 4.663 4.24226 12.9183
33 Al 4.3155 6.59048 1.64399
34 Al 1.56806 7.85318 3.24274
35 Al 1.79119 7.82442 0.402822
36 Al 4.1527 8.7621 4.09173
37 Al 0.527828 11.0947 3.17987
38 Al 2.96864 12.115 6.93724
39 Al 0.556675 11.1671 0.374621
40 Al 3.07641 12.1319 4.17779
41 Al 4.14119 8.71409 6.97765
42 Al 2.75414 10.0593 1.74524
43 Al 0.28388 13.1064 5.52473
44 Al 1.9886 9.91518 5.69089
45 Ni 2.15371 12.4691 1.79441
46 Ni 0.139581 9.11193 1.79386
47 Ni 2.63203 7.38044 5.55872
48 Ni 4.49862 10.7742 5.59722
49 Al 4.38552 6.63153 9.19244
50 Al 1.85767 7.80679 10.6916
51 Al 1.866 7.69102 7.91002
52 Al 4.15584 8.81057 11.711
53 Al 0.577976 10.979 10.7441
54 Al 2.98469 12.126 14.4215
55 Al 0.617189 11.1116 7.74243
56 Al 3.13032 12.1476 11.4761
57 Al 4.11185 9.07478 14.4332
58 Al 2.87194 10.0529 9.21098
59 Al 0.496218 13.1491 12.9863
60 Al 1.9614 9.95999 13.0883
61 Ni 2.03287 12.2776 9.23613
62 Ni 0.120701 8.92905 9.29321
63 Ni 2.74615 7.47364 13.0166
64 Ni 4.60734 10.8736 13.0022
65 Al 9.32559 0.0129161 1.67944
66 Al 6.64681 1.17661 3.14117
67 Al 6.38783 0.950628 0.386197
68 Al 9.04111 2.1587 4.16726
69 Al 5.39969 4.50155 3.16185
70 Al 7.9656 5.47831 7.03297
71 Al 5.48562 4.44184 0.447316
72 Al 8.03284 5.49528 4.14483
73 Al 8.98486 2.04906 7.00869
74 Al 7.61074 3.39131 1.91296
75 Al 5.19602 6.54503 5.64958
76 Al 6.84677 3.36004 5.48836
77 Ni 7.04612 5.7803 1.80841
78 Ni 5.09127 2.39816 1.6994
79 Ni 7.41698 0.883918 5.51419
80 Ni 9.41458 4.17062 5.52743
81 Al 9.37197 -0.104961 9.41335
82 Al 6.58549 1.06196 10.6683
83 Al 6.4764 0.98173 7.93331
84 Al 8.98658 2.14921 11.5684
85 Al 5.61269 4.47199 10.7375
86 Al 7.89519 5.44107 14.3924
87 Al 5.52076 4.47545 7.70497
88 Al 8.00589 5.51702 11.702
89 Al 8.98162 2.03427 14.5942
90 Al 7.80634 3.35164 9.23326
91 Al 5.29532 6.46633 13.0636
92 Al 6.89898 3.21049 13.0528
93 Ni 7.05626 5.6572 9.24617
94 Ni 5.14461 2.53319 9.18398
95 Ni 7.49021 0.832271 13.0899
96 Ni 9.54902 4.11391 13.0394
97 Al 9.36661 6.75651 1.84433
98 Al 6.46014 7.72074 3.1254
99 Al 6.56016 7.80689 0.322027
100 Al 8.86233 8.71005 4.00311
101 Al 5.3171 11.0986 3.2695
102 Al 7.82081 12.0699 7.05777
103 Al 5.60978 11.0577 0.456048
104 Al 7.90689 12.224 4.15584
105 Al 9.01938 8.80053 7.04215
106 Al 7.64385 10.0292 1.98888
107 Al 5.12784 13.2234 5.53538
108 Al 6.75712 9.92865 5.48742
109 Ni 7.00394 12.3583 1.9251
110 Ni 5.07661 9.02416 1.72069
111 Ni 7.47517 7.48109 5.52129
112 Ni 9.31755 10.8434 5.41923
113 Al 9.46712 6.5028 9.20568
114 Al 6.70996 7.76303 10.7151
115 Al 6.59117 7.75626 7.76959
116 Al 9.14109 8.59354 11.6141
117 Al 5.49865 11.024 10.7917
118 Al 7.94515 12.1851 14.498
119 Al 5.24444 10.967 7.93412
120 Al 7.91103 12.1268 11.4821
121 Al 9.07296 8.78554 14.5478
122 Al 7.68154 9.93955 9.17838
123 Al 5.25248 13.2991 12.9249
124 Al 6.96993 9.96983 13.0911
125 Ni 6.93073 12.2902 9.24947
126 Ni 5.07333 9.00156 9.28811
127 Ni 7.56928 7.52001 13.0169
128 Ni 9.39181 10.7943 13.0318
ITEM: TIMESTEP
8900
ITEM: NUMBER OF ATOMS
128
ITEM: BOX BOUNDS xy xz yz pp pp pp
-7.6275287223081190e-02 9.7297691320986068e+00 -3.4757379329359406e-02
4.4260997302867366e-03 1.3351122788330864e+01 5.7245401948630877e-02
1.4658760555869677e-02 1.4838818999255734e+01 1.5568067476874844e-01
ITEM: ATOMS id element xu yu zu
1 Al 4.41957 -0.00382424 1.73306
2 Al 1.63731 1.19333 3.25046
3 Al 1.65124 1.13164 0.315926
4 Al 4.10943 2.26946 4.133
5 Al 0.491912 4.5234 3.25337
6 Al 3.06611 5.57922 7.06238
7 Al 0.614061 4.50269 0.366854
8 Al 3.04555 5.48096 4.13385
9 Al 4.19995 2.12259 7.09085
10 Al 2.67954 3.38233 1.98818
11 Al 0.518634 6.42874 5.52797
12 Al 1.93998 3.17399 5.46239
13 Ni 2.14293 5.71125 1.80225
14 Ni 0.197963 2.52764 1.77281
15 Ni 2.71281 0.954372 5.54724
16 Ni 4.4878 4.12245 5.6129
17 Al 4.54284 0.0482097 9.30658
18 Al 1.71866 1.21999 10.8156
19 Al 1.84991 1.3246 7.90456
20 Al 4.18235 2.20304 11.5764
21 Al 0.721289 4.65674 10.7673
22 Al 2.93133 5.64387 14.3303
23 Al 0.540089 4.55257 7.90378
24 Al 3.08032 5.53795 11.4816
25 Al 4.19472 2.32981 14.5709
26 Al 2.94879 3.5986 9.26429
27 Al 0.283336 6.83048 12.8181
28 Al 2.01584 3.32471 12.8635
29 Ni 2.14462 5.84601 9.25152
30 Ni 0.203885 2.60764 9.35848
31 Ni 2.68425 0.97741 13.0681
32 Ni 4.48842 4.3534 12.8898
33 Al 4.31377 6.69884 1.91793
34 Al 1.64198 7.64623 3.27915
35 Al 1.6405 7.76666 0.298589
36 Al 4.03292 8.99024 4.11718
37 Al 0.571488 11.0902 3.43344
38 Al 3.07564 12.0641 7.06688
39 Al 0.611385 11.1051 0.414988
40 Al 3.01923 12.0208 4.13101
41 Al 4.3246 8.81002 6.95993
42 Al 2.62779 9.9644 1.96222
43 Al 0.38168 13.2443 5.61183
44 Al 2.02565 9.93525 5.47077
45 Ni 1.94946 12.2955 1.85855
46 Ni 0.301484 9.00311 1.92129
47 Ni 2.75087 7.51491 5.63893
48 Ni 4.46757 10.8762 5.48547
49 Al 4.40175 6.71957 9.27506
50 Al 1.66111 7.79057 10.6858
51 Al 1.71945 7.79474 7.69976
52 Al 4.11401 8.81793 11.4656
53 Al 0.628908 11.3385 10.6561
54 Al 2.9898 12.2412 14.4188
55 Al 0.677512 11.2773 7.83243
56 Al 3.16278 12.2219 11.5495
57 Al 4.16017 8.95079 14.4612
58 Al 2.76413 10.0077 9.27811
59 Al 0.379725 13.3189 13.0737
60 Al 1.97143 9.9782 13.022
61 Ni 2.25388 12.5837 9.24292
62 Ni 0.328038 9.17885 9.30399
63 Ni 2.62385 7.58881 12.8785
64 Ni 4.63921 10.743 12.8842
65 Al 9.21617 0.116831 1.89209
66 Al 6.48712 1.16557 3.35897
67 Al 6.60923 1.3293 0.38244
68 Al 8.96517 2.31203 4.02398
69 Al 5.47472 4.35478 3.34797
70 Al 7.94142 5.47769 7.0244
71 Al 5.32487 4.48889 0.446111
72 Al 7.85104 5.47689 4.17332
73 Al 9.01168 2.32385 6.92957
74 Al 7.59825 3.37086 1.73484
75 Al 5.22612 6.56337 5.42813
76 Al 6.77543 3.30315 5.62666
77 Ni 6.81517 5.71952 1.91174
78 Ni 5.08934 2.49226 1.88669
79 Ni 7.66076 0.855643 5.54366
80 Ni 9.42933 4.27271 5.55864
81 Al 9.31486 0.347034 9.10237
82 Al 6.6131 1.11114 10.7033
83 Al 6.66495 1.23757 7.7296
84 Al 9.15849 2.29584 11.5417
85 Al 5.55072 4.50688 10.712
86 Al 7.80266 5.75634 14.3382
87 Al 5.52524 4.51936 7.80628
88 Al 7.91852 5.59093 11.499
89 Al 9.0493 2.38483 14.3169
90 Al 7.68125 3.43217 9.25305
91 Al 5.28213 6.58156 12.7778
92 Al 6.85182 3.47893 12.9904
93 Ni 7.16863 5.82802 9.25322
94 Ni 5.22524 2.48751 9.27632
95 Ni 7.60889 1.03869 12.9733
96 Ni 9.34143 4.32869 12.8758
97 Al 9.25925 6.64931 1.78788
98 Al 6.57792 7.99449 3.28323
99 Al 6.64839 7.77106 0.498512
100 Al 9.05255 8.75866 4.21645
101 Al 5.59379 11.0054 3.32453
102 Al 7.95379 12.1192 7.05986
103 Al 5.39258 11.1104 0.458163
104 Al 7.94071 12.0093 4.11587
105 Al 9.08607 8.7415 7.00976
106 Al 7.67744 9.97499 1.76369
107 Al 5.20927 13.1281 5.55929
108 Al 6.75997 9.86475 5.57751
109 Ni 6.82328 12.4655 1.76657
110 Ni 4.99616 9.08221 1.87754
111 Ni 7.51815 7.49104 5.53614
112 Ni 9.46827 10.8428 5.65603
113 Al 9.27807 6.96538 9.32573
114 Al 6.62245 7.76227 10.695
115 Al 6.59816 7.65979 7.7471
116 Al 8.88 9.13376 11.4913
117 Al 5.59416 11.1339 10.6815
118 Al 7.93624 12.2595 14.4685
119 Al 5.67015 11.1072 7.67744
120 Al 8.05243 12.3103 11.5384
121 Al 9.03938 9.02468 14.4162
122 Al 7.71537 9.90314 9.06986
123 Al 5.3403 13.3281 12.9854
124 Al 6.82446 9.97988 13.125
125 Ni 7.06597 12.5284 9.29752
126 Ni 5.28074 9.15155 9.11575
127 Ni 7.67406 7.59337 12.8875
128 Ni 9.51413 11.0265 12.9372
ITEM: TIMESTEP
9000
ITEM: NUMBER OF ATOMS
128
ITEM: BOX BOUNDS xy xz yz pp pp pp
-6.5245998767135466e-02 9.6754727872574495e+00 2.0932407328413487e-02
-2.5822830170425526e-02 1.3334051380064242e+01 -4.1711441094362887e-02
-7.3081172760063318e-02 1.4926558932571684e+01 1.0836033660141473e-01
ITEM: ATOMS id element xu yu zu
1 Al 4.427 0.0529133 1.82594
2 Al 1.72621 1.21973 3.25871
3 Al 1.72584 1.08902 0.216426
4 Al 4.13145 2.19514 4.05299
5 Al 0.678843 4.48632 3.24246
6 Al 2.99203 5.57527 7.03267
7 Al 0.773131 4.59141 0.47125
8 Al 3.09576 5.45809 4.09475
9 Al 4.07963 2.24677 7.04934
10 Al 2.83998 3.37648 1.58592
11 Al 0.26078 6.68643 5.70275
12 Al 2.02177 3.22196 5.74174
13 Ni 2.24635 5.72548 1.87245
14 Ni 0.224732 2.43774 1.7972
15 Ni 2.69262 0.914481 5.51224
16 Ni 4.64697 4.16316 5.53836
17 Al 4.4409 0.132307 9.27932
18 Al 1.70458 1.20132 10.7395
19 Al 1.65573 0.927051 7.78518
20 Al 4.16146 2.19866 11.6676
21 Al 0.468582 4.74501 10.7287
22 Al 3.11132 5.63301 14.5534
23 Al 0.540213 4.5654 7.75519
24 Al 2.96873 5.60896 11.6637
25 Al 4.15054 2.10716 14.5961
26 Al 2.71322 3.52517 9.30796
27 Al 0.363336 6.67684 13.1416
28 Al 1.93055 3.44738 13.1482
29 Ni 2.05888 5.83247 9.34446
30 Ni 0.379625 2.51365 9.1465
31 Ni 2.58726 0.90626 13.0133
32 Ni 4.46686 4.17848 13.1252
33 Al 4.38561 6.69822 1.85704
34 Al 1.76219 7.8208 3.12467
35 Al 1.65435 7.6274 0.336859
36 Al 4.32057 8.79767 4.17034
37 Al 0.909367 11.0633 3.29967
38 Al 3.14154 12.2088 7.03774
39 Al 0.71774 11.0102 0.205352
40 Al 3.09507 12.0681 4.2752
41 Al 4.29278 8.93841 7.06294
42 Al 2.9565 10.0652 1.58127
43 Al 0.391057 13.1338 5.4547
44 Al 2.10149 9.85441 5.51704
45 Ni 2.16506 12.3259 1.79947
46 Ni 0.211751 9.08258 1.64271
47 Ni 2.70634 7.50781 5.4199
48 Ni 4.76 10.8079 5.51055
49 Al 4.30797 6.67543 9.2824
50 Al 1.68629 7.96732 10.7145
51 Al 1.74549 7.90504 7.69619
52 Al 4.15586 8.87802 11.644
53 Al 0.644113 11.0695 10.8862
54 Al 2.98138 12.2583 14.5862
55 Al 0.707261 11.1785 7.73511
56 Al 3.09376 12.1881 11.4785
57 Al 4.07441 8.75702 14.5233
58 Al 2.88462 10.1787 9.20321
59 Al 0.220304 13.3166 12.9263
60 Al 1.93591 9.92419 12.904
61 Ni 2.18753 12.4352 9.25707
62 Ni 0.227947 9.22896 9.21839
63 Ni 2.61283 7.60456 13.0846
64 Ni 4.35223 10.9236 13.1202
65 Al 9.32556 0.0944224 1.80465
66 Al 6.63757 1.1582 3.16742
67 Al 6.58962 1.01313 0.326927
68 Al 9.06781 2.17139 4.15291
69 Al 5.47483 4.44683 3.21501
70 Al 7.73321 5.44562 6.97064
71 Al 5.64349 4.26088 0.331969
72 Al 7.91933 5.45166 4.02297
73 Al 8.98524 2.25793 7.01709
74 Al 7.64782 3.32046 1.95277
75 Al 5.20663 6.67231 5.65121
76 Al 6.84397 3.2361 5.51725
77 Ni 6.9526 5.80243 1.66758
78 Ni 5.08621 2.49067 1.82561
79 Ni 7.56203 0.886138 5.53016
80 Ni 9.30414 4.15592 5.50402
81 Al 9.27626 0.0552947 9.4196
82 Al 6.6083 1.21281 10.7729
83 Al 6.73253 1.29843 7.84535
84 Al 9.13352 2.3845 11.5708
85 Al 5.24987 4.60168 10.8512
86 Al 7.87994 5.53932 14.4945
87 Al 5.38323 4.43567 7.85949
88 Al 7.73665 5.62227 11.6053
89 Al 8.87033 2.30997 14.5566
90 Al 7.66504 3.5002 9.21703
91 Al 5.10874 6.63808 13.0056
92 Al 6.70282 3.30048 13.0619
93 Ni 6.67616 5.94049 9.29125
94 Ni 4.96545 2.47766 9.32928
95 Ni 7.45994 0.88013 13.0184
96 Ni 9.29948 4.28765 13.0613
97 Al 9.1127 6.80836 1.76031
98 Al 6.65743 7.73114 3.21656
99 Al 6.59184 7.71034 0.276888
100 Al 8.99873 8.88195 4.00273
101 Al 5.38656 11.0691 3.12363
102 Al 7.96177 12.1495 6.91613
103 Al 5.60859 10.9828 0.266594
104 Al 7.86704 12.0518 3.98535
105 Al 8.93335 8.93171 7.03707
106 Al 7.58331 9.84042 1.81514
107 Al 5.40125 13.1692 5.50582
108 Al 6.97867 9.95136 5.52057
109 Ni 7.04942 12.2607 1.74798
110 Ni 5.17375 9.07589 1.7511
111 Ni 7.54717 7.55219 5.52104
112 Ni 9.45492 10.7437 5.3859
113 Al 9.13968 6.71505 9.09202
114 Al 6.68392 7.93418 10.7313
115 Al 6.6051 7.94294 7.88029
116 Al 9.00086 8.76034 11.5809
117 Al 5.42392 11.1412 10.6984
118 Al 7.8982 12.0995 14.4412
119 Al 5.59993 11.2068 7.79187
120 Al 7.84496 12.1676 11.6322
121 Al 8.9494 8.72892 14.3774
122 Al 7.74458 10.0979 9.28811
123 Al 5.18943 13.308 13.0556
124 Al 6.66671 9.98777 12.7987
125 Ni 6.92801 12.4281 9.24838
126 Ni 4.9753 9.11791 9.36779
127 Ni 7.38462 7.59905 13.0322
128 Ni 9.30671 10.8019 13.0228
ITEM: TIMESTEP
9100
ITEM: NUMBER OF ATOMS
128
ITEM: BOX BOUNDS xy xz yz pp pp pp
-6.4539767094689476e-02 9.6540057243472397e+00 2.5390794254917127e-02
-1.8174864176391214e-01 1.3263940625240437e+01 -6.6930659258638531e-02
-5.5443437043249943e-03 1.4859022103515947e+01 -1.1767622981588409e-01
ITEM: ATOMS id element xu yu zu
1 Al 4.46972 0.0470939 1.77812
2 Al 1.83005 1.16409 3.30791
3 Al 1.94988 1.1305 0.396952
4 Al 4.26782 2.09172 4.15948
5 Al 0.644 4.37623 3.21809
6 Al 3.00749 5.43837 7.07405
7 Al 0.718915 4.37866 0.437424
8 Al 3.10924 5.60127 4.02168
9 Al 4.14583 2.2434 6.94674
10 Al 2.94218 3.31674 1.88203
11 Al 0.46748 6.59017 5.43041
12 Al 2.10182 3.2175 5.49088
13 Ni 2.02687 5.73817 1.80937
14 Ni 0.383133 2.33223 1.86188
15 Ni 2.67047 0.793199 5.49657
16 Ni 4.47414 4.20958 5.55035
17 Al 4.31011 -0.0734609 9.26002
18 Al 1.65307 0.989124 10.5986
19 Al 1.7909 1.14622 7.84123
20 Al 4.02239 2.13176 11.4559
21 Al 0.716749 4.08026 10.6732
22 Al 2.87619 5.31376 14.3336
23 Al 0.60735 4.30043 7.8022
24 Al 3.11748 5.23647 11.3978
25 Al 4.143 2.11499 14.3086
26 Al 2.75118 3.23274 9.15876
27 Al 0.424787 6.44737 12.9278
28 Al 1.79278 3.1759 13.0113
29 Ni 2.0928 5.606 9.22173
30 Ni 0.10266 2.34344 9.36097
31 Ni 2.65683 0.769249 12.9052
32 Ni 4.48194 4.03826 12.8691
33 Al 4.32942 6.52065 1.68892
34 Al 1.75643 7.71618 3.31971
35 Al 1.8894 7.82739 0.378062
36 Al 4.06709 8.74696 4.15991
37 Al 0.583836 11.1053 3.27667
38 Al 2.91653 12.1779 7.07109
39 Al 0.800084 11.1234 0.325759
40 Al 3.202 12.0507 3.93668
41 Al 4.00597 8.82846 7.03924
42 Al 2.83309 9.9509 2.01773
43 Al 0.441438 13.3099 5.57347
44 Al 1.9036 10.044 5.4576
45 Ni 2.2576 12.4467 1.7172
46 Ni 0.360505 8.92125 1.91822
47 Ni 2.58848 7.46086 5.61988
48 Ni 4.40489 10.7558 5.52983
49 Al 4.31713 6.63644 9.22958
50 Al 1.70269 7.63823 10.8562
51 Al 1.64792 7.51179 7.85113
52 Al 4.00663 8.79098 11.4468
53 Al 0.49748 10.952 10.707
54 Al 3.19774 12.0917 14.4044
55 Al 0.613591 10.9336 7.85304
56 Al 2.85271 11.993 11.5754
57 Al 4.23068 8.76606 14.3295
58 Al 2.75444 9.8355 9.36634
59 Al 0.472562 13.0473 12.9805
60 Al 1.92041 9.77494 13.1283
61 Ni 1.98784 12.2553 9.24437
62 Ni 0.187866 8.97038 9.29178
63 Ni 2.70998 7.32829 13.0402
64 Ni 4.65117 10.7633 12.8979
65 Al 9.28625 0.0657638 1.78735
66 Al 6.5634 1.03162 3.25926
67 Al 6.61169 1.04794 0.264844
68 Al 8.97032 2.08014 4.08509
69 Al 5.48189 4.35552 3.24876
70 Al 8.02279 5.45653 7.00188
71 Al 5.45964 4.39204 0.443037
72 Al 7.97302 5.41539 4.09713
73 Al 8.82883 2.10924 7.03965
74 Al 7.58754 3.17787 1.75362
75 Al 5.21525 6.51319 5.58334
76 Al 6.85973 3.21389 5.54724
77 Ni 7.12903 5.62955 1.93393
78 Ni 5.18171 2.27531 1.78462
79 Ni 7.46467 0.813592 5.54085
80 Ni 9.36731 4.1581 5.61307
81 Al 9.18535 0.0464732 9.1396
82 Al 6.36203 1.10771 10.7927
83 Al 6.50648 0.981126 7.79251
84 Al 8.95138 1.84516 11.5678
85 Al 5.454 4.44513 10.7066
86 Al 7.83313 5.2617 14.4359
87 Al 5.50574 4.41619 7.80387
88 Al 7.98273 5.40288 11.5355
89 Al 9.01642 1.91451 14.4936
90 Al 7.56073 3.17341 9.29109
91 Al 5.04741 6.4979 13.0542
92 Al 6.67006 3.22411 12.9486
93 Ni 7.02007 5.60437 9.21657
94 Ni 5.02816 2.42568 9.17372
95 Ni 7.43455 0.699398 12.9748
96 Ni 9.29656 3.96736 12.9273
97 Al 9.32996 6.54224 1.85192
98 Al 6.47143 7.62257 3.26806
99 Al 6.58272 7.68704 0.433561
100 Al 8.94225 8.68854 4.12756
101 Al 5.59725 11.0341 3.33514
102 Al 7.82736 12.0562 6.96232
103 Al 5.44465 11.1189 0.523107
104 Al 7.92411 12.3084 4.16206
105 Al 9.02585 8.73975 6.96758
106 Al 7.72772 10.0894 1.85773
107 Al 5.12724 13.1971 5.5963
108 Al 6.90132 9.87525 5.57209
109 Ni 6.9772 12.4544 1.92125
110 Ni 5.11499 9.02881 1.80829
111 Ni 7.49226 7.44498 5.59916
112 Ni 9.27839 10.8648 5.59756
113 Al 9.23054 6.46551 9.50058
114 Al 6.44058 7.57691 10.7775
115 Al 6.53953 7.74787 7.8348
116 Al 8.93886 8.641 11.5962
117 Al 5.42629 10.9771 10.6373
118 Al 7.8337 12.0907 14.3452
119 Al 5.44974 10.9898 7.77816
120 Al 7.83143 12.1075 11.5915
121 Al 8.99776 8.57531 14.4569
122 Al 7.57439 9.89627 9.43014
123 Al 5.23139 13.0735 12.7955
124 Al 6.85484 9.82837 13.1104
125 Ni 6.83452 12.3477 9.27627
126 Ni 5.0113 9.04255 9.19804
127 Ni 7.49385 7.40934 13.0183
128 Ni 9.33982 10.7556 12.9235
ITEM: TIMESTEP
9200
ITEM: NUMBER OF ATOMS
128
ITEM: BOX BOUNDS xy xz yz pp pp pp
-5.6223632817045024e-02 9.6819260456070637e+00 -2.9928852404489965e-02
-1.8397053186331666e-01 1.3227347340070006e+01 2.4625442938229575e-02
-2.2300268360764264e-03 1.4855707786647693e+01 -1.5649140508571621e-01
ITEM: ATOMS id element xu yu zu
1 Al 4.39848 -0.0310962 1.91689
2 Al 1.60584 0.968509 3.29339
3 Al 1.66838 1.0762 0.390135
4 Al 4.06297 2.18083 3.99328
5 Al 0.550616 4.53569 3.17019
6 Al 2.97751 5.36359 7.00371
7 Al 0.631398 4.43333 0.383719
8 Al 3.03662 5.4641 4.13231
9 Al 4.21521 1.97872 7.06588
10 Al 2.67486 3.22794 1.82259
11 Al 0.495187 6.54209 5.55021
12 Al 1.98114 3.10031 5.52856
13 Ni 2.24207 5.7366 1.87301
14 Ni 0.265253 2.43333 1.78088
15 Ni 2.6587 0.798262 5.56119
16 Ni 4.55176 4.11917 5.46237
17 Al 4.37818 0.0485345 9.29577
18 Al 1.78169 1.07482 10.733
19 Al 1.73774 0.983565 7.73384
20 Al 4.38173 1.96244 11.6143
21 Al 0.643525 4.39736 10.6722
22 Al 3.15882 5.35851 14.4833
23 Al 0.698538 4.23433 7.81538
24 Al 3.17227 5.38838 11.6158
25 Al 4.17559 2.0915 14.486
26 Al 2.82605 3.25319 9.38827
27 Al 0.510967 6.39426 13.057
28 Al 2.04466 3.11382 12.8453
29 Ni 2.12394 5.73403 9.27194
30 Ni 0.274953 2.24311 9.24449
31 Ni 2.77125 0.615078 13.0444
32 Ni 4.73884 4.03953 12.9421
33 Al 4.49489 6.69836 1.8938
34 Al 1.69816 7.6698 3.28113
35 Al 1.67288 7.81097 0.44799
36 Al 4.03033 8.77833 4.04123
37 Al 0.523613 11.0225 3.3732
38 Al 2.90006 11.9265 7.03166
39 Al 0.540929 11.1096 0.415546
40 Al 3.02203 12.0945 4.19691
41 Al 4.19842 8.68627 7.03722
42 Al 2.78534 9.92156 1.76482
43 Al 0.324862 13.1042 5.55999
44 Al 1.83888 9.65782 5.54188
45 Ni 2.03763 12.3556 1.92399
46 Ni 0.276878 9.19232 1.87232
47 Ni 2.70269 7.3779 5.5023
48 Ni 4.46524 10.7341 5.54823
49 Al 4.41969 6.49057 9.33026
50 Al 1.90069 7.68219 10.6686
51 Al 1.80426 7.75742 7.78942
52 Al 4.37269 8.50892 11.6398
53 Al 0.706318 10.9832 10.7344
54 Al 2.88956 11.7628 14.4562
55 Al 0.579041 10.988 7.81979
56 Al 3.06435 12.0231 11.5512
57 Al 4.07506 8.52153 14.467
58 Al 2.85216 9.85969 9.21705
59 Al 0.38474 13.0342 13.096
60 Al 2.02779 9.82724 12.7342
61 Ni 2.10687 12.3272 9.22494
62 Ni 0.25322 8.94281 9.28946
63 Ni 2.63007 7.3995 12.9237
64 Ni 4.52489 10.5537 13.0292
65 Al 9.21477 0.0064171 1.81073
66 Al 6.54724 1.15036 3.244
67 Al 6.65072 1.17018 0.483055
68 Al 9.00507 2.03816 4.01206
69 Al 5.33407 4.52466 3.16395
70 Al 7.98174 5.31627 6.98857
71 Al 5.49575 4.52797 0.30939
72 Al 7.86933 5.39656 4.04357
73 Al 9.01615 2.06854 6.88336
74 Al 7.7098 3.56758 1.7804
75 Al 5.20581 6.47538 5.49881
76 Al 6.88286 3.15083 5.59137
77 Ni 6.82381 5.81617 1.80843
78 Ni 5.02561 2.59407 1.83947
79 Ni 7.4259 0.795962 5.55622
80 Ni 9.3963 4.14375 5.52537
81 Al 9.36413 -0.0459112 9.34389
82 Al 6.74427 0.921307 10.6488
83 Al 6.53123 0.96672 7.76337
84 Al 8.96683 2.02457 11.3514
85 Al 5.42375 4.25895 10.6113
86 Al 7.97162 5.44346 14.4338
87 Al 5.3966 4.29943 7.84003
88 Al 7.88231 5.30718 11.6101
89 Al 8.99513 1.86538 14.4601
90 Al 7.77733 3.30297 9.19181
91 Al 5.42926 6.3363 12.9984
92 Al 6.83648 3.1456 12.9609
93 Ni 7.03803 5.65833 9.32532
94 Ni 5.25047 2.33933 9.26532
95 Ni 7.51997 0.655912 12.9224
96 Ni 9.45369 3.99674 13.0221
97 Al 9.28901 6.66024 1.89885
98 Al 6.63458 7.76604 3.24919
99 Al 6.53784 7.90695 0.350996
100 Al 8.94595 8.78371 4.08808
101 Al 5.279 11.1164 3.2493
102 Al 7.80055 11.9998 6.87833
103 Al 5.41506 11.0716 0.2193
104 Al 7.71309 11.9132 4.14149
105 Al 8.93117 8.75636 6.99841
106 Al 7.46405 10.0093 1.85337
107 Al 5.15055 13.2062 5.37712
108 Al 6.61985 9.73903 5.63255
109 Ni 6.83817 12.3465 1.775
110 Ni 5.09666 9.09202 1.88738
111 Ni 7.47295 7.46471 5.48522
112 Ni 9.38761 10.7121 5.63622
113 Al 9.24583 6.62997 9.12172
114 Al 6.74005 7.71141 10.7568
115 Al 6.43992 7.56951 7.76773
116 Al 9.09779 8.69537 11.5432
117 Al 5.60124 10.8843 10.8252
118 Al 7.93812 12.0323 14.3444
119 Al 5.29102 10.9418 8.01389
120 Al 7.94471 11.7885 11.6428
121 Al 8.99228 8.703 14.3837
122 Al 7.54779 9.86036 9.04203
123 Al 5.24777 13.0199 13.077
124 Al 6.82654 9.69205 12.931
125 Ni 6.93499 12.1913 9.21738
126 Ni 5.11201 8.941 9.366
127 Ni 7.65414 7.31589 12.9668
128 Ni 9.42347 10.628 13.0164
ITEM: TIMESTEP
9300
ITEM: NUMBER OF ATOMS
128
ITEM: BOX BOUNDS xy xz yz pp pp pp
-7.8475366963661058e-02 9.7622152370868580e+00 -3.1210964301997744e-02
-6.3996140130750945e-03 1.3250250422497016e+01 8.3945012168925331e-02
-4.8116944013651519e-02 1.4901594703825275e+01 4.3982595191534836e-02
ITEM: ATOMS id element xu yu zu
1 Al 4.33884 -0.0280395 1.80329
2 Al 1.67695 1.20438 3.22953
3 Al 1.51866 1.22246 0.393925
4 Al 4.19607 2.07268 4.09145
5 Al 0.665321 4.39514 3.25827
6 Al 3.19733 5.593 6.99956
7 Al 0.546352 4.4966 0.254928
8 Al 3.09515 5.36599 4.09165
9 Al 4.18748 2.0718 7.12361
10 Al 3.06234 3.55846 1.77915
11 Al 0.36788 6.52509 5.49946
12 Al 2.02223 3.23124 5.64308
13 Ni 1.9987 5.77142 1.76999
14 Ni 0.114373 2.51818 1.83604
15 Ni 2.62042 0.913118 5.53854
16 Ni 4.53028 4.15238 5.57797
17 Al 4.60545 -0.015179 9.15612
18 Al 1.8581 1.18375 10.5904
19 Al 1.79703 1.18309 7.86996
20 Al 4.18121 2.16859 11.556
21 Al 0.795788 4.50237 10.7554
22 Al 3.1845 5.46209 14.5543
23 Al 0.63788 4.58865 7.74248
24 Al 3.15225 5.54089 11.631
25 Al 4.14057 2.09657 14.5472
26 Al 2.95792 3.4918 9.14401
27 Al 0.382414 6.74417 12.8773
28 Al 2.04715 3.34775 13.1237
29 Ni 2.25079 5.68614 9.21604
30 Ni 0.397713 2.56436 9.28669
31 Ni 2.57161 0.989106 12.9853
32 Ni 4.45892 4.18395 13.1275
33 Al 4.33838 6.66311 1.78348
34 Al 1.79309 7.7172 3.31833
35 Al 1.67032 7.63797 0.423548
36 Al 4.16994 8.81124 4.1444
37 Al 0.472454 11.0062 3.14862
38 Al 3.1106 12.2026 7.07477
39 Al 0.565505 11.0898 0.338959
40 Al 3.04956 12.1324 4.10192
41 Al 4.32141 8.71802 7.04532
42 Al 2.74342 9.90546 1.74852
43 Al 0.311592 13.2496 5.43293
44 Al 2.09038 9.91862 5.70779
45 Ni 2.01162 12.3434 1.76499
46 Ni 0.153916 9.00021 1.77468
47 Ni 2.69 7.49598 5.53075
48 Ni 4.61305 10.8005 5.5629
49 Al 4.48476 6.57181 9.23977
50 Al 1.80171 7.70524 10.6363
51 Al 1.81396 7.76787 7.79034
52 Al 4.16421 8.80931 11.4495
53 Al 0.722245 11.1685 10.7244
54 Al 3.05097 12.2687 14.3696
55 Al 0.758482 11.233 7.62453
56 Al 3.10794 12.16 11.6251
57 Al 4.22054 8.85682 14.3804
58 Al 2.85353 9.96783 9.21621
59 Al 0.372776 13.1819 12.9481
60 Al 1.92833 9.9425 13.2712
61 Ni 2.22935 12.41 9.34041
62 Ni 0.419326 9.03933 9.21154
63 Ni 2.70293 7.4511 12.9294
64 Ni 4.52728 10.8038 12.9951
65 Al 9.23271 0.150663 1.85151
66 Al 6.53185 1.11825 3.37004
67 Al 6.61345 1.09059 0.253568
68 Al 8.9371 2.26359 4.09227
69 Al 5.57733 4.38622 3.2684
70 Al 7.9132 5.39903 7.01299
71 Al 5.49425 4.44621 0.330255
72 Al 7.92578 5.51701 4.00744
73 Al 9.15921 2.25327 7.00805
74 Al 7.54736 3.23042 1.84517
75 Al 5.19065 6.53187 5.50494
76 Al 6.8327 3.18382 5.54782
77 Ni 6.92114 5.69063 1.77924
78 Ni 5.09426 2.42578 1.84139
79 Ni 7.61295 0.865567 5.59136
80 Ni 9.28928 4.14549 5.56727
81 Al 9.38225 0.219335 9.1637
82 Al 6.77899 1.26474 10.8335
83 Al 6.59038 1.21033 7.74165
84 Al 9.20141 2.20201 11.4666
85 Al 5.59822 4.33285 10.8812
86 Al 7.89687 5.44794 14.4186
87 Al 5.48079 4.36013 7.8639
88 Al 7.90557 5.52528 11.4614
89 Al 9.11545 2.28002 14.4755
90 Al 7.686 3.25328 9.38672
91 Al 5.30393 6.69469 12.8504
92 Al 6.8882 3.40042 13.0471
93 Ni 6.95471 5.72969 9.22428
94 Ni 5.11055 2.34799 9.32844
95 Ni 7.69749 0.933332 13.078
96 Ni 9.47971 4.37783 13.0151
97 Al 9.28425 6.61466 1.80606
98 Al 6.59658 7.80433 3.29991
99 Al 6.54404 7.71296 0.414015
100 Al 9.05981 8.72471 4.08913
101 Al 5.54068 11.0578 3.2575
102 Al 8.09783 12.1729 7.00314
103 Al 5.39851 11.1261 0.325449
104 Al 7.88374 12.0523 4.023
105 Al 9.13974 8.83857 7.0002
106 Al 7.61936 10.0253 1.86614
107 Al 5.43581 13.1258 5.63859
108 Al 6.94905 9.93882 5.50486
109 Ni 6.91328 12.482 1.84868
110 Ni 4.96765 9.0072 1.79599
111 Ni 7.51652 7.44801 5.59764
112 Ni 9.36481 10.713 5.41792
113 Al 9.25642 6.57536 9.28078
114 Al 6.58468 7.8382 10.7464
115 Al 6.77691 7.90156 7.82253
116 Al 8.99409 8.93473 11.5104
117 Al 5.4814 10.9968 10.6019
118 Al 8.03851 12.0041 14.5422
119 Al 5.70747 11.0449 7.7076
120 Al 7.87096 12.1219 11.6484
121 Al 9.04463 8.92786 14.3051
122 Al 7.78105 10.0746 9.45927
123 Al 5.4727 13.1312 12.9857
124 Al 6.81036 10.0273 12.9661
125 Ni 7.03688 12.3573 9.30819
126 Ni 5.19888 9.07789 9.13808
127 Ni 7.59904 7.501 12.9849
128 Ni 9.40856 10.8528 13.0167
ITEM: TIMESTEP
9400
ITEM: NUMBER OF ATOMS
128
ITEM: BOX BOUNDS xy xz yz pp pp pp
-2.8839974764897271e-02 9.6526753343134803e+00 4.6070536245617650e-03
1.5448072399839141e-02 1.3378843098103239e+01 -1.1777516332250628e-02
-2.7763449307411925e-02 1.4881241209119029e+01 1.9442295721068767e-01
ITEM: ATOMS id element xu yu zu
1 Al 4.42728 0.122766 1.72934
2 Al 1.79872 1.16601 3.31884
3 Al 1.77702 1.15364 0.355075
4 Al 4.205 2.27688 4.0283
5 Al 0.678662 4.46279 3.25384
6 Al 3.14364 5.51051 7.09702
7 Al 0.658806 4.52904 0.367648
8 Al 3.11245 5.61125 4.18803
9 Al 4.27647 2.24482 7.02647
10 Al 2.73413 3.24813 1.84581
11 Al 0.332899 6.72993 5.55264
12 Al 2.08027 3.28633 5.47247
13 Ni 2.15471 5.76271 1.81086
14 Ni 0.306197 2.35111 1.81951
15 Ni 2.73394 0.893697 5.51629
16 Ni 4.51516 4.23356 5.60328
17 Al 4.31958 0.294916 9.35818
18 Al 1.56257 1.18318 10.8755
19 Al 1.64239 1.14288 7.85345
20 Al 4.06874 2.37919 11.4442
21 Al 0.481718 4.70703 10.6115
22 Al 2.91365 5.67906 14.3199
23 Al 0.618944 4.63538 7.91059
24 Al 2.97048 5.67042 11.5627
25 Al 4.06751 2.46772 14.3392
26 Al 2.69805 3.28001 9.25254
27 Al 0.436096 6.61517 13.0378
28 Al 1.95438 3.4642 12.9863
29 Ni 2.14065 5.91043 9.25397
30 Ni 0.18382 2.55876 9.33875
31 Ni 2.64227 1.08916 13.0144
32 Ni 4.59103 4.32877 12.89
33 Al 4.36877 6.61969 1.78656
34 Al 1.78481 7.8088 3.22346
35 Al 1.66958 7.83506 0.338354
36 Al 4.15968 8.64609 3.99355
37 Al 0.783041 11.0848 3.22943
38 Al 3.04493 12.1341 6.99479
39 Al 0.656318 11.0502 0.227372
40 Al 3.17941 12.1512 4.06667
41 Al 4.15299 8.91749 6.98786
42 Al 2.8963 10.0772 1.75322
43 Al 0.447095 13.2169 5.60684
44 Al 2.13306 9.87812 5.41061
45 Ni 2.23831 12.428 1.79002
46 Ni 0.297546 9.04406 1.82606
47 Ni 2.65264 7.57289 5.52791
48 Ni 4.58693 10.7627 5.42116
49 Al 4.26418 6.89029 9.14759
50 Al 1.66744 7.92929 10.806
51 Al 1.71493 7.83147 7.78399
52 Al 4.23252 9.03281 11.5347
53 Al 0.662685 11.1421 10.7028
54 Al 3.1367 12.2697 14.4777
55 Al 0.585393 11.1016 7.82739
56 Al 3.0053 12.2021 11.487
57 Al 4.10891 9.06756 14.4449
58 Al 2.77101 9.99602 9.29099
59 Al 0.325419 13.3944 13.0427
60 Al 1.97921 10.2027 12.8547
61 Ni 2.11036 12.3652 9.20709
62 Ni 0.185301 9.21193 9.29474
63 Ni 2.75129 7.71332 13.0062
64 Ni 4.53071 11.0258 12.9824
65 Al 9.34234 -0.0819592 1.73467
66 Al 6.71636 1.13187 3.23731
67 Al 6.69651 1.13048 0.213161
68 Al 9.0751 2.25866 4.18485
69 Al 5.56449 4.41029 3.27942
70 Al 8.0111 5.67415 7.0193
71 Al 5.37109 4.4563 0.399167
72 Al 7.80389 5.50838 4.15179
73 Al 9.10777 2.33904 6.94536
74 Al 7.66795 3.35742 1.87926
75 Al 5.2715 6.56457 5.67114
76 Al 6.91596 3.35997 5.51138
77 Ni 6.91967 5.72792 1.86686
78 Ni 5.14483 2.42361 1.85627
79 Ni 7.55313 0.978077 5.54381
80 Ni 9.48339 4.28628 5.58919
81 Al 9.26084 0.151021 9.38752
82 Al 6.54958 1.36897 10.747
83 Al 6.65408 1.3765 7.89522
84 Al 8.88586 2.38379 11.5459
85 Al 5.53036 4.64938 10.6766
86 Al 7.89598 5.62857 14.5514
87 Al 5.58782 4.68017 7.81336
88 Al 7.75115 5.70523 11.6276
89 Al 8.97287 2.44746 14.4713
90 Al 7.72085 3.68921 9.24087
91 Al 5.14972 6.63987 13.1187
92 Al 6.81122 3.40278 12.949
93 Ni 6.99316 5.99065 9.34153
94 Ni 4.99146 2.63856 9.17325
95 Ni 7.37686 1.04268 12.8845
96 Ni 9.18947 4.36979 13.0545
97 Al 9.19416 6.76823 1.83437
98 Al 6.53537 7.69611 3.3696
99 Al 6.43458 7.53815 0.414773
100 Al 8.91664 9.05591 4.02966
101 Al 5.65185 11.0008 3.24357
102 Al 7.80976 12.0392 6.99196
103 Al 5.52839 10.9865 0.425166
104 Al 8.05018 12.029 4.01752
105 Al 9.04007 8.80921 6.89283
106 Al 7.72521 9.82679 1.77353
107 Al 5.33288 13.3097 5.45698
108 Al 6.83425 9.94306 5.48039
109 Ni 7.07349 12.1634 1.85128
110 Ni 5.14653 8.99411 1.80611
111 Ni 7.61866 7.53582 5.50243
112 Ni 9.53487 10.945 5.65425
113 Al 9.1538 6.87508 9.35883
114 Al 6.48117 7.89177 10.7713
115 Al 6.50035 7.92233 7.73645
116 Al 8.98371 8.82546 11.7425
117 Al 5.62822 11.2554 10.746
118 Al 7.81006 12.1357 14.3593
119 Al 5.36125 11.2047 7.78679
120 Al 7.97691 12.2487 11.5026
121 Al 8.80129 8.86934 14.4323
122 Al 7.52715 10.0792 9.12795
123 Al 5.07828 13.3546 12.9906
124 Al 6.81301 10.163 13.0409
125 Ni 6.95549 12.4427 9.28778
126 Ni 5.04322 9.19195 9.35101
127 Ni 7.26226 7.63336 12.9967
128 Ni 9.353 10.8698 12.9986
ITEM: TIMESTEP
9500
ITEM: NUMBER OF ATOMS
128
ITEM: BOX BOUNDS xy xz yz pp pp pp
-1.5011460547353522e-01 9.7323627803136947e+00 5.7334793883599272e-02
-6.3895778754969434e-02 1.3308535551304185e+01 -1.0609244129973712e-01
-3.3140183327633466e-02 1.4886617943139260e+01 4.4771559256832023e-02
ITEM: ATOMS id element xu yu zu
1 Al 4.38352 -0.0250027 1.86526
2 Al 1.84356 1.02782 3.18639
3 Al 1.92645 1.11924 0.367001
4 Al 4.16523 2.15523 4.05921
5 Al 0.652146 4.29066 3.30721
6 Al 2.91564 5.50699 6.96609
7 Al 0.680392 4.3079 0.317475
8 Al 3.07338 5.51703 4.13467
9 Al 4.17891 2.34329 6.98797
10 Al 2.82872 3.26144 1.9344
11 Al 0.367473 6.51887 5.70635
12 Al 1.93537 3.32242 5.47348
13 Ni 2.07846 5.75143 1.82919
14 Ni 0.337013 2.4701 1.77874
15 Ni 2.63424 0.873082 5.48314
16 Ni 4.56416 4.22472 5.42882
17 Al 4.24162 0.0399903 9.02792
18 Al 1.67219 1.21535 10.7263
19 Al 1.74373 1.27334 7.76681
20 Al 4.26289 2.28269 11.6236
21 Al 0.515183 4.28684 10.67
22 Al 2.93932 5.48859 14.5083
23 Al 0.575448 4.32081 7.865
24 Al 2.84299 5.48292 11.5693
25 Al 4.08384 2.15031 14.363
26 Al 2.92136 3.47016 9.41064
27 Al 0.194533 6.57764 13.0476
28 Al 2.02848 3.12235 12.9767
29 Ni 1.87754 5.88958 9.33933
30 Ni 0.189498 2.44252 9.16292
31 Ni 2.66002 0.808775 12.931
32 Ni 4.36826 4.22799 13.0485
33 Al 4.59041 6.65621 1.94113
34 Al 1.82705 7.72232 3.27353
35 Al 1.73975 7.73884 0.37408
36 Al 4.16293 8.93424 4.1618
37 Al 0.579939 11.1301 3.3918
38 Al 2.91745 12.1359 7.06879
39 Al 0.677085 11.067 0.409307
40 Al 3.10573 12.1128 4.14333
41 Al 4.06074 8.83078 7.03398
42 Al 2.75402 9.83666 1.92645
43 Al 0.48433 13.1729 5.5672
44 Al 1.85707 9.81619 5.60918
45 Ni 2.23109 12.3017 1.77481
46 Ni 0.261496 9.03239 1.86305
47 Ni 2.73387 7.51208 5.51417
48 Ni 4.51719 10.8352 5.70236
49 Al 4.32274 6.70579 9.32644
50 Al 1.64874 7.82154 10.7993
51 Al 1.63238 7.77871 7.81064
52 Al 4.01698 8.92793 11.4365
53 Al 0.593216 11.2168 10.7055
54 Al 3.019 12.0507 14.414
55 Al 0.553654 11.0666 7.86982
56 Al 2.92538 12.2394 11.5762
57 Al 4.08847 8.68916 14.5109
58 Al 2.80059 10.2104 9.31973
59 Al 0.574252 13.1277 12.8815
60 Al 1.84151 9.80396 13.0006
61 Ni 2.0509 12.537 9.30792
62 Ni 0.23396 9.163 9.29745
63 Ni 2.56467 7.37737 13.0805
64 Ni 4.53538 10.7863 12.9889
65 Al 9.17136 0.123646 1.88793
66 Al 6.52299 1.25073 3.26381
67 Al 6.56978 1.19594 0.265631
68 Al 8.94652 2.14456 4.0936
69 Al 5.5586 4.53655 3.21097
70 Al 7.78725 5.39613 6.87934
71 Al 5.65031 4.42312 0.293617
72 Al 7.80824 5.49586 4.14441
73 Al 8.77555 2.14833 7.00075
74 Al 7.67771 3.42051 1.63266
75 Al 5.22446 6.63461 5.40897
76 Al 6.80676 3.26539 5.5718
77 Ni 7.118 5.79459 1.78506
78 Ni 5.13394 2.52591 1.85621
79 Ni 7.49886 0.855253 5.43563
80 Ni 9.35364 4.11646 5.4597
81 Al 9.21409 0.105701 9.09194
82 Al 6.50552 1.03813 10.74
83 Al 6.34144 1.10068 7.71195
84 Al 8.94827 2.07445 11.5504
85 Al 5.42132 4.59175 10.7758
86 Al 7.94669 5.58948 14.4437
87 Al 5.29382 4.58912 7.82791
88 Al 7.86485 5.44411 11.483
89 Al 8.9547 2.10794 14.5222
90 Al 7.5449 3.36966 9.20661
91 Al 5.22602 6.59413 12.9702
92 Al 6.72517 3.18823 12.986
93 Ni 6.85268 5.62927 9.27598
94 Ni 5.08208 2.52381 9.32118
95 Ni 7.47027 0.864791 13.0427
96 Ni 9.40808 4.05965 13.0472
97 Al 9.40918 6.61891 1.68328
98 Al 6.72479 7.74485 3.20388
99 Al 6.79839 7.89552 0.35221
100 Al 9.07995 8.59958 4.0597
101 Al 5.49825 11.1305 3.24225
102 Al 7.97079 12.043 7.01079
103 Al 5.62855 11.1164 0.230249
104 Al 7.80737 12.1759 3.99996
105 Al 8.93637 8.84714 7.02445
106 Al 7.77076 10.1609 1.79244
107 Al 5.27095 13.183 5.66659
108 Al 6.7184 9.87546 5.67702
109 Ni 6.93009 12.4389 1.80563
110 Ni 5.24029 9.16149 1.91442
111 Ni 7.51241 7.54393 5.54962
112 Ni 9.28377 10.7906 5.47835
113 Al 9.22504 6.42247 9.17359
114 Al 6.48223 7.82375 10.741
115 Al 6.52032 7.67008 7.89932
116 Al 8.96882 8.77567 11.491
117 Al 5.38674 11.2056 10.617
118 Al 8.00043 12.294 14.438
119 Al 5.46511 11.0503 7.812
120 Al 7.69888 12.1042 11.5675
121 Al 9.03564 8.84897 14.4526
122 Al 7.62014 10.2026 9.33065
123 Al 5.18118 13.1907 13.0587
124 Al 6.83184 9.84295 12.9804
125 Ni 6.84337 12.4915 9.16939
126 Ni 5.05154 9.10771 9.25669
127 Ni 7.65332 7.51815 12.9929
128 Ni 9.30151 10.7932 13.0017
ITEM: TIMESTEP
9600
ITEM: NUMBER OF ATOMS
128
ITEM: BOX BOUNDS xy xz yz pp pp pp
-3.1300945221789389e-03 9.6334880108338048e+00 2.1376737543860436e-02
-2.3197965494393111e-01 1.3230669122113671e+01 -2.2024643488544160e-02
1.6041760849970998e-02 1.4837435998961658e+01 -2.0117874612264428e-01
ITEM: ATOMS id element xu yu zu
1 Al 4.32364 0.0694389 1.79504
2 Al 1.80671 1.13367 3.3187
3 Al 1.61374 0.97846 0.400844
4 Al 4.10614 2.10715 4.03237
5 Al 0.656665 4.32938 3.24894
6 Al 3.05741 5.45323 6.90673
7 Al 0.553668 4.40543 0.409417
8 Al 3.06396 5.35289 4.13595
9 Al 4.15028 1.90578 7.02632
10 Al 2.8067 3.28733 1.75651
11 Al 0.422921 6.45225 5.52
12 Al 1.87416 3.2711 5.47429
13 Ni 2.17817 5.78767 1.77145
14 Ni 0.311739 2.32266 1.81481
15 Ni 2.61276 0.806228 5.56218
16 Ni 4.52484 4.02835 5.62042
17 Al 4.50647 -0.258928 9.48682
18 Al 1.80651 0.924265 10.6483
19 Al 1.72562 0.900774 7.91867
20 Al 4.18624 2.09024 11.5069
21 Al 0.722435 4.34737 10.6382
22 Al 3.12206 5.40536 14.3481
23 Al 0.642807 4.32542 7.93273
24 Al 3.32071 5.34359 11.5115
25 Al 4.12236 1.9304 14.3672
26 Al 2.87742 3.09765 9.11657
27 Al 0.483862 6.4046 12.8954
28 Al 2.1204 3.09678 13.0557
29 Ni 2.28116 5.46476 9.1849
30 Ni 0.241968 2.29796 9.30264
31 Ni 2.69152 0.621558 13.0661
32 Ni 4.67239 3.93564 12.9957
33 Al 4.34876 6.8525 1.82762
34 Al 1.77605 7.79695 3.30011
35 Al 1.85341 7.75479 0.410636
36 Al 4.06146 8.68085 4.09503
37 Al 0.644559 10.8552 3.34089
38 Al 3.21321 12.1581 6.99908
39 Al 0.735939 11.0228 0.397237
40 Al 2.91503 12.0088 4.06601
41 Al 4.20143 8.75429 6.84003
42 Al 2.88267 10.0568 1.70213
43 Al 0.410928 13.1402 5.54201
44 Al 2.04479 9.91981 5.5523
45 Ni 2.10688 12.4079 1.87741
46 Ni 0.310909 9.08172 1.75146
47 Ni 2.57146 7.37817 5.60412
48 Ni 4.5514 10.7398 5.44989
49 Al 4.59191 6.45715 9.37307
50 Al 1.87569 7.4472 10.6139
51 Al 1.85413 7.55508 7.81604
52 Al 4.33838 8.47545 11.4733
53 Al 0.784526 10.8564 10.6654
54 Al 3.11812 11.9654 14.3854
55 Al 0.668662 11.0841 7.82819
56 Al 3.03422 11.9867 11.495
57 Al 4.17889 8.6324 14.3082
58 Al 2.81808 9.83448 9.21463
59 Al 0.450996 13.0826 12.9419
60 Al 2.05747 9.78151 12.9787
61 Ni 2.17092 12.2326 9.2119
62 Ni 0.346333 8.94829 9.22408
63 Ni 2.69216 7.44387 12.9015
64 Ni 4.54382 10.663 12.994
65 Al 9.15434 -0.112342 1.83679
66 Al 6.43193 1.12691 3.36996
67 Al 6.72813 1.30646 0.430123
68 Al 8.8967 2.10031 4.21252
69 Al 5.45439 4.51578 3.34416
70 Al 7.84702 5.38747 7.0688
71 Al 5.55638 4.34039 0.549926
72 Al 7.85319 5.51089 4.08622
73 Al 9.02115 2.03912 6.95735
74 Al 7.64388 3.33431 1.97835
75 Al 5.13023 6.46436 5.61078
76 Al 6.8223 3.21244 5.49266
77 Ni 6.89451 5.69726 1.90413
78 Ni 5.03784 2.35632 1.78905
79 Ni 7.36582 0.788042 5.61553
80 Ni 9.22165 4.10278 5.50729
81 Al 9.27324 -0.110348 9.33223
82 Al 6.58865 1.00261 10.721
83 Al 6.67271 1.05333 7.88676
84 Al 9.04826 2.0254 11.5448
85 Al 5.49896 4.21148 10.5236
86 Al 7.8655 5.31481 14.387
87 Al 5.61493 4.16668 7.81841
88 Al 7.95442 5.37296 11.4048
89 Al 9.02839 2.05464 14.3608
90 Al 7.63598 3.37771 9.39983
91 Al 5.25899 6.33282 12.9895
92 Al 6.81005 2.97573 13.0386
93 Ni 6.99042 5.68342 9.25307
94 Ni 5.11316 2.30046 9.26275
95 Ni 7.52572 0.661535 13.005
96 Ni 9.43794 4.01927 12.8516
97 Al 9.11583 6.80419 1.82927
98 Al 6.49173 7.64728 3.26689
99 Al 6.63343 7.73715 0.349042
100 Al 9.00157 8.64444 4.22113
101 Al 5.35105 11.1083 3.21776
102 Al 7.78143 11.9445 7.09252
103 Al 5.41261 11.178 0.449105
104 Al 7.8314 12.0823 4.05124
105 Al 8.88596 8.76174 7.0477
106 Al 7.46409 9.91172 2.04069
107 Al 5.05976 13.118 5.36323
108 Al 6.77959 9.83897 5.41842
109 Ni 6.89302 12.4006 1.91373
110 Ni 5.01726 9.00001 1.75717
111 Ni 7.47022 7.32388 5.59939
112 Ni 9.30639 10.7559 5.63914
113 Al 9.23327 6.69588 9.28881
114 Al 6.63325 7.51433 10.6817
115 Al 6.57787 7.61631 7.82838
116 Al 8.96084 8.66654 11.5143
117 Al 5.589 10.6888 10.7627
118 Al 7.73975 11.7521 14.4089
119 Al 5.40202 10.976 7.84296
120 Al 7.89429 12.0149 11.5397
121 Al 9.01823 8.52471 14.3853
122 Al 7.49781 9.73193 9.29232
123 Al 5.22966 13.0288 12.9249
124 Al 6.86151 9.6616 12.9085
125 Ni 6.99258 12.1231 9.32562
126 Ni 5.07521 8.9203 9.28674
127 Ni 7.51934 7.25296 13.0125
128 Ni 9.38079 10.7744 12.9671
ITEM: TIMESTEP
9700
ITEM: NUMBER OF ATOMS
128
ITEM: BOX BOUNDS xy xz yz pp pp pp
-9.7218179609309563e-02 9.7816589241867060e+00 -5.8134966561156458e-02
-2.0201219804927673e-01 1.3250056807623508e+01 1.1156988888223909e-01
-8.9785068164312420e-02 1.4943262827975939e+01 -1.5182360371815162e-01
ITEM: ATOMS id element xu yu zu
1 Al 4.36969 -0.0568622 1.89657
2 Al 1.71133 1.00218 3.24511
3 Al 1.68185 1.31594 0.30592
4 Al 4.18843 1.88979 3.98154
5 Al 0.538573 4.45373 3.28845
6 Al 3.20843 5.43802 6.96856
7 Al 0.536569 4.39443 0.318644
8 Al 3.05375 5.38615 4.11126
9 Al 4.25986 2.0502 6.93603
10 Al 2.7447 3.43679 1.79561
11 Al 0.373554 6.67362 5.35103
12 Al 2.0428 3.02976 5.66808
13 Ni 2.0337 5.7242 1.81554
14 Ni 0.109358 2.55794 1.74068
15 Ni 2.75062 0.675427 5.53234
16 Ni 4.54279 4.12389 5.51023
17 Al 4.32005 0.0100808 9.22821
18 Al 1.75443 0.806614 10.6982
19 Al 1.78978 0.95185 7.841
20 Al 4.28944 1.96433 11.5068
21 Al 0.529286 4.30219 10.7967
22 Al 3.12065 5.36175 14.5564
23 Al 0.871669 4.34435 7.82492
24 Al 3.14737 5.41892 11.5312
25 Al 4.26847 2.12073 14.5029
26 Al 2.95033 3.28711 9.3503
27 Al 0.417536 6.47981 13.1356
28 Al 2.03278 3.11671 13.0018
29 Ni 2.09481 5.72038 9.34081
30 Ni 0.415652 2.27515 9.33503
31 Ni 2.73102 0.774645 13.0313
32 Ni 4.51449 4.0369 12.9408
33 Al 4.38466 6.49915 1.71317
34 Al 1.65886 7.76194 3.23724
35 Al 1.64342 7.79371 0.280727
36 Al 4.11022 8.79062 4.02184
37 Al 0.564959 11.1808 3.1774
38 Al 3.01473 11.9472 6.97817
39 Al 0.573159 11.0936 0.336858
40 Al 3.10197 12.0844 4.02955
41 Al 4.16034 8.61031 7.01344
42 Al 2.75026 9.93679 1.84701
43 Al 0.341044 13.2458 5.48631
44 Al 1.98186 9.7941 5.39385
45 Ni 2.0395 12.4417 1.7778
46 Ni 0.182377 9.05748 1.75894
47 Ni 2.74636 7.40831 5.46835
48 Ni 4.44712 10.7104 5.61794
49 Al 4.48233 6.68961 9.15907
50 Al 1.90351 7.61852 10.7844
51 Al 1.72784 7.50309 7.68339
52 Al 4.30713 8.8346 11.5205
53 Al 0.629434 11.0069 10.7416
54 Al 3.15242 12.0473 14.4711
55 Al 0.670224 10.9578 7.88264
56 Al 3.11351 12.0836 11.6001
57 Al 4.11872 8.65864 14.5927
58 Al 2.78264 9.78161 9.32659
59 Al 0.351382 13.1287 13.0758
60 Al 2.04456 9.66192 13.1157
61 Ni 2.17925 12.3006 9.32791
62 Ni 0.335816 8.88281 9.2554
63 Ni 2.81762 7.28075 13.064
64 Ni 4.55099 10.7051 13.1067
65 Al 9.24407 0.119931 1.72431
66 Al 6.73358 0.941409 3.19587
67 Al 6.37583 0.912678 0.347559
68 Al 9.09187 2.23916 4.13913
69 Al 5.44223 4.31744 3.29365
70 Al 8.02569 5.46789 7.01093
71 Al 5.40162 4.42922 0.219856
72 Al 7.86554 5.37577 4.03651
73 Al 9.08996 2.11365 7.03634
74 Al 7.49395 3.25504 1.69977
75 Al 5.18692 6.47101 5.48691
76 Al 6.74921 3.07693 5.53017
77 Ni 6.82653 5.70469 1.7213
78 Ni 5.07347 2.40764 1.78353
79 Ni 7.72095 0.76886 5.51015
80 Ni 9.64181 4.06767 5.58145
81 Al 9.33413 -0.114999 9.35551
82 Al 6.70473 0.963045 10.6829
83 Al 6.67511 0.909868 7.7846
84 Al 9.1805 2.07711 11.631
85 Al 5.52188 4.2532 10.6723
86 Al 7.91258 5.36824 14.5251
87 Al 5.56768 4.22359 7.96662
88 Al 7.98973 5.53194 11.5019
89 Al 8.88334 2.03634 14.6332
90 Al 7.62129 3.14477 9.24256
91 Al 5.19642 6.59348 12.9897
92 Al 6.92349 3.20376 12.9838
93 Ni 6.9917 5.65229 9.28077
94 Ni 5.18637 2.25618 9.30942
95 Ni 7.67602 0.728732 13.0315
96 Ni 9.41431 4.07341 13.1674
97 Al 9.21049 6.58626 1.86202
98 Al 6.52003 7.72469 3.13976
99 Al 6.51303 7.68434 0.269304
100 Al 8.90104 9.05382 4.02473
101 Al 5.51421 11.071 3.38295
102 Al 8.04282 12.0562 6.9848
103 Al 5.45136 11.0063 0.385924
104 Al 7.87689 11.9393 4.09735
105 Al 9.18787 8.68479 6.86335
106 Al 7.61256 10.0955 1.61343
107 Al 5.20807 13.0611 5.60804
108 Al 6.76935 9.86607 5.49878
109 Ni 7.02004 12.2852 1.76349
110 Ni 5.03741 9.04601 1.85091
111 Ni 7.57828 7.49683 5.37159
112 Ni 9.51636 10.7321 5.43528
113 Al 9.3631 6.52265 9.40065
114 Al 6.64061 7.67309 10.6371
115 Al 6.81985 7.71344 7.73027
116 Al 9.0396 8.64686 11.5477
117 Al 5.44928 10.9563 10.5901
118 Al 8.03736 12.0534 14.4836
119 Al 5.62778 10.8899 7.77762
120 Al 7.8922 11.9171 11.5739
121 Al 8.93501 8.54418 14.6535
122 Al 7.88192 9.96759 9.22478
123 Al 5.23786 13.0627 13.0692
124 Al 6.90386 9.87977 13.1179
125 Ni 6.974 12.3272 9.27511
126 Ni 5.229 8.98686 9.30847
127 Ni 7.58205 7.42296 13.0271
128 Ni 9.46668 10.5111 13.0267
ITEM: TIMESTEP
9800
ITEM: NUMBER OF ATOMS
128
ITEM: BOX BOUNDS xy xz yz pp pp pp
-8.6335259960037242e-02 9.7315782263962092e+00 -5.4665000150128464e-02
5.5986568908689804e-02 1.3245312040497861e+01 6.8902144329990103e-02
-4.1772405807218860e-03 1.4857655000392356e+01 1.0143039611416800e-01
ITEM: ATOMS id element xu yu zu
1 Al 4.45806 0.112863 1.80104
2 Al 1.83866 1.16263 3.36941
3 Al 1.7195 1.14568 0.435111
4 Al 4.23925 2.27043 4.18711
5 Al 0.638312 4.4463 3.2645
6 Al 2.99442 5.43835 6.9714
7 Al 0.589383 4.47447 0.415483
8 Al 3.13543 5.68668 4.18952
9 Al 4.13858 2.39056 7.07339
10 Al 2.82968 3.39774 1.88503
11 Al 0.477194 6.62086 5.7915
12 Al 1.9739 3.40403 5.51539
13 Ni 2.17076 5.67086 1.84253
14 Ni 0.274744 2.44286 1.84633
15 Ni 2.80159 1.01182 5.56982
16 Ni 4.53716 4.24027 5.4885
17 Al 4.40077 0.143128 9.23381
18 Al 1.77758 1.37134 10.6606
19 Al 1.78955 1.30059 7.80264
20 Al 4.19824 2.49101 11.52
21 Al 0.651466 4.43575 10.6972
22 Al 3.0294 5.52275 14.4444
23 Al 0.679973 4.51823 7.70883
24 Al 2.98506 5.67166 11.6463
25 Al 4.22472 2.28171 14.5788
26 Al 2.83271 3.49122 9.25868
27 Al 0.392413 6.44738 12.8377
28 Al 1.9227 3.2542 13.0015
29 Ni 2.11101 5.87256 9.25572
30 Ni 0.252931 2.54843 9.17839
31 Ni 2.70665 1.00289 12.9572
32 Ni 4.51469 4.28807 13.1034
33 Al 4.47097 6.68845 1.93527
34 Al 1.85216 7.74258 3.20834
35 Al 1.73648 7.75321 0.375537
36 Al 4.2782 8.78842 4.10004
37 Al 0.622633 10.9105 3.38524
38 Al 3.0707 12.1059 6.91378
39 Al 0.550791 11.0952 0.438329
40 Al 3.15387 12.1488 4.11229
41 Al 4.1645 8.75773 6.95816
42 Al 2.81613 9.93786 1.82358
43 Al 0.478894 13.1152 5.60968
44 Al 1.94545 9.81696 5.71963
45 Ni 2.06617 12.2922 1.87009
46 Ni 0.310319 8.99495 1.81842
47 Ni 2.68032 7.52745 5.58542
48 Ni 4.68095 10.7835 5.41454
49 Al 4.30966 6.78234 9.38335
50 Al 1.65318 7.81908 10.6245
51 Al 1.75072 7.95249 7.87738
52 Al 4.03247 8.84445 11.4556
53 Al 0.57575 10.9944 10.7025
54 Al 3.09842 12.0559 14.3222
55 Al 0.670599 10.9928 7.78982
56 Al 2.98367 12.203 11.4243
57 Al 4.11882 8.89729 14.3466
58 Al 2.9459 10.0726 9.25515
59 Al 0.347742 13.2036 13.0117
60 Al 1.97386 10.0095 12.9641
61 Ni 2.07422 12.4049 9.36716
62 Ni 0.127421 9.17662 9.29613
63 Ni 2.49991 7.55336 13.0579
64 Ni 4.53138 10.8049 12.9162
65 Al 9.34474 -0.0559045 1.89923
66 Al 6.57256 1.28084 3.26937
67 Al 6.69796 1.31223 0.382517
68 Al 9.0218 2.07895 4.02944
69 Al 5.41593 4.41895 3.20187
70 Al 7.95575 5.57027 6.95078
71 Al 5.42797 4.45728 0.429274
72 Al 7.92314 5.4065 4.0425
73 Al 9.12708 2.16345 6.93456
74 Al 7.80965 3.3939 1.77774
75 Al 5.24021 6.41911 5.58257
76 Al 6.91304 3.36496 5.60974
77 Ni 7.07194 5.78747 1.83649
78 Ni 5.23452 2.49545 1.82434
79 Ni 7.47048 0.969885 5.53178
80 Ni 9.37377 4.12275 5.46085
81 Al 9.39829 0.113884 9.14016
82 Al 6.5025 1.31243 10.5985
83 Al 6.66299 1.33428 7.90122
84 Al 8.9293 2.11341 11.4038
85 Al 5.45666 4.54906 10.7991
86 Al 8.00908 5.56985 14.4625
87 Al 5.45932 4.65343 7.85794
88 Al 7.77828 5.55177 11.5474
89 Al 9.21968 2.31806 14.3319
90 Al 7.64536 3.59547 9.33644
91 Al 5.29847 6.53607 13.0715
92 Al 6.83404 3.26744 12.9864
93 Ni 6.98896 5.78737 9.25764
94 Ni 5.16515 2.69308 9.26477
95 Ni 7.50834 0.966202 12.9765
96 Ni 9.31781 4.15161 12.8641
97 Al 9.31133 6.65823 1.81338
98 Al 6.57815 7.69345 3.34984
99 Al 6.61239 7.66669 0.377798
100 Al 9.20494 8.65351 4.26617
101 Al 5.5281 11.004 3.31524
102 Al 7.85952 12.0759 6.91299
103 Al 5.48678 11.0372 0.304359
104 Al 7.93621 12.172 4.07319
105 Al 8.96255 8.81941 7.13758
106 Al 7.68589 10.0023 1.77974
107 Al 5.267 13.0986 5.50027
108 Al 6.92791 9.84532 5.56699
109 Ni 6.83056 12.4311 1.80347
110 Ni 5.09647 9.19383 1.7288
111 Ni 7.63721 7.46316 5.71879
112 Ni 9.36337 10.7542 5.50196
113 Al 9.22852 6.78229 9.09848
114 Al 6.47348 7.77836 10.7198
115 Al 6.3896 7.58634 7.8137
116 Al 8.90579 8.83204 11.565
117 Al 5.55838 11.1972 10.7701
118 Al 7.90659 12.1742 14.5156
119 Al 5.45738 11.0712 7.8166
120 Al 8.03053 12.22 11.3637
121 Al 9.07961 8.92307 14.2813
122 Al 7.5286 9.94034 9.35625
123 Al 5.05535 13.1835 12.9584
124 Al 6.70982 9.8785 12.9402
125 Ni 7.03751 12.4145 9.23898
126 Ni 5.08786 9.11033 9.30231
127 Ni 7.4863 7.5052 12.978
128 Ni 9.28294 10.8859 12.9402
ITEM: TIMESTEP
9900
ITEM: NUMBER OF ATOMS
128
ITEM: BOX BOUNDS xy xz yz pp pp pp
-1.6000793489388462e-01 9.7136650851204340e+00 2.4162207740177199e-02
-4.8850529934358455e-02 1.3436962465822848e+01 -1.0151087976993298e-01
-2.2386369349928437e-02 1.4875864129161558e+01 1.8824372259610267e-01
ITEM: ATOMS id element xu yu zu
1 Al 4.38646 0.0479963 1.81009
2 Al 1.7306 0.968869 3.2742
3 Al 1.68435 0.952462 0.290834
4 Al 4.02314 2.43323 4.13979
5 Al 0.693351 4.29454 3.19216
6 Al 3.01766 5.75673 7.03615
7 Al 0.746732 4.46059 0.399994
8 Al 3.07997 5.41004 4.03205
9 Al 4.08937 2.28675 6.92174
10 Al 2.77313 3.3544 1.61888
11 Al 0.330757 6.62957 5.541
12 Al 1.91435 3.34011 5.55057
13 Ni 2.09254 5.86875 1.73827
14 Ni 0.325502 2.37265 1.79209
15 Ni 2.62379 0.779824 5.47194
16 Ni 4.48895 4.3306 5.62431
17 Al 4.35287 0.00886817 9.23568
18 Al 1.60327 1.15823 10.7506
19 Al 1.6198 1.34765 7.73259
20 Al 4.04861 2.296 11.4904
21 Al 0.673305 4.54079 10.8503
22 Al 3.0584 5.74362 14.3388
23 Al 0.610566 4.51359 7.74656
24 Al 2.92098 5.62599 11.4444
25 Al 4.09724 2.38135 14.35
26 Al 2.66925 3.38367 9.21196
27 Al 0.305396 6.79585 13.2515
28 Al 2.09354 3.54751 13.0644
29 Ni 1.9747 5.86744 9.27374
30 Ni 0.141872 2.48185 9.34967
31 Ni 2.66185 0.88755 13.0803
32 Ni 4.51208 4.36716 12.8537
33 Al 4.41302 6.59525 1.72407
34 Al 1.63471 7.68494 3.31959
35 Al 1.7712 7.77667 0.375994
36 Al 4.1057 8.92862 4.11655
37 Al 0.497742 11.1439 3.23417
38 Al 3.01308 12.2329 7.04644
39 Al 0.718538 11.0056 0.393117
40 Al 3.02097 12.1341 4.10896
41 Al 4.04549 8.91989 7.05258
42 Al 2.89661 9.92134 1.65473
43 Al 0.329236 13.2429 5.47217
44 Al 1.89587 9.98037 5.54028
45 Ni 2.16285 12.3651 1.72825
46 Ni 0.233257 9.11057 1.87235
47 Ni 2.55163 7.60612 5.52765
48 Ni 4.52694 10.9441 5.57189
49 Al 4.3924 6.76877 9.202
50 Al 1.60861 7.97049 10.6678
51 Al 1.59829 8.01628 7.82378
52 Al 4.15682 8.91379 11.5613
53 Al 0.559696 11.3168 10.6956
54 Al 3.04584 12.1834 14.386
55 Al 0.512073 11.1107 7.84768
56 Al 2.9495 12.3253 11.4286
57 Al 4.08616 9.01776 14.483
58 Al 2.79872 10.0602 9.26899
59 Al 0.273834 13.2284 12.9248
60 Al 1.98237 10.0323 12.9098
61 Ni 2.12631 12.5295 9.15534
62 Ni 0.143451 9.15438 9.21713
63 Ni 2.61454 7.67475 12.9287
64 Ni 4.58165 10.9454 13.0956
65 Al 9.26466 0.00203081 1.70679
66 Al 6.48764 1.10943 3.22628
67 Al 6.51091 1.07611 0.344907
68 Al 8.97278 2.18449 4.06384
69 Al 5.6227 4.62181 3.41286
70 Al 7.76671 5.47472 7.09575
71 Al 5.46627 4.39366 0.358123
72 Al 8.09995 5.69575 4.05484
73 Al 8.93593 2.21296 7.0259
74 Al 7.67894 3.27757 1.95475
75 Al 5.02775 6.79 5.44639
76 Al 6.82541 3.33183 5.43928
77 Ni 7.03663 5.82184 1.83072
78 Ni 5.04201 2.47915 1.76602
79 Ni 7.48052 0.839701 5.52866
80 Ni 9.36035 4.26983 5.5962
81 Al 8.96841 0.223685 9.37397
82 Al 6.46958 1.24289 10.7089
83 Al 6.47188 1.12427 7.79202
84 Al 8.91095 2.40586 11.632
85 Al 5.51677 4.51948 10.7809
86 Al 7.87541 5.67108 14.5031
87 Al 5.34024 4.61662 7.83178
88 Al 7.89647 5.5624 11.6355
89 Al 8.95593 2.29271 14.4665
90 Al 7.41999 3.34863 9.26383
91 Al 5.24636 6.65759 13.0051
92 Al 6.79518 3.45813 12.9786
93 Ni 6.88193 5.86286 9.3294
94 Ni 4.9859 2.57279 9.27546
95 Ni 7.5234 1.09708 12.998
96 Ni 9.42157 4.32331 13.051
97 Al 9.30629 6.58433 1.73814
98 Al 6.54765 7.68434 3.22986
99 Al 6.63393 7.75996 0.321657
100 Al 8.95426 8.83139 4.05938
101 Al 5.33465 11.0771 3.23054
102 Al 7.88514 12.2728 6.97279
103 Al 5.63631 11.0542 0.431893
104 Al 7.89104 12.2004 4.10949
105 Al 9.05099 8.92068 6.93174
106 Al 7.64899 9.95037 1.91298
107 Al 5.10115 13.3407 5.50943
108 Al 6.75543 10.019 5.42005
109 Ni 7.17077 12.3222 1.78711
110 Ni 5.12309 8.98692 1.87111
111 Ni 7.45863 7.59824 5.49764
112 Ni 9.35872 10.8918 5.61246
113 Al 9.19282 6.70194 9.33036
114 Al 6.46429 7.93917 10.8484
115 Al 6.75061 7.94447 7.9312
116 Al 8.94168 9.01787 11.5178
117 Al 5.35918 11.1677 10.7399
118 Al 7.87661 12.3064 14.4804
119 Al 5.4429 11.2274 7.82632
120 Al 7.73586 12.1784 11.5183
121 Al 9.04524 9.01308 14.4513
122 Al 7.61483 10.1063 9.34324
123 Al 5.16867 13.2257 13.1611
124 Al 6.80768 10.0289 12.9829
125 Ni 6.78721 12.5077 9.34187
126 Ni 4.97245 9.14605 9.21521
127 Ni 7.52733 7.67077 13.0555
128 Ni 9.39818 10.9358 13.0107
ITEM: TIMESTEP
10000
ITEM: NUMBER OF ATOMS
128
ITEM: BOX BOUNDS xy xz yz pp pp pp
-1.2143213232881243e-01 9.7115626632268715e+00 7.7213601186882266e-02
-4.5097570128718983e-02 1.3219218286809809e+01 -1.1808889254512965e-01
-3.4897869590502673e-02 1.4888375629402118e+01 -2.5747496611298187e-02
ITEM: ATOMS id element xu yu zu
1 Al 4.44996 -0.00602463 1.71464
2 Al 1.72628 1.26517 3.27812
3 Al 1.80741 1.37511 0.420691
4 Al 4.25153 1.92678 4.05687
5 Al 0.574862 4.5554 3.27089
6 Al 3.07244 5.20876 7.07385
7 Al 0.68492 4.46624 0.402837
8 Al 3.09949 5.43803 4.16659
9 Al 4.10869 2.08827 6.98722
10 Al 2.85227 3.38525 1.93497
11 Al 0.298926 6.6184 5.393
12 Al 1.95854 3.22726 5.58564
13 Ni 2.13184 5.73676 1.90841
14 Ni 0.132341 2.57704 1.78389
15 Ni 2.5354 1.023 5.56114
16 Ni 4.53974 3.97935 5.42577
17 Al 4.28793 0.0121802 9.28836
18 Al 1.69977 1.09339 10.699
19 Al 1.66945 0.993246 7.84308
20 Al 4.11154 2.20276 11.5195
21 Al 0.659402 4.60626 10.7392
22 Al 2.95052 5.33968 14.4592
23 Al 0.510924 4.49748 7.79426
24 Al 3.0254 5.37994 11.581
25 Al 4.11297 2.0847 14.4355
26 Al 2.83045 3.37544 9.36455
27 Al 0.477573 6.52507 12.8942
28 Al 1.87532 3.22602 12.9026
29 Ni 2.25632 5.6504 9.37986
30 Ni 0.305077 2.41412 9.18258
31 Ni 2.6235 0.903401 12.9097
32 Ni 4.43655 4.00749 13.1453
33 Al 4.28966 6.75974 1.79023
34 Al 1.72494 7.76047 3.35644
35 Al 1.79059 7.6757 0.342534
36 Al 4.15932 8.73684 4.11157
37 Al 0.539276 11.1041 3.13378
38 Al 3.04413 12.1025 7.01431
39 Al 0.771085 11.0325 0.361818
40 Al 3.09087 12.2302 4.08957
41 Al 4.10163 8.75706 7.0232
42 Al 2.83233 10.0084 1.93903
43 Al 0.361838 13.2801 5.58834
44 Al 1.99801 9.82326 5.50701
45 Ni 2.06876 12.4813 1.84752
46 Ni 0.276756 9.09757 1.72919
47 Ni 2.73268 7.41957 5.57682
48 Ni 4.43495 10.7009 5.52478
49 Al 4.37215 6.64469 9.22968
50 Al 1.80925 7.75443 10.6636
51 Al 1.75571 7.78295 7.82436
52 Al 4.20499 8.7522 11.5292
53 Al 0.654865 10.9881 10.822
54 Al 3.03177 12.173 14.4485
55 Al 0.62924 11.1372 7.75576
56 Al 3.01647 12.0577 11.5209
57 Al 4.17398 8.81913 14.5295
58 Al 2.86881 9.87266 9.2407
59 Al 0.416403 13.1972 13.1454
60 Al 1.92702 9.62722 13.1039
61 Ni 2.08761 12.2933 9.40348
62 Ni 0.266773 9.0382 9.2845
63 Ni 2.75882 7.40285 13.0191
64 Ni 4.48328 10.7316 12.9164
65 Al 9.13664 0.132848 1.81126
66 Al 6.72441 1.1163 3.26464
67 Al 6.57429 1.06956 0.414555
68 Al 8.98864 2.2897 4.09477
69 Al 5.32115 4.31596 3.17336
70 Al 7.9281 5.46716 6.97094
71 Al 5.45637 4.42971 0.328829
72 Al 7.58986 5.43535 4.13406
73 Al 9.00408 2.23604 6.9748
74 Al 7.60232 3.39834 1.7109
75 Al 5.23762 6.40601 5.65855
76 Al 6.67769 3.20356 5.59651
77 Ni 6.91687 5.67525 1.83498
78 Ni 5.17522 2.37135 1.82941
79 Ni 7.47199 0.945649 5.5661
80 Ni 9.29979 4.13737 5.50436
81 Al 9.16309 -0.053523 9.28857
82 Al 6.64603 1.16015 10.6105
83 Al 6.48853 1.08882 7.77031
84 Al 8.88013 2.25522 11.5445
85 Al 5.55577 4.38642 10.7055
86 Al 7.84233 5.51995 14.3063
87 Al 5.60408 4.26274 7.73799
88 Al 7.81444 5.32683 11.4173
89 Al 8.80894 2.13621 14.4357
90 Al 7.69186 3.35601 9.24902
91 Al 5.19109 6.59272 13.04
92 Al 6.72176 3.19352 12.9701
93 Ni 7.04218 5.72601 9.14406
94 Ni 5.00269 2.30359 9.29857
95 Ni 7.44364 0.802425 13.0627
96 Ni 9.31627 4.18635 12.8758
97 Al 9.11651 6.62113 1.87058
98 Al 6.61279 7.82965 3.24958
99 Al 6.65839 7.62861 0.468334
100 Al 8.91998 8.80246 4.04979
101 Al 5.5411 10.9578 3.35105
102 Al 7.79889 12.1028 6.93788
103 Al 5.47943 11.1412 0.311872
104 Al 7.93811 12.1365 4.12323
105 Al 8.90866 8.90457 7.07351
106 Al 7.58701 10.0218 1.70168
107 Al 5.14641 13.0933 5.60336
108 Al 6.7147 9.90072 5.63626
109 Ni 6.9222 12.3643 1.80791
110 Ni 5.09227 9.06933 1.91193
111 Ni 7.49635 7.5498 5.51461
112 Ni 9.44027 10.834 5.51035
113 Al 9.26387 6.74514 9.20419
114 Al 6.78892 7.82166 10.6346
115 Al 6.4773 7.68992 7.76102
116 Al 9.09423 8.74153 11.6291
117 Al 5.63381 10.9998 10.7308
118 Al 7.76683 11.9663 14.552
119 Al 5.32016 11.147 7.89814
120 Al 7.87262 12.1356 11.4748
121 Al 8.88743 8.57981 14.5317
122 Al 7.65957 9.96602 9.14585
123 Al 5.19267 13.1114 12.9087
124 Al 6.87516 9.91858 13.0215
125 Ni 6.96089 12.3969 9.24381
126 Ni 5.1741 9.08269 9.31466
127 Ni 7.51261 7.39606 12.9253
128 Ni 9.39429 10.7783 12.9449
ITEM: TIMESTEP
10100
ITEM: NUMBER OF ATOMS
128
ITEM: BOX BOUNDS xy xz yz pp pp pp
7.4343670598185554e-03 9.6488198973918795e+00 -3.5064485324557784e-03
-2.2125751174734826e-01 1.3249192621578999e+01 2.8754890727844980e-02
-4.7514048124027930e-02 1.4900991807935645e+01 -1.7193310346075313e-01
ITEM: ATOMS id element xu yu zu
1 Al 4.35561 0.114032 1.87118
2 Al 1.81878 1.03839 3.31665
3 Al 1.66127 1.01848 0.347889
4 Al 4.12476 2.12402 4.09131
5 Al 0.680215 4.39666 3.16383
6 Al 3.13937 5.53535 6.93841
7 Al 0.643189 4.43769 0.419469
8 Al 3.03454 5.45956 4.08383
9 Al 4.2775 1.9919 6.98471
10 Al 2.74437 3.21478 1.8061
11 Al 0.457092 6.40784 5.60334
12 Al 2.06293 3.12158 5.43658
13 Ni 2.17673 5.666 1.7332
14 Ni 0.290399 2.36571 1.78871
15 Ni 2.79071 0.716026 5.5253
16 Ni 4.51429 4.1499 5.62729
17 Al 4.49209 -0.00735869 9.27003
18 Al 1.85647 0.96812 10.6666
19 Al 1.84392 0.93629 7.70466
20 Al 4.15384 1.9431 11.6492
21 Al 0.682241 4.30064 10.829
22 Al 3.17976 5.32031 14.4278
23 Al 0.661579 4.2493 7.7408
24 Al 2.96981 5.43211 11.4374
25 Al 4.06965 1.99726 14.4535
26 Al 2.95476 3.32011 9.37329
27 Al 0.395342 6.41463 13.053
28 Al 1.89916 3.10898 13.0881
29 Ni 2.17353 5.67569 9.15811
30 Ni 0.292113 2.33046 9.28318
31 Ni 2.65841 0.640633 13.0825
32 Ni 4.60225 4.03303 12.9468
33 Al 4.45786 6.62834 1.84484
34 Al 1.9529 7.80691 3.26219
35 Al 1.74803 7.87392 0.25513
36 Al 4.19906 8.86411 3.923
37 Al 0.806367 11.019 3.30541
38 Al 3.12489 11.9597 6.99425
39 Al 0.443761 11.0826 0.492104
40 Al 3.1085 11.9758 4.0794
41 Al 4.2068 8.63285 6.90663
42 Al 2.79258 9.97711 1.74212
43 Al 0.399997 13.0819 5.51592
44 Al 2.13722 9.80681 5.51296
45 Ni 2.06894 12.3643 1.79331
46 Ni 0.379137 9.05733 1.85105
47 Ni 2.73087 7.50846 5.46834
48 Ni 4.61952 10.7613 5.53951
49 Al 4.35174 6.60154 9.19633
50 Al 1.6521 7.69353 10.743
51 Al 1.87254 7.65271 7.92896
52 Al 4.10672 8.68329 11.5916
53 Al 0.678389 10.9834 10.7537
54 Al 3.15225 11.89 14.6793
55 Al 0.768025 10.9191 7.75527
56 Al 3.12327 12.0114 11.5678
57 Al 4.10624 8.56207 14.4299
58 Al 2.9655 9.91998 9.34979
59 Al 0.444153 13.1109 12.8561
60 Al 2.00109 9.91817 12.9113
61 Ni 2.19134 12.3914 9.20028
62 Ni 0.296478 8.84841 9.28537
63 Ni 2.55268 7.33273 12.9971
64 Ni 4.51337 10.7049 13.1396
65 Al 9.14686 -0.0565896 1.84546
66 Al 6.50256 0.935526 3.3636
67 Al 6.52475 1.16848 0.464716
68 Al 8.99652 1.97366 4.07844
69 Al 5.40146 4.35875 3.31992
70 Al 7.83618 5.32927 7.14818
71 Al 5.38666 4.33919 0.285064
72 Al 8.01939 5.43118 3.84562
73 Al 8.98724 2.12069 6.92302
74 Al 7.60239 3.33487 1.87861
75 Al 5.46658 6.5214 5.45072
76 Al 6.77066 3.33895 5.55135
77 Ni 6.8511 5.84764 1.77929
78 Ni 5.02144 2.44573 1.81253
79 Ni 7.65813 0.651618 5.48316
80 Ni 9.35055 4.11275 5.56538
81 Al 9.39695 -0.111032 9.13304
82 Al 6.48292 0.875134 10.7491
83 Al 6.71514 1.01394 7.80727
84 Al 8.95965 1.90643 11.5785
85 Al 5.46609 4.35004 10.744
86 Al 7.81278 5.29316 14.5097
87 Al 5.4467 4.36308 7.74094
88 Al 7.95598 5.40979 11.5939
89 Al 8.90897 1.92774 14.4801
90 Al 7.67468 3.34636 9.27489
91 Al 5.2877 6.39793 12.9991
92 Al 6.84985 3.16031 12.9756
93 Ni 6.88569 5.58352 9.40095
94 Ni 5.21965 2.37193 9.29341
95 Ni 7.57901 0.632578 12.8867
96 Ni 9.25822 3.97817 13.0566
97 Al 9.15975 6.73596 1.69723
98 Al 6.60334 7.83579 3.37945
99 Al 6.55317 7.91755 0.258979
100 Al 8.95837 8.72315 4.09321
101 Al 5.41435 11.0624 3.11667
102 Al 8.06536 11.9574 7.17805
103 Al 5.54879 11.0808 0.370363
104 Al 7.83983 11.843 4.03086
105 Al 9.13524 8.60916 6.99537
106 Al 7.61209 9.84102 1.85789
107 Al 5.28236 13.0833 5.57799
108 Al 6.87059 9.79924 5.48543
109 Ni 6.88532 12.3742 1.70918
110 Ni 5.0866 9.09263 1.62858
111 Ni 7.54158 7.37947 5.5975
112 Ni 9.34644 10.7034 5.51038
113 Al 9.2916 6.43806 9.33283
114 Al 6.49558 7.53971 10.8215
115 Al 6.7152 7.82237 7.89372
116 Al 8.87139 8.51313 11.4879
117 Al 5.49084 11.0689 10.6768
118 Al 7.81052 12.0388 14.4228
119 Al 5.6679 10.8588 7.73204
120 Al 7.92018 11.9025 11.4948
121 Al 9.00582 8.58394 14.5011
122 Al 7.70808 9.8524 9.47259
123 Al 5.20429 13.1435 13.1129
124 Al 6.70899 9.68902 12.9625
125 Ni 7.0465 12.2805 9.35048
126 Ni 5.17673 8.98143 9.28264
127 Ni 7.46058 7.35418 13.0238
128 Ni 9.29488 10.6365 13.0428
ITEM: TIMESTEP
10200
ITEM: NUMBER OF ATOMS
128
ITEM: BOX BOUNDS xy xz yz pp pp pp
-8.0702081766617639e-02 9.7450229260189687e+00 -3.7042905329181537e-02
-1.1076822354676992e-01 1.3247354303717733e+01 7.0357927325226444e-02
-4.1089733857922361e-02 1.4894567493669555e+01 -6.3282133121434117e-02
ITEM: ATOMS id element xu yu zu
1 Al 4.43811 -0.151374 1.69821
2 Al 1.93199 1.24482 3.24289
3 Al 1.73356 1.03889 0.306208
4 Al 4.15638 2.2329 4.02205
5 Al 0.670938 4.3615 3.27887
6 Al 3.0571 5.45892 7.07426
7 Al 0.597203 4.32806 0.355462
8 Al 3.09886 5.36086 4.0107
9 Al 4.20166 2.24042 6.96265
10 Al 2.8541 3.3246 1.75374
11 Al 0.450186 6.47784 5.52702
12 Al 2.02344 3.23498 5.58202
13 Ni 2.00983 5.63154 1.75319
14 Ni 0.375525 2.40432 1.82433
15 Ni 2.77023 0.820852 5.57717
16 Ni 4.62727 4.181 5.59077
17 Al 4.52353 -0.0166169 9.33409
18 Al 1.69436 1.02184 10.7452
19 Al 1.92988 0.992574 7.94574
20 Al 4.23056 1.98065 11.5447
21 Al 0.481768 4.28762 10.7051
22 Al 2.99291 5.31702 14.4351
23 Al 0.55516 4.2809 7.8014
24 Al 2.98762 5.42391 11.5157
25 Al 4.12186 2.05393 14.5502
26 Al 2.85548 3.36283 9.14652
27 Al 0.380002 6.58138 12.9829
28 Al 2.08077 3.19641 12.9702
29 Ni 2.06268 5.78182 9.35679
30 Ni 0.176525 2.30179 9.33699
31 Ni 2.75681 0.86618 12.9189
32 Ni 4.49841 4.17051 13.0821
33 Al 4.25301 6.6961 1.64395
34 Al 1.75419 7.66964 3.29861
35 Al 1.59699 7.83475 0.290107
36 Al 4.15677 8.73638 4.03845
37 Al 0.706315 11.0398 3.27249
38 Al 2.98547 12.1435 6.92063
39 Al 0.689337 11.1102 0.30218
40 Al 3.10768 12.0529 4.0919
41 Al 4.14575 8.88645 6.93413
42 Al 2.74289 9.82052 1.76555
43 Al 0.52793 13.099 5.51744
44 Al 2.11669 9.85756 5.52576
45 Ni 2.13809 12.3173 1.7765
46 Ni 0.151859 8.98395 1.68313
47 Ni 2.67554 7.3766 5.5973
48 Ni 4.74724 10.8391 5.61322
49 Al 4.31868 6.58689 9.372
50 Al 1.75152 7.71286 10.6643
51 Al 1.66624 7.74652 7.75486
52 Al 4.12167 8.74091 11.5041
53 Al 0.59357 11.0917 10.7612
54 Al 3.04897 12.0026 14.2448
55 Al 0.493382 11.182 7.87246
56 Al 3.04309 12.0993 11.5289
57 Al 4.19153 8.75583 14.4984
58 Al 2.8024 9.892 9.23187
59 Al 0.437506 13.2208 12.9532
60 Al 1.94587 9.80034 13.0138
61 Ni 2.12189 12.3419 9.2412
62 Ni 0.251943 9.08614 9.28013
63 Ni 2.74462 7.42847 13.041
64 Ni 4.59899 10.7484 12.8494
65 Al 9.4726 -0.0650882 1.81351
66 Al 6.62314 1.20166 3.05764
67 Al 6.47179 1.07863 0.365488
68 Al 9.04811 1.97483 4.08008
69 Al 5.49372 4.5414 3.38284
70 Al 7.9576 5.33277 7.01526
71 Al 5.36399 4.5265 0.367665
72 Al 8.00324 5.31993 4.19829
73 Al 9.07458 2.01406 7.0177
74 Al 7.74571 3.28384 1.83
75 Al 5.1791 6.76907 5.58503
76 Al 6.80731 3.15807 5.50772
77 Ni 7.19216 5.59079 1.88577
78 Ni 5.07069 2.40576 1.79985
79 Ni 7.45979 0.890564 5.56861
80 Ni 9.47412 4.12257 5.55627
81 Al 9.25658 0.0221044 9.46791
82 Al 6.58483 1.08777 10.7977
83 Al 6.56106 1.055 7.8182
84 Al 8.98056 2.04657 11.6967
85 Al 5.43526 4.50399 10.6905
86 Al 7.96868 5.21882 14.4099
87 Al 5.442 4.60581 7.68581
88 Al 7.89996 5.42033 11.6265
89 Al 9.14449 2.07334 14.4676
90 Al 7.60368 3.27631 9.16546
91 Al 5.21674 6.5909 13.0904
92 Al 6.6776 3.30442 13.1128
93 Ni 7.09931 5.68074 9.22697
94 Ni 5.11989 2.32862 9.22863
95 Ni 7.435 0.867042 13.1038
96 Ni 9.50542 4.0761 12.9829
97 Al 9.30024 6.48675 1.90421
98 Al 6.67468 7.67102 3.30831
99 Al 6.40812 7.7934 0.270738
100 Al 9.06406 8.75 4.05576
101 Al 5.57145 11.0584 3.30049
102 Al 7.88777 12.0728 6.99844
103 Al 5.49105 11.0028 0.486832
104 Al 7.9595 12.2941 4.1718
105 Al 8.89573 8.80955 7.09875
106 Al 7.70833 10.0811 1.90637
107 Al 5.28636 13.2757 5.47324
108 Al 6.93986 9.7656 5.33819
109 Ni 7.06813 12.3795 1.89602
110 Ni 5.09178 9.03837 1.89087
111 Ni 7.58017 7.46085 5.50813
112 Ni 9.38069 10.7801 5.59555
113 Al 9.29627 6.77859 9.23533
114 Al 6.72861 7.75362 10.7709
115 Al 6.49805 7.61689 7.72777
116 Al 9.14347 8.70029 11.4726
117 Al 5.47433 11.0913 10.5546
118 Al 8.06812 12.1258 14.5968
119 Al 5.46198 11.011 7.73008
120 Al 7.86924 12.1335 11.595
121 Al 8.95709 8.86418 14.4456
122 Al 7.59961 9.8742 9.19651
123 Al 5.20135 13.1831 12.9348
124 Al 6.85538 9.89659 12.944
125 Ni 6.93776 12.3063 9.21513
126 Ni 5.04185 8.96187 9.22577
127 Ni 7.54765 7.47121 13.0157
128 Ni 9.42416 10.8456 12.9843
ITEM: TIMESTEP
10300
ITEM: NUMBER OF ATOMS
128
ITEM: BOX BOUNDS xy xz yz pp pp pp
-7.0757601345655396e-02 9.6981618035695121e+00 -2.7376813593653126e-02
2.4896666544156787e-02 1.3288857498346038e+01 2.3775193561199684e-02
1.3295370035264931e-02 1.4840182389776359e+01 1.1388595159778964e-01
ITEM: ATOMS id element xu yu zu
1 Al 4.40322 0.179546 1.87795
2 Al 1.60069 1.20297 3.29545
3 Al 1.86753 1.35025 0.375233
4 Al 4.1841 2.14209 4.15415
5 Al 0.600116 4.48171 3.31285
6 Al 3.07818 5.47167 6.97996
7 Al 0.676045 4.47503 0.431656
8 Al 2.93175 5.54159 4.13517
9 Al 4.05598 2.31856 7.11007
10 Al 2.83265 3.37992 1.87145
11 Al 0.409061 6.62357 5.48907
12 Al 2.01964 3.30204 5.59586
13 Ni 2.07818 5.85619 1.96484
14 Ni 0.224208 2.39403 1.82557
15 Ni 2.72086 0.894716 5.5282
16 Ni 4.44262 4.10941 5.46514
17 Al 4.36046 0.249534 9.26965
18 Al 1.68984 1.1645 10.769
19 Al 1.79873 1.208 7.67901
20 Al 4.0303 2.21324 11.5359
21 Al 0.630004 4.58753 10.7807
22 Al 3.21203 5.56886 14.5228
23 Al 0.618761 4.48759 7.71144
24 Al 3.18687 5.60376 11.4547
25 Al 4.38253 2.27498 14.2848
26 Al 2.68256 3.39465 9.35394
27 Al 0.439179 6.73827 12.8477
28 Al 1.97914 3.26256 13.0141
29 Ni 2.12932 5.78341 9.31386
30 Ni 0.326597 2.55342 9.18083
31 Ni 2.81096 0.859779 12.9743
32 Ni 4.53691 4.32708 12.9247
33 Al 4.41748 6.70328 2.00623
34 Al 1.6786 7.86766 3.32664
35 Al 1.79876 7.75983 0.542893
36 Al 4.20524 8.64292 4.24953
37 Al 0.530966 11.1518 3.19202
38 Al 2.98029 12.0996 7.08486
39 Al 0.786912 11.0388 0.349836
40 Al 2.95225 12.0321 4.14006
41 Al 4.1764 8.81967 7.017
42 Al 2.97082 10.0318 1.95985
43 Al 0.374761 13.2209 5.64409
44 Al 1.91107 9.86625 5.49389
45 Ni 2.09778 12.3955 1.88638
46 Ni 0.308061 9.10095 1.97612
47 Ni 2.53313 7.55403 5.53653
48 Ni 4.27832 10.6698 5.43207
49 Al 4.36085 6.6507 9.12897
50 Al 1.66257 7.83737 10.6359
51 Al 1.69649 7.74052 7.73814
52 Al 4.21213 8.74311 11.5947
53 Al 0.583912 11.108 10.6932
54 Al 3.12986 12.187 14.494
55 Al 0.642997 11.1319 7.69498
56 Al 3.05848 12.11 11.5978
57 Al 4.21818 8.77696 14.455
58 Al 2.82082 9.98147 9.31599
59 Al 0.447443 13.1394 13.1428
60 Al 2.02361 9.9636 13.0489
61 Ni 2.00223 12.4297 9.28654
62 Ni 0.180272 9.12789 9.26864
63 Ni 2.69865 7.59246 12.9308
64 Ni 4.51174 10.828 13.0619
65 Al 9.1667 0.10734 1.74967
66 Al 6.65204 1.21313 3.20965
67 Al 6.63428 1.19963 0.350304
68 Al 8.92751 2.24737 4.1084
69 Al 5.46051 4.43017 3.34386
70 Al 7.92842 5.59521 7.09506
71 Al 5.58657 4.54877 0.178897
72 Al 7.88853 5.54734 4.13362
73 Al 8.89667 2.2238 7.03965
74 Al 7.67795 3.36651 1.82111
75 Al 5.30221 6.43413 5.49246
76 Al 6.91227 3.44562 5.66411
77 Ni 6.97298 5.7139 1.75949
78 Ni 5.20875 2.52261 1.831
79 Ni 7.45144 0.931212 5.57312
80 Ni 9.34091 4.18451 5.53251
81 Al 9.37673 0.146135 9.06447
82 Al 6.52579 1.4185 10.7076
83 Al 6.53057 1.2556 7.85613
84 Al 9.15577 2.34019 11.4899
85 Al 5.62422 4.57486 10.7962
86 Al 8.07514 5.58066 14.284
87 Al 5.51417 4.42772 7.76224
88 Al 7.93607 5.52117 11.56
89 Al 9.19492 2.29345 14.3296
90 Al 7.85777 3.48168 9.32107
91 Al 5.2964 6.61761 12.9179
92 Al 6.94981 3.36122 12.9359
93 Ni 6.97949 5.87064 9.24743
94 Ni 4.98213 2.56896 9.31534
95 Ni 7.54985 0.956456 12.8263
96 Ni 9.38911 4.28457 12.984
97 Al 9.20068 6.57864 1.94719
98 Al 6.46362 7.76142 3.37185
99 Al 6.52765 7.74859 0.373682
100 Al 8.79843 8.82341 4.07098
101 Al 5.35565 11.0886 3.20053
102 Al 7.81696 12.1121 6.89454
103 Al 5.55891 11.0309 0.351842
104 Al 7.83914 12.1036 3.99198
105 Al 9.04914 8.87928 6.96373
106 Al 7.69616 9.95128 1.74686
107 Al 5.16719 13.1379 5.72292
108 Al 6.70902 9.93365 5.87113
109 Ni 6.92081 12.3408 1.74869
110 Ni 5.12765 9.06015 1.71466
111 Ni 7.42216 7.56713 5.53849
112 Ni 9.35865 10.8572 5.50518
113 Al 9.33076 6.78489 9.30841
114 Al 6.62216 7.77202 10.738
115 Al 6.60481 7.83709 7.81411
116 Al 8.88885 9.02345 11.466
117 Al 5.63227 11.0525 10.8602
118 Al 7.96845 12.1222 14.276
119 Al 5.42563 11.1581 7.80933
120 Al 7.9841 12.1812 11.4754
121 Al 9.19842 8.71213 14.5108
122 Al 7.72665 10.1649 9.17117
123 Al 5.23963 13.2628 12.8183
124 Al 6.91342 9.8972 13.1466
125 Ni 6.91492 12.4427 9.26843
126 Ni 5.0924 9.18375 9.29798
127 Ni 7.48126 7.52713 12.9433
128 Ni 9.43394 10.8147 13.0002
ITEM: TIMESTEP
10400
ITEM: NUMBER OF ATOMS
128
ITEM: BOX BOUNDS xy xz yz pp pp pp
-9.4241253985947654e-02 9.6733488412611397e+00 2.9318653590602478e-03
-3.3393322580642426e-02 1.3338808713312286e+01 -5.4830100340173910e-02
-5.9405032339890695e-02 1.4912882792151519e+01 1.0554717743922742e-01
ITEM: ATOMS id element xu yu zu
1 Al 4.4285 -0.0108286 1.78956
2 Al 1.57258 1.13834 3.1774
3 Al 1.59202 1.19498 0.266871
4 Al 4.06477 2.25334 4.18771
5 Al 0.642584 4.61405 3.26384
6 Al 3.01268 5.50306 6.98524
7 Al 0.670372 4.42577 0.31713
8 Al 3.11179 5.58212 4.01729
9 Al 4.17886 2.07008 6.91919
10 Al 2.80513 3.33996 1.81259
11 Al 0.389151 6.78247 5.58546
12 Al 1.94036 3.27889 5.4983
13 Ni 2.1973 5.76081 1.71886
14 Ni 0.163964 2.52561 1.80562
15 Ni 2.48233 0.941512 5.56646
16 Ni 4.55167 4.28942 5.56064
17 Al 4.41234 0.207757 9.25059
18 Al 1.94229 1.23912 10.6145
19 Al 1.6185 1.10997 7.74386
20 Al 4.30407 2.1531 11.679
21 Al 0.711041 4.46922 10.7088
22 Al 3.10633 5.54587 14.431
23 Al 0.533763 4.5042 7.78853
24 Al 3.02089 5.54123 11.546
25 Al 4.01069 2.22565 14.4751
26 Al 2.87079 3.43365 9.21864
27 Al 0.383133 6.52891 13.2036
28 Al 2.06309 3.33715 12.9576
29 Ni 2.18447 5.86277 9.22014
30 Ni 0.195233 2.53273 9.37411
31 Ni 2.55431 1.02237 13.0298
32 Ni 4.58061 4.24474 12.9904
33 Al 4.43662 6.71602 1.64932
34 Al 1.60359 7.59834 3.18037
35 Al 1.688 7.72633 0.254543
36 Al 3.99704 8.93464 4.18516
37 Al 0.59763 11.1512 3.29313
38 Al 2.97549 12.1935 6.98822
39 Al 0.520063 11.1441 0.266411
40 Al 3.18033 12.1126 4.02418
41 Al 4.06198 8.88838 7.06554
42 Al 2.65086 9.88234 1.71545
43 Al 0.347678 13.2382 5.46426
44 Al 1.88295 9.91507 5.52139
45 Ni 1.99168 12.3957 1.78394
46 Ni 0.138393 9.10581 1.74448
47 Ni 2.69989 7.47867 5.57423
48 Ni 4.59498 10.8501 5.62137
49 Al 4.39689 6.80741 9.4497
50 Al 1.72797 7.80912 10.7159
51 Al 1.71218 7.76925 7.78253
52 Al 4.08489 8.90582 11.578
53 Al 0.638616 11.0709 10.7007
54 Al 2.85546 12.2529 14.4336
55 Al 0.590457 11.134 7.85111
56 Al 3.09074 12.1756 11.6137
57 Al 4.17342 8.94473 14.5355
58 Al 2.8062 9.99993 9.09589
59 Al 0.308856 13.2422 12.9354
60 Al 1.93223 9.96399 13.0212
61 Ni 2.1635 12.3428 9.22446
62 Ni 0.182687 9.05808 9.34464
63 Ni 2.57621 7.52999 13.0157
64 Ni 4.52957 10.9244 12.9997
65 Al 9.13032 0.0880914 1.94622
66 Al 6.50498 1.04995 3.31302
67 Al 6.54483 1.1523 0.393338
68 Al 8.95043 2.22283 4.01611
69 Al 5.45248 4.38067 3.22897
70 Al 7.66226 5.45602 6.99142
71 Al 5.45559 4.46089 0.392884
72 Al 7.93148 5.48273 4.07964
73 Al 8.9676 2.33333 6.88985
74 Al 7.51646 3.39275 1.78591
75 Al 5.21264 6.72815 5.61315
76 Al 6.7156 3.18949 5.43859
77 Ni 6.99148 5.90756 1.88021
78 Ni 5.09066 2.36423 1.77669
79 Ni 7.49249 0.846521 5.52867
80 Ni 9.36736 4.20923 5.51177
81 Al 9.29558 0.163121 9.41557
82 Al 6.52881 1.11665 10.7406
83 Al 6.63245 1.14874 7.74254
84 Al 9.01208 2.35461 11.5591
85 Al 5.4232 4.57623 10.7471
86 Al 7.84702 5.49518 14.5441
87 Al 5.37363 4.35441 7.85994
88 Al 7.93261 5.51652 11.5796
89 Al 8.93707 2.33717 14.5186
90 Al 7.64744 3.26488 9.19438
91 Al 5.28098 6.67699 13.0436
92 Al 6.91373 3.39437 12.9915
93 Ni 6.84961 5.82388 9.3347
94 Ni 5.11823 2.40293 9.17474
95 Ni 7.57313 0.895859 13.1286
96 Ni 9.43436 4.21346 12.9884
97 Al 9.24641 6.65522 1.65996
98 Al 6.67373 7.9046 3.27586
99 Al 6.65386 7.87725 0.346218
100 Al 9.13806 8.7818 4.11753
101 Al 5.4216 11.0325 3.21407
102 Al 7.87006 12.2181 6.9888
103 Al 5.43335 11.1128 0.359948
104 Al 7.84063 12.0628 4.12299
105 Al 9.00865 8.86963 7.00133
106 Al 7.59934 10.0473 1.75301
107 Al 5.20068 13.2393 5.37731
108 Al 6.91761 9.80232 5.35971
109 Ni 6.90076 12.3959 1.8812
110 Ni 4.97022 9.02038 1.77677
111 Ni 7.53764 7.44025 5.45736
112 Ni 9.31726 10.8259 5.63187
113 Al 9.27721 6.63715 9.21997
114 Al 6.52607 7.81081 10.872
115 Al 6.58516 7.85871 7.72668
116 Al 9.05768 8.75089 11.6031
117 Al 5.50206 11.1493 10.7292
118 Al 7.7711 12.1965 14.4882
119 Al 5.63835 11.0166 7.79514
120 Al 7.86921 12.135 11.679
121 Al 8.90428 9.06704 14.3764
122 Al 7.67366 9.9589 9.44649
123 Al 5.27007 13.3464 13.1411
124 Al 6.82334 9.99143 12.8183
125 Ni 6.96681 12.4349 9.29321
126 Ni 5.05887 9.12626 9.25667
127 Ni 7.57444 7.52445 13.0238
128 Ni 9.34082 10.8898 12.9845
ITEM: TIMESTEP
10500
ITEM: NUMBER OF ATOMS
128
ITEM: BOX BOUNDS xy xz yz pp pp pp
-5.1721025416113370e-02 9.6978694587182268e+00 7.4253555292679935e-02
-9.9437333907466230e-02 1.3233356438948137e+01 -5.9110944246884706e-02
7.7392549610282302e-03 1.4845738504850591e+01 -6.5949108251743493e-02
ITEM: ATOMS id element xu yu zu
1 Al 4.4809 0.0986865 1.89122
2 Al 1.74624 1.16769 3.29591
3 Al 1.75984 1.02717 0.36107
4 Al 4.23181 2.15661 4.17441
5 Al 0.607822 4.33134 3.27211
6 Al 3.13035 5.61341 6.92992
7 Al 0.598149 4.39215 0.391769
8 Al 2.97316 5.44846 4.11604
9 Al 4.26718 2.26032 7.04596
10 Al 2.8218 3.42205 1.74581
11 Al 0.552632 6.6946 5.48198
12 Al 2.0589 3.17074 5.54762
13 Ni 2.07117 5.69671 1.85102
14 Ni 0.391552 2.36662 1.84723
15 Ni 2.81678 0.808922 5.60955
16 Ni 4.56343 4.0859 5.58147
17 Al 4.50871 0.0111316 9.27254
18 Al 1.53682 1.06857 10.7515
19 Al 1.87434 1.02658 7.77365
20 Al 3.89669 2.22535 11.4841
21 Al 0.595915 4.30402 10.6615
22 Al 2.87718 5.45052 14.3272
23 Al 0.71007 4.38922 7.82489
24 Al 3.03502 5.37872 11.4716
25 Al 3.95759 1.98348 14.3911
26 Al 2.80814 3.20454 9.23246
27 Al 0.351435 6.56295 12.8506
28 Al 1.95223 3.22295 13.0169
29 Ni 2.11408 5.62986 9.29903
30 Ni 0.224093 2.37428 9.19728
31 Ni 2.70168 0.838631 12.9688
32 Ni 4.38757 4.02021 13.0565
33 Al 4.30571 6.58004 1.77424
34 Al 1.72762 7.83248 3.35379
35 Al 1.92606 7.7486 0.358639
36 Al 4.22342 8.83304 3.9988
37 Al 0.615044 10.9568 3.2374
38 Al 3.0635 12.0578 7.05533
39 Al 0.73872 10.958 0.367072
40 Al 3.0431 12.0221 4.21508
41 Al 4.28749 8.65488 6.96874
42 Al 2.94066 10.1305 1.81093
43 Al 0.557981 13.2399 5.47077
44 Al 2.09405 9.81825 5.7279
45 Ni 2.19105 12.3652 1.88298
46 Ni 0.46296 8.98458 1.82382
47 Ni 2.72311 7.47138 5.52174
48 Ni 4.64074 10.8138 5.4686
49 Al 4.46233 6.51776 9.21351
50 Al 1.80009 7.65725 10.7287
51 Al 1.8534 7.7482 7.86662
52 Al 4.24566 8.72866 11.5247
53 Al 0.66615 11.0505 10.7213
54 Al 3.09161 12.0084 14.4412
55 Al 0.814422 10.9051 7.8107
56 Al 3.03602 12.0571 11.5322
57 Al 4.18602 8.91433 14.5092
58 Al 2.81966 9.9439 9.3899
59 Al 0.343145 13.229 13.0179
60 Al 2.02453 9.94332 12.9241
61 Ni 2.08829 12.4203 9.2898
62 Ni 0.416117 9.10545 9.23918
63 Ni 2.7075 7.4388 12.9483
64 Ni 4.47927 10.6728 12.8808
65 Al 9.3708 -0.0411373 1.67265
66 Al 6.67635 1.12348 3.31307
67 Al 6.45961 1.13863 0.42899
68 Al 9.11591 2.11392 4.19628
69 Al 5.4862 4.36386 3.34338
70 Al 8.10381 5.56189 6.99669
71 Al 5.40738 4.34537 0.460526
72 Al 7.97528 5.5401 4.09585
73 Al 9.04022 2.07827 7.02062
74 Al 7.73909 3.37504 1.84128
75 Al 5.29853 6.53645 5.45952
76 Al 6.88911 3.22973 5.65131
77 Ni 6.86604 5.62012 1.71596
78 Ni 5.00546 2.51462 1.84526
79 Ni 7.56398 0.881725 5.57266
80 Ni 9.35775 4.08499 5.59229
81 Al 9.19218 -0.00383324 9.16465
82 Al 6.56515 1.02745 10.641
83 Al 6.55678 1.13626 7.78853
84 Al 8.79466 2.17622 11.4442
85 Al 5.3846 4.33689 10.7186
86 Al 7.83131 5.46903 14.4991
87 Al 5.58488 4.40527 7.68631
88 Al 7.71756 5.42054 11.5939
89 Al 8.83755 2.08832 14.4069
90 Al 7.74325 3.31552 9.21436
91 Al 5.15 6.4692 12.9995
92 Al 6.63172 3.10743 13.013
93 Ni 7.03056 5.60284 9.19331
94 Ni 5.06154 2.37393 9.32689
95 Ni 7.37882 0.783501 12.9265
96 Ni 9.25807 4.15429 12.9
97 Al 9.33645 6.65468 1.93673
98 Al 6.73081 7.63188 3.14887
99 Al 6.48214 7.56266 0.411989
100 Al 8.93569 8.72941 4.12538
101 Al 5.48984 11.2769 3.28966
102 Al 7.98439 12.0884 7.01057
103 Al 5.62108 11.0936 0.434822
104 Al 7.90798 12.1383 4.13339
105 Al 9.03433 8.77518 7.01099
106 Al 7.70094 9.94029 1.94584
107 Al 5.32008 13.312 5.53653
108 Al 6.86974 9.87813 5.62755
109 Ni 7.05805 12.4323 1.82295
110 Ni 5.1947 9.12962 1.84439
111 Ni 7.48076 7.47906 5.70679
112 Ni 9.46705 10.6988 5.51403
113 Al 9.24189 6.7558 9.27403
114 Al 6.59917 7.73161 10.6834
115 Al 6.56622 7.5773 7.79313
116 Al 8.97001 8.85036 11.5409
117 Al 5.41607 11.0534 10.6792
118 Al 7.85301 12.1071 14.3996
119 Al 5.43989 11.0106 7.81012
120 Al 7.79404 11.9397 11.6036
121 Al 8.82179 8.65171 14.397
122 Al 7.53505 9.80592 9.24705
123 Al 5.27826 13.1767 12.8297
124 Al 6.72664 9.84353 13.121
125 Ni 7.01787 12.2604 9.23276
126 Ni 5.11917 8.94975 9.24509
127 Ni 7.4138 7.47384 12.9465
128 Ni 9.29719 10.7568 13.0391
ITEM: TIMESTEP
10600
ITEM: NUMBER OF ATOMS
128
ITEM: BOX BOUNDS xy xz yz pp pp pp
-3.0492754264736632e-02 9.7940225433482517e+00 4.5017515152678350e-02
-1.8449194270812358e-01 1.3244717030037343e+01 8.7506451674510100e-02
-3.9769374703621629e-02 1.4893247134515232e+01 -1.3964312596319411e-01
ITEM: ATOMS id element xu yu zu
1 Al 4.50402 0.0319274 1.77316
2 Al 1.76981 1.07667 3.21702
3 Al 1.85287 1.11148 0.401815
4 Al 4.23326 2.1361 4.13312
5 Al 0.712595 4.33343 3.26472
6 Al 3.10879 5.38094 7.06155
7 Al 0.584133 4.4938 0.407753
8 Al 3.11591 5.39297 4.10059
9 Al 4.28083 2.12943 6.94861
10 Al 2.91207 3.30969 1.83891
11 Al 0.515413 6.41877 5.50853
12 Al 2.10525 3.1836 5.517
13 Ni 2.13063 5.82882 1.89578
14 Ni 0.213217 2.42334 1.78876
15 Ni 2.71937 0.724845 5.40641
16 Ni 4.65806 4.05837 5.48701
17 Al 4.4599 0.00392941 9.26546
18 Al 1.86539 0.963522 10.6985
19 Al 1.80675 0.999498 7.84001
20 Al 4.1103 1.99051 11.6104
21 Al 0.664184 4.32905 10.8082
22 Al 3.23291 5.40302 14.642
23 Al 0.600289 4.31743 7.918
24 Al 2.95013 5.39389 11.563
25 Al 4.26456 2.16998 14.3311
26 Al 2.8759 3.30571 9.4821
27 Al 0.496792 6.34403 13.0167
28 Al 2.06621 2.94216 12.9949
29 Ni 2.08588 5.7602 9.32059
30 Ni 0.370648 2.38857 9.33622
31 Ni 2.66801 0.599546 13.031
32 Ni 4.53207 4.08971 12.863
33 Al 4.53734 6.65624 2.00997
34 Al 1.86318 7.79632 3.35451
35 Al 1.71913 7.75861 0.459652
36 Al 4.36798 8.67428 4.16728
37 Al 0.781684 11.0227 3.24278
38 Al 3.15733 12.155 6.98547
39 Al 0.713429 10.9942 0.358431
40 Al 3.33488 12.0327 4.09766
41 Al 4.22934 8.76105 7.10445
42 Al 3.01371 9.95583 1.8873
43 Al 0.534315 13.1421 5.6634
44 Al 2.0104 9.82685 5.31622
45 Ni 2.2271 12.3488 1.70733
46 Ni 0.0539317 9.11142 1.90792
47 Ni 2.81209 7.32632 5.58299
48 Ni 4.59948 10.7106 5.6007
49 Al 4.38406 6.69965 9.28549
50 Al 1.78506 7.72124 10.7244
51 Al 1.75733 7.72716 7.70647
52 Al 4.18253 8.74401 11.5474
53 Al 0.800478 10.8727 10.6678
54 Al 3.11912 11.9616 14.4223
55 Al 0.631242 11.0143 7.78448
56 Al 3.14834 11.7806 11.5237
57 Al 4.26344 8.63087 14.4651
58 Al 2.71398 9.84127 9.19169
59 Al 0.542755 12.8661 13.0136
60 Al 2.10702 9.73386 12.9824
61 Ni 2.21041 12.2781 9.23951
62 Ni 0.231761 8.95236 9.223
63 Ni 2.71122 7.2627 13.0361
64 Ni 4.70211 10.7092 13.0456
65 Al 9.4049 0.0963061 1.95511
66 Al 6.57101 0.928495 3.3232
67 Al 6.68311 0.908237 0.363164
68 Al 9.10275 2.05833 4.13976
69 Al 5.39486 4.36719 3.11429
70 Al 7.8401 5.34627 6.97546
71 Al 5.53642 4.64999 0.393511
72 Al 7.89073 5.38451 4.09411
73 Al 9.01953 1.99801 6.99341
74 Al 7.6457 3.36657 1.7026
75 Al 5.28125 6.5365 5.73417
76 Al 6.90083 3.07325 5.48406
77 Ni 7.05548 5.82814 1.84409
78 Ni 5.23825 2.42084 1.73967
79 Ni 7.54344 0.730818 5.48211
80 Ni 9.4834 4.10251 5.48356
81 Al 9.19589 0.0256007 9.30659
82 Al 6.58838 1.15447 10.7286
83 Al 6.55262 1.00632 7.83454
84 Al 9.14606 1.87482 11.5539
85 Al 5.5272 4.31423 10.7054
86 Al 7.91561 5.44583 14.4889
87 Al 5.4585 4.43906 7.82403
88 Al 8.13964 5.44595 11.5272
89 Al 9.18775 1.9554 14.3693
90 Al 7.8215 3.27442 9.40236
91 Al 5.25821 6.43344 12.9264
92 Al 6.88846 3.09966 13.0002
93 Ni 7.01734 5.75297 9.31166
94 Ni 5.11104 2.4161 9.19556
95 Ni 7.62991 0.739942 12.94
96 Ni 9.43451 4.01247 13.1701
97 Al 9.32566 6.80716 1.83416
98 Al 6.69501 7.76286 3.24852
99 Al 6.69548 7.7648 0.396134
100 Al 9.12482 8.77395 4.10926
101 Al 5.68016 10.8595 3.32458
102 Al 7.8414 12.0642 6.92527
103 Al 5.44267 11.0112 0.347229
104 Al 8.02674 12.1009 3.97698
105 Al 9.12067 8.70767 6.8984
106 Al 7.62317 10.0357 1.49798
107 Al 5.51807 12.9829 5.59829
108 Al 6.96755 9.86154 5.56006
109 Ni 6.95136 12.3297 1.73861
110 Ni 5.2359 9.04169 1.72733
111 Ni 7.6495 7.44735 5.4636
112 Ni 9.47877 10.7715 5.47424
113 Al 9.34453 6.55334 9.26515
114 Al 6.5944 7.73825 10.7138
115 Al 6.72972 7.82424 7.77081
116 Al 9.00193 8.64971 11.5348
117 Al 5.70695 10.8847 10.7889
118 Al 8.18914 11.921 14.5436
119 Al 5.47577 10.9638 7.92283
120 Al 7.97498 12.1719 11.4984
121 Al 9.1859 8.56683 14.217
122 Al 7.86107 10.1984 9.18316
123 Al 5.41312 13.1057 13.1419
124 Al 7.0179 9.818 13.0051
125 Ni 6.92935 12.4002 9.31352
126 Ni 5.14036 8.9725 9.30629
127 Ni 7.5336 7.30312 12.9949
128 Ni 9.47849 10.5847 12.9577
ITEM: TIMESTEP
10700
ITEM: NUMBER OF ATOMS
128
ITEM: BOX BOUNDS xy xz yz pp pp pp
-5.6724079334398603e-02 9.7890860043913879e+00 -1.4428531136990944e-02
5.4074849034906336e-03 1.3205415476238926e+01 1.1578463393764830e-01
-4.7094630737767318e-03 1.4858187222885395e+01 1.0954747850017266e-02
ITEM: ATOMS id element xu yu zu
1 Al 4.50146 0.0832694 1.70844
2 Al 1.71136 1.11921 3.26053
3 Al 1.69022 1.12195 0.316759
4 Al 4.0309 2.23307 4.11228
5 Al 0.775792 4.48123 3.46656
6 Al 3.14151 5.40975 6.99267
7 Al 0.710731 4.28448 0.247394
8 Al 3.18898 5.54086 3.99304
9 Al 4.13483 2.13957 7.02574
10 Al 2.84124 3.30287 1.87003
11 Al 0.26997 6.63778 5.57311
12 Al 1.93098 3.24516 5.41084
13 Ni 2.21518 5.70392 1.73168
14 Ni 0.330262 2.44883 1.83002
15 Ni 2.58685 0.9208 5.57442
16 Ni 4.45395 4.16864 5.5589
17 Al 4.44488 0.163584 9.16503
18 Al 1.86743 1.37443 10.7077
19 Al 1.617 1.02204 7.85607
20 Al 4.3783 2.3199 11.6311
21 Al 0.635436 4.64046 10.5482
22 Al 3.12913 5.51868 14.3317
23 Al 0.606583 4.51046 7.82662
24 Al 3.23912 5.60152 11.5011
25 Al 4.36308 2.15025 14.517
26 Al 2.86053 3.24868 9.07828
27 Al 0.463495 6.61742 13.017
28 Al 2.32974 3.28965 13.0309
29 Ni 2.24921 5.63909 9.21666
30 Ni 0.260657 2.40982 9.28498
31 Ni 2.89905 1.00816 12.9092
32 Ni 4.80609 4.15994 13.1188
33 Al 4.49965 6.56437 1.68462
34 Al 1.79353 7.56676 3.18478
35 Al 1.76419 7.64672 0.352961
36 Al 4.09262 8.76252 4.13264
37 Al 0.693898 11.0366 3.33826
38 Al 3.10913 12.1198 6.9477
39 Al 0.554 11.2639 0.242807
40 Al 3.03782 12.1142 4.2463
41 Al 4.42527 8.74972 6.91661
42 Al 2.74669 9.85752 1.77908
43 Al 0.34173 13.2504 5.32515
44 Al 1.89515 9.87263 5.60647
45 Ni 2.07911 12.4063 1.79899
46 Ni 0.460961 8.97894 1.80903
47 Ni 2.51798 7.54687 5.50488
48 Ni 4.5614 10.7995 5.53497
49 Al 4.42182 6.59527 9.18605
50 Al 1.72769 7.63382 10.6695
51 Al 1.76729 7.58415 7.82607
52 Al 4.2049 8.73584 11.4401
53 Al 0.735006 11.0914 10.7086
54 Al 3.1674 12.1078 14.4158
55 Al 0.645039 10.9996 7.86198
56 Al 3.04026 12.1293 11.5438
57 Al 4.34419 8.8779 14.4009
58 Al 2.83207 10.0364 9.33339
59 Al 0.521392 13.2594 12.98
60 Al 1.9498 9.87888 12.918
61 Ni 2.29554 12.3065 9.22474
62 Ni 0.370789 9.06435 9.31833
63 Ni 2.80569 7.58865 12.9549
64 Ni 4.60303 10.7748 12.9291
65 Al 9.2654 0.105984 1.68286
66 Al 6.68267 1.16771 3.28929
67 Al 6.62588 1.25575 0.362063
68 Al 8.96704 2.19808 4.04126
69 Al 5.51716 4.40653 3.36565
70 Al 7.85008 5.47399 7.11551
71 Al 5.63537 4.37215 0.460785
72 Al 7.93346 5.57088 4.18631
73 Al 9.0426 2.22046 6.95636
74 Al 7.69298 3.35525 1.89488
75 Al 5.23853 6.46218 5.40358
76 Al 6.92249 3.30153 5.52146
77 Ni 6.91264 5.67655 1.86143
78 Ni 5.04588 2.4192 1.94589
79 Ni 7.57425 0.840878 5.55724
80 Ni 9.32167 4.18973 5.55052
81 Al 9.47654 -0.0195649 9.3139
82 Al 6.83854 1.12939 10.6925
83 Al 6.59204 1.17626 7.89146
84 Al 9.12743 2.19756 11.5305
85 Al 5.51707 4.44817 10.7229
86 Al 8.13786 5.51189 14.4701
87 Al 5.54519 4.27238 7.80361
88 Al 8.01771 5.47816 11.5365
89 Al 9.1066 2.3187 14.4147
90 Al 7.69971 3.28874 9.22504
91 Al 5.35897 6.58054 13.0449
92 Al 7.09176 3.29274 12.9559
93 Ni 6.87664 5.76542 9.22745
94 Ni 5.23584 2.40045 9.37119
95 Ni 7.6596 0.947803 13.0391
96 Ni 9.54267 4.19199 12.8537
97 Al 9.3236 6.4907 1.76415
98 Al 6.44685 7.65779 3.35765
99 Al 6.50128 7.6581 0.411994
100 Al 9.07462 8.87932 4.10045
101 Al 5.30769 11.0125 3.18522
102 Al 8.06184 12.1764 7.01213
103 Al 5.55581 10.9485 0.369847
104 Al 7.68731 12.0569 4.26619
105 Al 8.97785 8.83229 7.11243
106 Al 7.66317 9.90116 2.10898
107 Al 5.24321 13.3244 5.44356
108 Al 6.84074 9.79875 5.57267
109 Ni 6.96338 12.3836 1.86869
110 Ni 5.05744 9.00111 1.90891
111 Ni 7.48245 7.47864 5.6016
112 Ni 9.44785 10.8493 5.6543
113 Al 9.18842 6.65726 9.31685
114 Al 6.5435 7.60831 10.7197
115 Al 6.59115 7.7175 7.84285
116 Al 9.15319 8.78551 11.5547
117 Al 5.48559 11.0386 10.6345
118 Al 7.88725 12.0073 14.37
119 Al 5.64669 11.147 7.75062
120 Al 7.98569 12.1639 11.4737
121 Al 9.02252 8.85955 14.5499
122 Al 7.56913 9.87604 9.47065
123 Al 5.28767 13.1599 12.8636
124 Al 6.95865 9.826 12.8296
125 Ni 7.10284 12.3961 9.27476
126 Ni 5.14176 9.13121 9.2372
127 Ni 7.79477 7.47385 12.9857
128 Ni 9.47543 10.8023 13.0081
ITEM: TIMESTEP
10800
ITEM: NUMBER OF ATOMS
128
ITEM: BOX BOUNDS xy xz yz pp pp pp
-1.7162569098875691e-01 9.6733621154697040e+00 -7.1001530417359890e-02
8.4470620221370751e-03 1.3289645052990126e+01 -5.8267867358033368e-02
-5.2980853250731208e-02 1.4906458613062355e+01 9.8223901719853651e-02
ITEM: ATOMS id element xu yu zu
1 Al 4.34711 0.0873636 1.87826
2 Al 1.6701 1.22064 3.22688
3 Al 1.58001 1.03518 0.472653
4 Al 4.11424 2.05273 4.0007
5 Al 0.34441 4.53326 3.07133
6 Al 2.97165 5.55955 7.07716
7 Al 0.607425 4.58977 0.229322
8 Al 2.76355 5.36029 4.13754
9 Al 4.1478 2.2258 6.87665
10 Al 2.80736 3.40975 1.72202
11 Al 0.482983 6.60609 5.60254
12 Al 2.0266 3.16351 5.74168
13 Ni 2.04288 5.8369 1.89913
14 Ni 0.199968 2.47444 1.71997
15 Ni 2.66946 0.812971 5.56142
16 Ni 4.48541 4.25621 5.54203
17 Al 4.34008 0.0381369 9.3631
18 Al 1.45333 1.20159 10.7629
19 Al 1.72601 1.35709 7.87796
20 Al 3.97847 2.18927 11.496
21 Al 0.704713 4.47328 10.6493
22 Al 3.00888 5.6669 14.56
23 Al 0.683144 4.58142 7.89811
24 Al 3.08511 5.55414 11.4636
25 Al 4.04627 2.24994 14.3829
26 Al 2.90524 3.43806 9.28261
27 Al 0.243934 6.71905 12.9634
28 Al 1.91851 3.22067 13.0367
29 Ni 2.13456 5.89319 9.30714
30 Ni 0.287862 2.55189 9.23711
31 Ni 2.51867 0.873136 13.0734
32 Ni 4.41283 4.18581 12.94
33 Al 4.33093 6.76066 1.90681
34 Al 1.69671 7.85329 3.2819
35 Al 1.59636 7.79261 0.424023
36 Al 4.06966 8.83307 3.94513
37 Al 0.496404 10.9856 3.24228
38 Al 2.87963 12.08 7.11983
39 Al 0.587101 10.9609 0.33639
40 Al 2.85993 12.0467 4.07852
41 Al 3.97205 8.90404 7.0679
42 Al 2.75665 9.95807 1.87838
43 Al 0.311319 13.1546 5.64558
44 Al 1.82911 10.0115 5.52506
45 Ni 1.96512 12.3374 1.83884
46 Ni -0.00139961 9.08803 1.8132
47 Ni 2.74826 7.5295 5.46688
48 Ni 4.33237 10.7683 5.50392
49 Al 4.53169 6.6095 9.37248
50 Al 1.75697 7.84033 10.7008
51 Al 1.56661 7.75026 7.81624
52 Al 4.20065 8.86081 11.626
53 Al 0.580657 11.0801 10.8254
54 Al 2.87825 12.2047 14.5795
55 Al 0.528534 11.1215 7.76382
56 Al 3.06985 12.2565 11.6126
57 Al 4.09653 8.741 14.5102
58 Al 2.75635 10.1718 9.39825
59 Al 0.213678 13.2763 12.9298
60 Al 1.94618 10.0028 13.0523
61 Ni 1.84849 12.4568 9.34242
62 Ni 0.166236 9.16783 9.33978
63 Ni 2.65467 7.47149 13.0025
64 Ni 4.44896 10.8349 13.0533
65 Al 9.20342 0.132268 1.87791
66 Al 6.65476 1.11139 3.2111
67 Al 6.49727 1.25427 0.268187
68 Al 9.00585 2.2621 4.07912
69 Al 5.48177 4.50879 3.31111
70 Al 7.83285 5.5435 7.0109
71 Al 5.45538 4.41608 0.293496
72 Al 7.88859 5.58345 4.1712
73 Al 8.90904 2.35623 6.99787
74 Al 7.57209 3.35761 1.70922
75 Al 5.07949 6.68715 5.71055
76 Al 6.81756 3.32451 5.57483
77 Ni 6.99274 5.79692 1.67729
78 Ni 5.03169 2.38592 1.64939
79 Ni 7.53105 0.977793 5.50251
80 Ni 9.48961 4.22997 5.49068
81 Al 9.14946 0.227385 9.32848
82 Al 6.59117 1.11114 10.6798
83 Al 6.52019 1.14339 7.876
84 Al 8.86482 2.39255 11.5506
85 Al 5.5047 4.42554 10.6453
86 Al 7.72755 5.52894 14.4186
87 Al 5.32008 4.6375 7.83958
88 Al 7.89637 5.50872 11.5962
89 Al 8.95532 2.28686 14.502
90 Al 7.54867 3.41466 9.12107
91 Al 5.1567 6.61595 13.0004
92 Al 6.77967 3.24462 13.059
93 Ni 7.05913 5.84018 9.24362
94 Ni 5.08094 2.53254 9.13726
95 Ni 7.51161 0.918468 12.9505
96 Ni 9.36397 4.30595 13.0384
97 Al 9.05377 6.82048 1.72142
98 Al 6.54768 7.8441 3.2196
99 Al 6.55178 7.80136 0.347217
100 Al 8.85815 8.76871 4.02138
101 Al 5.53177 11.1154 3.29023
102 Al 7.83754 11.9415 7.0005
103 Al 5.38788 11.0972 0.302807
104 Al 7.92124 12.2915 4.1721
105 Al 8.94563 8.85528 6.86925
106 Al 7.5934 10.0723 1.71044
107 Al 5.12882 13.2013 5.6086
108 Al 6.72171 9.97566 5.46159
109 Ni 6.89453 12.2917 1.74683
110 Ni 4.95441 9.06474 1.76692
111 Ni 7.36322 7.47398 5.50113
112 Ni 9.21295 10.6449 5.45148
113 Al 9.27392 6.61406 9.21213
114 Al 6.71117 7.91657 10.6237
115 Al 6.5437 7.85001 7.82101
116 Al 9.00358 8.88165 11.566
117 Al 5.41476 10.9581 10.7464
118 Al 7.94844 12.2304 14.4966
119 Al 5.42056 10.9334 7.80977
120 Al 7.72186 11.9406 11.5761
121 Al 8.9527 8.90205 14.3388
122 Al 7.6157 9.97711 9.1656
123 Al 5.13685 13.1454 13.1991
124 Al 6.63967 9.86153 13.2459
125 Ni 6.90043 12.3019 9.22869
126 Ni 5.11154 9.0587 9.31161
127 Ni 7.41797 7.66661 13.0761
128 Ni 9.46393 10.8939 13.0957
ITEM: TIMESTEP
10900
ITEM: NUMBER OF ATOMS
128
ITEM: BOX BOUNDS xy xz yz pp pp pp
-1.2312334182922689e-01 9.6507881877466417e+00 -2.7582122900681971e-02
-3.8981071340440820e-02 1.3283135748850647e+01 -7.5758853438245372e-02
-2.4458038125932724e-02 1.4877935797937557e+01 4.4286464217790811e-02
ITEM: ATOMS id element xu yu zu
1 Al 4.31015 0.213384 1.78964
2 Al 1.72075 1.14731 3.26223
3 Al 1.64216 1.25859 0.434985
4 Al 4.10909 2.13225 4.12942
5 Al 0.77395 4.34034 3.29213
6 Al 3.11391 5.53059 7.04809
7 Al 0.506502 4.41104 0.419423
8 Al 3.08672 5.7174 3.99042
9 Al 3.9932 2.20215 7.04685
10 Al 2.78384 3.28315 1.8589
11 Al 0.333411 6.56103 5.40759
12 Al 2.10691 3.41177 5.47227
13 Ni 2.04283 5.72516 1.76256
14 Ni 0.179108 2.40294 1.87184
15 Ni 2.79487 0.952495 5.48772
16 Ni 4.57801 4.17919 5.58288
17 Al 4.39439 0.0614592 9.21125
18 Al 1.72815 1.0902 10.4691
19 Al 1.75898 1.19384 7.72918
20 Al 4.05821 2.18516 11.5875
21 Al 0.602522 4.41103 10.6355
22 Al 2.87557 5.45722 14.5189
23 Al 0.677402 4.50542 7.78168
24 Al 2.89856 5.45344 11.5868
25 Al 4.19535 2.19762 14.5074
26 Al 2.7826 3.31795 9.34475
27 Al 0.330217 6.4373 12.9567
28 Al 1.82353 3.25292 12.9833
29 Ni 2.04048 5.77171 9.2948
30 Ni 0.229292 2.45453 9.23954
31 Ni 2.57118 0.909704 12.9055
32 Ni 4.33584 4.15006 13.0014
33 Al 4.32606 6.77383 1.68607
34 Al 1.8108 7.92061 3.33333
35 Al 1.74697 7.81101 0.436174
36 Al 4.14529 8.78968 4.06188
37 Al 0.699358 11.0887 3.2847
38 Al 2.91137 12.1034 6.81185
39 Al 0.554 11.0328 0.332253
40 Al 3.05132 12.1303 3.99767
41 Al 4.22459 8.85567 6.93575
42 Al 2.85764 10.0051 1.81523
43 Al 0.312367 13.1789 5.49574
44 Al 1.94264 9.92164 5.56083
45 Ni 2.13268 12.4442 1.77225
46 Ni 0.257459 9.03919 1.84887
47 Ni 2.67115 7.43189 5.63065
48 Ni 4.62436 10.805 5.60968
49 Al 4.20465 6.6225 9.3255
50 Al 1.64254 7.74636 10.8033
51 Al 1.76668 7.77606 7.9635
52 Al 4.13142 8.85424 11.6771
53 Al 0.460652 11.0659 10.616
54 Al 2.8745 12.301 14.415
55 Al 0.705712 11.0524 7.78199
56 Al 2.88866 12.109 11.4842
57 Al 4.04754 8.85957 14.4706
58 Al 2.67839 9.94177 9.19342
59 Al 0.313611 13.2352 13.121
60 Al 1.77349 9.94309 12.9479
61 Ni 2.18389 12.3631 9.16706
62 Ni 0.230183 9.07408 9.31404
63 Ni 2.56673 7.45949 13.0421
64 Ni 4.40378 10.8268 12.967
65 Al 9.33853 0.0243011 1.89568
66 Al 6.51622 1.20105 3.40555
67 Al 6.55125 1.19497 0.434372
68 Al 8.99214 2.21029 4.1454
69 Al 5.33937 4.44463 3.33473
70 Al 7.96539 5.61645 7.02055
71 Al 5.45547 4.45133 0.249987
72 Al 7.90003 5.32413 3.96391
73 Al 9.09466 2.11065 6.95934
74 Al 7.64706 3.35518 1.78225
75 Al 5.33187 6.50335 5.40136
76 Al 6.81759 3.1742 5.4753
77 Ni 6.84348 5.72377 1.83796
78 Ni 5.09244 2.58163 1.89177
79 Ni 7.46176 0.893811 5.45747
80 Ni 9.33724 4.18141 5.49527
81 Al 9.26304 0.138065 9.17451
82 Al 6.41235 1.11956 10.7503
83 Al 6.63128 1.28596 7.88522
84 Al 8.97639 2.05798 11.5562
85 Al 5.21382 4.49388 10.6702
86 Al 7.82527 5.46331 14.6255
87 Al 5.57661 4.37638 7.75229
88 Al 7.78376 5.46504 11.5145
89 Al 8.83106 2.13737 14.4742
90 Al 7.57159 3.45685 9.49411
91 Al 5.1683 6.50094 12.9252
92 Al 6.79112 3.28674 13.0546
93 Ni 6.85763 5.68636 9.27782
94 Ni 5.06341 2.45396 9.27085
95 Ni 7.42048 0.911614 12.9659
96 Ni 9.15798 4.18581 13.0765
97 Al 9.26886 6.55788 1.90251
98 Al 6.65944 7.70752 3.23767
99 Al 6.48696 7.63957 0.228018
100 Al 8.89777 8.93084 4.09175
101 Al 5.48649 11.053 3.24638
102 Al 7.80914 12.0479 7.00711
103 Al 5.43299 11.1823 0.346438
104 Al 7.8993 11.995 3.98149
105 Al 8.96918 8.72882 6.9879
106 Al 7.61248 9.84469 1.71356
107 Al 5.21676 13.179 5.39947
108 Al 6.83575 9.94729 5.68982
109 Ni 6.89635 12.4526 1.85813
110 Ni 5.21092 9.04229 1.85516
111 Ni 7.56407 7.47092 5.48958
112 Ni 9.4204 10.8752 5.61244
113 Al 9.0187 6.72269 9.33167
114 Al 6.40982 7.8172 10.6466
115 Al 6.45801 7.60034 7.92188
116 Al 8.84188 8.79696 11.5018
117 Al 5.35527 11.2302 10.7827
118 Al 7.71922 12.0818 14.4478
119 Al 5.39307 11.1239 7.98466
120 Al 7.95435 12.3721 11.4387
121 Al 8.8883 8.60083 14.3934
122 Al 7.57983 10.0972 9.33716
123 Al 5.04071 13.2041 12.9125
124 Al 6.68828 9.87102 12.9233
125 Ni 6.84852 12.5036 9.32353
126 Ni 5.06452 9.23611 9.28606
127 Ni 7.42265 7.38251 12.9719
128 Ni 9.20614 10.8025 12.971
ITEM: TIMESTEP
11000
ITEM: NUMBER OF ATOMS
128
ITEM: BOX BOUNDS xy xz yz pp pp pp
7.3026850198560922e-03 9.7271668657735404e+00 5.3608606802314065e-02
-1.5086391650366587e-01 1.3258615976155440e+01 4.9855121734736906e-02
-1.9692996701925480e-03 1.4855447059481826e+01 -9.2116153640644807e-02
ITEM: ATOMS id element xu yu zu
1 Al 4.45869 -0.264063 1.77733
2 Al 1.91276 1.09434 3.16762
3 Al 1.78767 0.984855 0.409446
4 Al 4.24866 2.16357 4.10955
5 Al 0.613953 4.41465 3.29742
6 Al 3.08851 5.4724 6.97076
7 Al 0.652915 4.38631 0.417089
8 Al 3.03178 5.39175 4.15848
9 Al 4.17105 2.09406 6.98128
10 Al 2.90697 3.38174 1.85174
11 Al 0.40061 6.47887 5.66207
12 Al 1.85166 2.95662 5.54403
13 Ni 2.20674 5.7267 1.86919
14 Ni 0.3942 2.39038 1.82424
15 Ni 2.71763 0.849186 5.58007
16 Ni 4.54073 4.15918 5.52219
17 Al 4.45 0.0035793 9.28996
18 Al 1.79736 1.0541 10.7363
19 Al 1.74371 0.943982 7.81912
20 Al 4.17879 2.06827 11.5383
21 Al 0.617134 4.41255 10.7224
22 Al 3.11066 5.3715 14.4121
23 Al 0.680865 4.36525 7.86006
24 Al 3.03674 5.33362 11.5674
25 Al 4.22908 2.20525 14.4691
26 Al 2.73923 3.09549 9.12893
27 Al 0.479286 6.48562 13.0545
28 Al 2.09089 3.16044 12.9235
29 Ni 2.20648 5.63848 9.25162
30 Ni 0.334417 2.28147 9.31247
31 Ni 2.82846 0.68139 13.0037
32 Ni 4.68567 4.18104 13.0041
33 Al 4.52321 6.62522 1.93712
34 Al 1.94417 7.65095 3.15497
35 Al 1.76141 7.73471 0.405426
36 Al 4.24093 8.7063 4.11924
37 Al 0.673987 11.1174 3.34243
38 Al 3.21599 12.0466 7.03929
39 Al 0.725092 11.1657 0.353004
40 Al 3.1552 12.2748 4.0914
41 Al 4.10391 8.77166 7.0665
42 Al 2.76202 10 1.79813
43 Al 0.428871 13.1537 5.51774
44 Al 2.13792 10.0031 5.49999
45 Ni 2.20194 12.35 1.87965
46 Ni 0.408675 9.10463 1.73859
47 Ni 2.70818 7.51812 5.4668
48 Ni 4.58839 10.7837 5.49054
49 Al 4.40056 6.49464 9.1543
50 Al 1.7814 7.71611 10.6052
51 Al 1.76039 7.77356 7.77188
52 Al 4.21267 8.66545 11.5062
53 Al 0.669498 11.013 10.7238
54 Al 3.15148 11.8527 14.4358
55 Al 0.796952 11.0567 7.78592
56 Al 3.265 12.0431 11.4247
57 Al 4.19826 8.80378 14.3865
58 Al 2.80367 9.98018 9.14537
59 Al 0.553774 13.017 12.8892
60 Al 1.99114 9.79466 12.9706
61 Ni 2.2153 12.3655 9.36759
62 Ni 0.280655 8.9647 9.20277
63 Ni 2.64794 7.51952 12.8809
64 Ni 4.76224 10.7364 12.911
65 Al 9.35097 0.00434554 1.7317
66 Al 6.58293 1.05056 3.29315
67 Al 6.46543 1.05288 0.351233
68 Al 9.0053 2.09933 4.10776
69 Al 5.56502 4.45116 3.30838
70 Al 7.8682 5.40594 7.09185
71 Al 5.50921 4.41874 0.384082
72 Al 7.95042 5.58596 4.19082
73 Al 8.99432 2.06513 7.11313
74 Al 7.76365 3.26989 1.88038
75 Al 5.25444 6.55996 5.60466
76 Al 6.76875 3.24175 5.48971
77 Ni 7.14084 5.7746 1.83366
78 Ni 5.1473 2.31458 1.82183
79 Ni 7.62515 0.863818 5.59985
80 Ni 9.38561 4.1522 5.59239
81 Al 9.34057 -0.114886 9.3708
82 Al 6.64278 1.02975 10.6957
83 Al 6.53555 1.01106 7.93265
84 Al 9.00734 1.90253 11.588
85 Al 5.53225 4.41164 10.7112
86 Al 7.95365 5.3445 14.4417
87 Al 5.36463 4.41318 7.92406
88 Al 7.86323 5.38112 11.5871
89 Al 9.00793 2.02215 14.4044
90 Al 7.65221 3.29949 9.15535
91 Al 5.29118 6.6786 13.0563
92 Al 6.81222 3.06068 13.0004
93 Ni 6.99035 5.80238 9.30432
94 Ni 5.12179 2.41054 9.34168
95 Ni 7.511 0.797269 13.059
96 Ni 9.39792 3.94149 12.9303
97 Al 9.32463 6.63282 1.75391
98 Al 6.62278 7.77052 3.24981
99 Al 6.68397 7.83475 0.487431
100 Al 9.19433 8.62674 4.09093
101 Al 5.50076 10.991 3.24661
102 Al 8.0953 12.1083 6.95496
103 Al 5.6421 10.9644 0.400382
104 Al 7.86954 11.9564 4.04321
105 Al 9.10241 8.84951 6.91647
106 Al 7.8315 9.9801 1.89602
107 Al 5.36868 13.2445 5.50913
108 Al 6.86443 9.84759 5.38486
109 Ni 6.99601 12.3152 1.76573
110 Ni 5.01453 9.04857 1.80182
111 Ni 7.6172 7.50503 5.631
112 Ni 9.52377 10.8197 5.53678
113 Al 9.18504 6.52677 9.31872
114 Al 6.55929 7.69337 10.7669
115 Al 6.79804 7.80457 7.84871
116 Al 9.04847 8.78037 11.508
117 Al 5.46397 10.957 10.588
118 Al 7.95631 11.9669 14.4165
119 Al 5.80085 11.036 7.70367
120 Al 7.70335 12.007 11.5801
121 Al 8.93727 8.81897 14.4867
122 Al 7.61648 9.88654 9.34686
123 Al 5.22297 13.2005 12.9079
124 Al 6.91272 9.90346 12.9417
125 Ni 6.98674 12.3263 9.25491
126 Ni 5.20333 8.95548 9.21298
127 Ni 7.51196 7.47627 13.0455
128 Ni 9.38052 10.6942 12.9504
ITEM: TIMESTEP
11100
ITEM: NUMBER OF ATOMS
128
ITEM: BOX BOUNDS xy xz yz pp pp pp
-2.3875420011971293e-02 9.7798422224814310e+00 5.6873395120070266e-02
-1.2031496222290906e-01 1.3244300323557356e+01 6.8087585093050795e-02
-3.5450023083284599e-02 1.4888927782894935e+01 -7.5882851957969191e-02
ITEM: ATOMS id element xu yu zu
1 Al 4.40263 0.144744 1.91597
2 Al 1.75332 0.925383 3.30776
3 Al 1.75818 1.10112 0.418363
4 Al 4.28614 2.04122 4.08969
5 Al 0.60356 4.47165 3.25768
6 Al 3.18027 5.35851 7.18149
7 Al 0.741858 4.4379 0.33524
8 Al 3.09877 5.36683 4.01225
9 Al 4.18103 2.03261 6.97838
10 Al 2.74927 3.24871 1.76421
11 Al 0.347447 6.48866 5.44634
12 Al 2.12282 3.31992 5.55136
13 Ni 2.08755 5.75397 1.78323
14 Ni 0.248085 2.44592 1.77493
15 Ni 2.74733 0.666926 5.53813
16 Ni 4.60479 4.06598 5.53941
17 Al 4.49134 -0.0260148 9.31167
18 Al 1.80007 1.18288 10.6595
19 Al 1.72257 1.19276 7.89966
20 Al 4.2872 1.95581 11.5369
21 Al 0.805436 4.46276 10.8898
22 Al 3.21269 5.3724 14.4354
23 Al 0.592472 4.36899 7.85125
24 Al 3.17463 5.38103 11.5373
25 Al 4.37493 1.96645 14.4299
26 Al 3.01546 3.51289 9.42876
27 Al 0.635669 6.54695 12.9172
28 Al 2.1267 3.23528 13.0062
29 Ni 2.15205 5.76398 9.28525
30 Ni 0.26536 2.42115 9.21265
31 Ni 2.74788 0.815026 12.9701
32 Ni 4.63998 3.97696 13.027
33 Al 4.40174 6.56257 1.91705
34 Al 1.64748 7.59473 3.35182
35 Al 1.7684 7.67614 0.548653
36 Al 4.21138 8.81212 4.07378
37 Al 0.613603 11.0315 3.24725
38 Al 3.10434 12.0498 7.01621
39 Al 0.817883 11.0204 0.427618
40 Al 3.04146 11.8997 4.01903
41 Al 4.25156 8.61257 6.94351
42 Al 2.98587 10.0315 1.72334
43 Al 0.494039 13.1202 5.6078
44 Al 1.81882 9.70713 5.6599
45 Ni 2.25434 12.4648 1.70108
46 Ni 0.21283 9.02028 1.87751
47 Ni 2.7678 7.38613 5.54111
48 Ni 4.65561 10.7728 5.51129
49 Al 4.49998 6.59159 9.29458
50 Al 1.82743 7.77398 10.7536
51 Al 1.83556 7.8102 7.76642
52 Al 4.31866 8.61655 11.5528
53 Al 0.77631 11.0094 10.7904
54 Al 3.26097 12.1613 14.5345
55 Al 0.551611 11.1629 7.754
56 Al 3.0609 12.0613 11.6619
57 Al 4.33699 8.64572 14.43
58 Al 2.89574 10.0158 9.41587
59 Al 0.527451 13.2496 12.9968
60 Al 2.22295 9.66329 13.075
61 Ni 2.15145 12.3477 9.24058
62 Ni 0.479416 9.1047 9.23715
63 Ni 2.91926 7.28204 13.0238
64 Ni 4.60923 10.6999 13.1061
65 Al 9.26635 0.0598259 1.87493
66 Al 6.61342 1.19856 3.13712
67 Al 6.71818 1.26316 0.333592
68 Al 8.89526 2.17261 4.02559
69 Al 5.52535 4.36795 3.32658
70 Al 7.98452 5.55487 6.9351
71 Al 5.34768 4.40838 0.34297
72 Al 7.88963 5.47234 4.05163
73 Al 9.05325 2.09414 6.87624
74 Al 7.69009 3.40943 1.75935
75 Al 5.15848 6.40823 5.39959
76 Al 6.87719 3.26525 5.64259
77 Ni 6.88737 5.72776 1.8235
78 Ni 5.09946 2.46861 1.77009
79 Ni 7.45885 0.747069 5.53877
80 Ni 9.36397 4.11686 5.48233
81 Al 9.23884 0.141041 9.26017
82 Al 6.66709 0.984177 10.6878
83 Al 6.61074 1.0878 7.75055
84 Al 8.95547 2.245 11.5461
85 Al 5.61651 4.34253 10.7235
86 Al 8.05064 5.41594 14.5764
87 Al 5.57687 4.47117 7.87674
88 Al 8.07263 5.38604 11.3382
89 Al 9.14592 2.10868 14.3359
90 Al 7.68221 3.16708 9.28375
91 Al 5.48453 6.46674 12.8832
92 Al 6.90229 3.30572 13.1124
93 Ni 7.07304 5.65631 9.21934
94 Ni 5.18562 2.30694 9.16686
95 Ni 7.6556 0.802262 12.9044
96 Ni 9.48917 4.20084 13.0207
97 Al 9.11898 6.66557 1.87576
98 Al 6.5043 7.66101 3.17737
99 Al 6.64615 7.70636 0.357531
100 Al 8.90231 8.84343 4.15172
101 Al 5.57347 11.2473 3.33592
102 Al 7.83728 12.1173 6.95611
103 Al 5.55736 11.123 0.452517
104 Al 8.01834 12.2158 4.07728
105 Al 8.97798 8.58616 7.14056
106 Al 7.64781 10.0099 1.74978
107 Al 5.27779 13.1473 5.63571
108 Al 6.86004 9.96108 5.55811
109 Ni 7.01371 12.416 1.82779
110 Ni 5.21541 9.01614 1.79715
111 Ni 7.4132 7.4363 5.44089
112 Ni 9.31101 10.8019 5.48736
113 Al 9.31037 6.55484 9.11733
114 Al 6.77753 7.72078 10.6621
115 Al 6.56854 7.73541 7.75856
116 Al 9.25578 8.78986 11.5685
117 Al 5.63463 11.1315 10.9507
118 Al 8.08742 12.0568 14.5089
119 Al 5.42666 11.0942 7.92233
120 Al 8.12256 11.966 11.4343
121 Al 9.19487 8.7206 14.4697
122 Al 7.72149 9.89543 9.17152
123 Al 5.48084 13.0199 13.1458
124 Al 6.97111 9.87229 13.0219
125 Ni 6.96189 12.3751 9.21969
126 Ni 5.1009 8.95183 9.27722
127 Ni 7.70048 7.3264 12.9966
128 Ni 9.56673 10.7773 13.0639
ITEM: TIMESTEP
11200
ITEM: NUMBER OF ATOMS
128
ITEM: BOX BOUNDS xy xz yz pp pp pp
-6.4631453967957025e-02 9.6562496728382907e+00 -1.4697554419117855e-03
1.7399970601656989e-02 1.3281312704424828e+01 -3.7917847944088694e-02
-1.8870000559231492e-02 1.4872347760370872e+01 9.8844461734071701e-02
ITEM: ATOMS id element xu yu zu
1 Al 4.34145 0.034795 1.81678
2 Al 1.78018 1.08339 3.1787
3 Al 1.74319 1.26401 0.381302
4 Al 4.05386 2.29412 4.05295
5 Al 0.639651 4.43973 3.29745
6 Al 3.06632 5.48664 6.95742
7 Al 0.661014 4.51918 0.384672
8 Al 3.01383 5.64242 4.07319
9 Al 4.13039 2.12278 6.93108
10 Al 2.8703 3.46062 1.81434
11 Al 0.358157 6.56533 5.50973
12 Al 1.9051 3.27395 5.51782
13 Ni 2.207 5.84649 1.88329
14 Ni 0.200662 2.44668 1.82187
15 Ni 2.58334 0.890032 5.4922
16 Ni 4.48962 4.24894 5.48685
17 Al 4.48364 0.175853 9.01083
18 Al 1.68616 1.17165 10.6904
19 Al 1.62157 1.14618 7.80656
20 Al 4.06361 2.34775 11.649
21 Al 0.574829 4.52439 10.6967
22 Al 3.05904 5.56532 14.4304
23 Al 0.645028 4.60667 7.76639
24 Al 2.99265 5.60224 11.4763
25 Al 4.03213 2.31767 14.4589
26 Al 2.72281 3.27643 9.17253
27 Al 0.350383 6.67036 12.9959
28 Al 1.89091 3.48974 12.9562
29 Ni 2.28155 5.71262 9.14421
30 Ni 0.291032 2.47031 9.15583
31 Ni 2.45685 1.01912 12.9462
32 Ni 4.43026 4.24754 13.0105
33 Al 4.4028 6.71199 1.68238
34 Al 1.7929 7.85861 3.16468
35 Al 1.79548 7.84733 0.25434
36 Al 4.18545 8.79317 4.10846
37 Al 0.623398 10.9098 3.3596
38 Al 2.9588 12.1063 6.95541
39 Al 0.616854 10.9798 0.413918
40 Al 3.05375 12.1787 4.07289
41 Al 4.04937 8.67976 7.04658
42 Al 2.88121 9.9539 1.83022
43 Al 0.32493 13.1985 5.49735
44 Al 1.91419 9.92726 5.43345
45 Ni 2.02983 12.2804 1.90165
46 Ni 0.151309 9.00615 1.74737
47 Ni 2.58425 7.61512 5.56587
48 Ni 4.48044 10.7986 5.5742
49 Al 4.48399 6.76644 9.35677
50 Al 1.78127 7.98283 10.7937
51 Al 1.67707 7.72943 7.92082
52 Al 4.15094 8.93148 11.5667
53 Al 0.74835 11.1179 10.7944
54 Al 2.86711 12.1923 14.4896
55 Al 0.597679 10.9196 7.87799
56 Al 3.11676 12.2511 11.4934
57 Al 4.17438 8.95847 14.3606
58 Al 2.84848 9.86414 9.24416
59 Al 0.263417 13.3012 13.0382
60 Al 2.10575 10.0946 12.9117
61 Ni 2.12121 12.3631 9.22099
62 Ni 0.168791 9.03854 9.34914
63 Ni 2.68659 7.66316 13.0089
64 Ni 4.53495 10.9496 12.8803
65 Al 9.22805 0.0153163 1.80849
66 Al 6.48785 1.14422 3.29337
67 Al 6.46263 1.14076 0.354538
68 Al 9.04863 2.12745 4.17532
69 Al 5.3463 4.53901 3.16101
70 Al 7.92368 5.41536 7.02455
71 Al 5.51702 4.32174 0.31504
72 Al 7.8432 5.44612 4.03603
73 Al 8.87505 2.22862 7.03939
74 Al 7.50619 3.24934 1.97779
75 Al 5.18867 6.69096 5.51971
76 Al 6.77986 3.30227 5.40138
77 Ni 6.94986 5.78293 1.87903
78 Ni 5.09208 2.37901 1.88005
79 Ni 7.49257 0.897421 5.55536
80 Ni 9.41938 4.20426 5.57198
81 Al 9.2571 0.102088 9.23141
82 Al 6.61655 1.37088 10.7009
83 Al 6.58348 1.19503 7.75664
84 Al 9.05364 2.24751 11.6423
85 Al 5.51258 4.5561 10.7513
86 Al 7.8114 5.56939 14.3543
87 Al 5.49473 4.56217 7.7996
88 Al 7.90456 5.59911 11.5136
89 Al 8.80908 2.33531 14.5334
90 Al 7.86844 3.51631 9.26591
91 Al 5.21667 6.62377 13.055
92 Al 6.77488 3.28823 12.8573
93 Ni 6.95425 5.76789 9.34254
94 Ni 5.10894 2.53654 9.3346
95 Ni 7.62513 0.927387 13.06
96 Ni 9.43616 4.29866 12.9379
97 Al 9.33662 6.58595 1.84737
98 Al 6.52377 7.76152 3.31088
99 Al 6.57309 7.70759 0.358843
100 Al 8.94333 8.78267 4.12606
101 Al 5.48133 11.0179 3.38275
102 Al 7.8252 12.1514 7.04216
103 Al 5.41674 11.1862 0.304764
104 Al 7.84864 12.0286 4.1737
105 Al 9.02899 8.6789 7.14403
106 Al 7.59995 9.99415 1.7419
107 Al 5.19441 13.1911 5.45192
108 Al 6.72416 9.84809 5.6942
109 Ni 6.9515 12.3559 1.82295
110 Ni 5.15138 9.0782 1.8248
111 Ni 7.60922 7.40881 5.66854
112 Ni 9.36314 10.7663 5.5693
113 Al 9.18351 6.73996 9.53432
114 Al 6.51141 7.82053 10.7674
115 Al 6.55129 7.78458 7.81619
116 Al 8.9962 8.92234 11.5389
117 Al 5.46203 11.1654 10.6723
118 Al 7.83386 12.1487 14.4239
119 Al 5.46983 11.2121 7.75885
120 Al 7.81457 12.0898 11.5998
121 Al 9.03753 8.86334 14.3721
122 Al 7.73078 10.0201 9.24268
123 Al 5.29041 13.2861 12.861
124 Al 6.70893 9.86819 13.0657
125 Ni 7.05817 12.4099 9.37086
126 Ni 5.15459 9.11513 9.26456
127 Ni 7.47249 7.60446 12.9556
128 Ni 9.36238 10.8539 12.877
ITEM: TIMESTEP
11300
ITEM: NUMBER OF ATOMS
128
ITEM: BOX BOUNDS xy xz yz pp pp pp
-2.4541778904623096e-01 9.6895427672117922e+00 -8.2446368664911895e-02
-2.6378358745887454e-02 1.3310666422394981e+01 -1.0443447542586635e-01
-4.1876106635102772e-02 1.4895353866446751e+01 8.4419850356684492e-02
ITEM: ATOMS id element xu yu zu
1 Al 4.35774 0.0146277 1.85233
2 Al 1.67231 1.31607 3.33769
3 Al 1.55291 1.11705 0.17532
4 Al 4.24123 2.17343 4.07506
5 Al 0.582756 4.43228 3.30884
6 Al 2.97879 5.59088 7.00743
7 Al 0.563788 4.38118 0.351794
8 Al 3.10147 5.47236 3.98825
9 Al 4.07229 2.2061 6.92255
10 Al 2.79905 3.26517 1.80477
11 Al 0.32507 6.57107 5.72662
12 Al 1.86522 3.31752 5.46792
13 Ni 2.02275 5.69822 1.81648
14 Ni 0.152651 2.48261 1.829
15 Ni 2.71136 0.91617 5.52664
16 Ni 4.51534 4.20814 5.59705
17 Al 4.28609 0.148573 9.3883
18 Al 1.67053 1.22644 10.8558
19 Al 1.69858 1.16915 7.95906
20 Al 4.09858 2.21657 11.5824
21 Al 0.470948 4.37872 10.997
22 Al 2.90448 5.61812 14.4421
23 Al 0.572041 4.4731 7.73962
24 Al 2.96055 5.60002 11.6297
25 Al 4.04991 2.33541 14.4977
26 Al 2.62237 3.40801 9.13855
27 Al 0.180492 6.52878 13.146
28 Al 1.89716 3.37398 13.1001
29 Ni 1.88009 5.80717 9.42522
30 Ni 0.125179 2.52526 9.38749
31 Ni 2.68582 0.924236 13.0279
32 Ni 4.50303 4.29452 13.0017
33 Al 4.28244 6.63668 1.83603
34 Al 1.70331 7.69427 3.2276
35 Al 1.62361 7.86088 0.225615
36 Al 4.01247 8.69558 4.01161
37 Al 0.528733 11.1453 3.18636
38 Al 3.05181 12.1752 7.0792
39 Al 0.68779 11.0341 0.3222
40 Al 2.79866 12.2257 4.09377
41 Al 4.1293 8.82657 6.87668
42 Al 2.68295 9.92961 1.88304
43 Al 0.336452 13.2842 5.48145
44 Al 1.92753 9.89882 5.60309
45 Ni 2.03635 12.4717 1.71503
46 Ni 0.250514 9.1371 1.82183
47 Ni 2.6679 7.48078 5.50288
48 Ni 4.58593 10.8029 5.53401
49 Al 4.35904 6.72522 9.22078
50 Al 1.47942 7.7081 10.6774
51 Al 1.69576 7.86843 7.82743
52 Al 3.93007 8.97712 11.5477
53 Al 0.35606 11.1186 10.6952
54 Al 2.85524 12.1861 14.4605
55 Al 0.664125 11.0424 7.77003
56 Al 2.81971 12.0033 11.5896
57 Al 3.86348 8.95609 14.4813
58 Al 2.66773 9.89243 9.19001
59 Al 0.210152 13.2653 12.9475
60 Al 1.60564 9.82079 12.9232
61 Ni 1.96081 12.5252 9.32019
62 Ni 0.0707926 9.07072 9.13018
63 Ni 2.50736 7.67071 12.9638
64 Ni 4.39689 10.8405 13.014
65 Al 9.1991 0.133764 1.76772
66 Al 6.53639 1.0366 3.25821
67 Al 6.62626 1.05992 0.531115
68 Al 8.89171 2.19181 4.11575
69 Al 5.59005 4.37316 3.26634
70 Al 7.85461 5.37509 6.8488
71 Al 5.33875 4.60938 0.347631
72 Al 7.91819 5.52018 3.98547
73 Al 9.06895 2.04288 7.08999
74 Al 7.58206 3.35261 1.67605
75 Al 5.32445 6.57915 5.66549
76 Al 6.88298 3.20543 5.6418
77 Ni 6.96155 5.73358 1.81776
78 Ni 5.05514 2.47586 1.8069
79 Ni 7.561 0.868737 5.56087
80 Ni 9.39814 4.22126 5.52971
81 Al 9.26992 -0.0324818 9.20738
82 Al 6.35307 1.10102 10.6733
83 Al 6.64846 1.20513 7.74353
84 Al 8.7239 2.18514 11.5764
85 Al 5.24477 4.50504 10.7178
86 Al 7.76728 5.61474 14.4222
87 Al 5.43329 4.50398 7.74526
88 Al 7.62609 5.48693 11.6023
89 Al 8.81137 2.13656 14.4291
90 Al 7.41458 3.36707 9.32259
91 Al 4.99028 6.82207 13.1135
92 Al 6.73842 3.28733 13.1112
93 Ni 6.7544 5.80086 9.32862
94 Ni 4.9769 2.44082 9.25149
95 Ni 7.30218 0.952857 12.9901
96 Ni 9.24278 4.16602 13.0468
97 Al 9.32942 6.73429 1.73195
98 Al 6.5323 7.74017 3.1893
99 Al 6.41652 7.73346 0.408913
100 Al 9.02828 8.85347 4.0199
101 Al 5.29878 10.9176 3.26053
102 Al 7.83383 12.1107 6.93652
103 Al 5.48437 10.9541 0.336023
104 Al 7.85119 12.0479 4.05647
105 Al 9.07865 8.95662 6.86838
106 Al 7.58374 10.018 1.9902
107 Al 5.17111 13.2025 5.70821
108 Al 6.79405 9.88002 5.40248
109 Ni 6.96093 12.3164 1.79142
110 Ni 4.95903 9.09511 1.79715
111 Ni 7.4715 7.58246 5.44873
112 Ni 9.44906 10.7563 5.47807
113 Al 9.17838 6.62523 9.03971
114 Al 6.38442 7.71953 10.7592
115 Al 6.58889 7.89789 7.75138
116 Al 8.86969 8.7745 11.5228
117 Al 5.32373 11.1281 10.7432
118 Al 7.77471 12.2627 14.4552
119 Al 5.49807 11.0856 7.67964
120 Al 7.82344 12.3488 11.5151
121 Al 8.8045 8.88858 14.534
122 Al 7.60187 9.98045 9.34385
123 Al 5.03087 13.2887 13.0298
124 Al 6.77166 10.1213 12.855
125 Ni 6.72619 12.427 9.1196
126 Ni 4.98591 9.09152 9.28023
127 Ni 7.28609 7.54228 13.0747
128 Ni 9.16628 10.8224 13.0918
ITEM: TIMESTEP
11400
ITEM: NUMBER OF ATOMS
128
ITEM: BOX BOUNDS xy xz yz pp pp pp
-4.2433000235025130e-02 9.6433908678670548e+00 -2.9813881810386401e-02
-5.2014025915843205e-02 1.3205043605693220e+01 -2.3407281391899542e-04
4.7386617675382325e-04 1.4853003893634883e+01 -4.6838633515020774e-02
ITEM: ATOMS id element xu yu zu
1 Al 4.49359 0.181771 1.78738
2 Al 1.73645 1.16342 3.45075
3 Al 2.01445 1.08957 0.526235
4 Al 4.16941 2.16926 3.98955
5 Al 0.548367 4.34622 3.30269
6 Al 3.02762 5.35992 6.92016
7 Al 0.569822 4.41862 0.334174
8 Al 2.90905 5.39135 4.11653
9 Al 4.15401 2.14256 7.00927
10 Al 2.93615 3.34045 1.82148
11 Al 0.387819 6.44107 5.42269
12 Al 1.93069 3.27344 5.67333
13 Ni 2.08974 5.70368 1.79757
14 Ni 0.364798 2.41447 1.7749
15 Ni 2.75052 0.808057 5.61331
16 Ni 4.58333 4.06347 5.59423
17 Al 4.3293 -0.0422298 9.26327
18 Al 1.82747 1.06885 10.662
19 Al 1.72991 1.1243 7.82266
20 Al 4.16167 2.06372 11.5134
21 Al 0.488097 4.3342 10.6834
22 Al 2.96176 5.3205 14.4451
23 Al 0.571843 4.38627 7.82866
24 Al 2.98959 5.36492 11.52
25 Al 4.17175 2.16763 14.2888
26 Al 2.84073 3.42678 9.48371
27 Al 0.387646 6.54811 12.8389
28 Al 1.79954 3.09037 12.8198
29 Ni 2.08782 5.76622 9.14392
30 Ni 0.234824 2.39508 9.12806
31 Ni 2.69711 0.797411 13.0323
32 Ni 4.38425 4.18382 13.0185
33 Al 4.39419 6.62448 1.88909
34 Al 1.81883 7.79157 3.31712
35 Al 1.73174 7.63904 0.490104
36 Al 4.24501 8.86471 4.11908
37 Al 0.612471 11.0237 3.26563
38 Al 2.90754 11.9494 6.96967
39 Al 0.691174 11.0571 0.391423
40 Al 3.13409 12.1049 3.95884
41 Al 3.96616 8.79464 6.97428
42 Al 2.7818 9.92161 1.79383
43 Al 0.392752 13.2337 5.6754
44 Al 1.96272 9.83647 5.42751
45 Ni 2.22194 12.2697 1.83407
46 Ni 0.281619 8.9893 1.86203
47 Ni 2.66115 7.32556 5.61724
48 Ni 4.46194 10.7464 5.58072
49 Al 4.27617 6.70605 9.30343
50 Al 1.83831 7.67672 10.6361
51 Al 1.56588 7.67063 7.73963
52 Al 4.15793 8.61282 11.6044
53 Al 0.593217 11.0448 10.6326
54 Al 3.01148 11.9605 14.4697
55 Al 0.502917 11.1083 7.88487
56 Al 3.07996 12.2084 11.4499
57 Al 4.09337 8.57981 14.4468
58 Al 2.83982 10.0289 9.30389
59 Al 0.48936 12.9617 13.0544
60 Al 2.07801 9.81043 13.2133
61 Ni 1.99825 12.3093 9.21955
62 Ni 0.326495 9.09314 9.27222
63 Ni 2.57599 7.27823 13.0599
64 Ni 4.47163 10.6473 13.0082
65 Al 9.30995 0.0850847 1.82547
66 Al 6.77487 1.36629 3.18725
67 Al 6.64791 1.14486 0.298654
68 Al 9.12729 2.105 4.1293
69 Al 5.5078 4.48312 3.30462
70 Al 8.02142 5.49267 6.96226
71 Al 5.41863 4.42063 0.445739
72 Al 7.81993 5.42101 4.11865
73 Al 8.87555 2.18871 6.91734
74 Al 7.73562 3.42565 1.82571
75 Al 5.24636 6.49688 5.47632
76 Al 6.86072 3.3066 5.50869
77 Ni 6.86834 5.78145 1.85169
78 Ni 5.18468 2.5391 1.79429
79 Ni 7.50855 0.921385 5.55153
80 Ni 9.31914 4.12665 5.54614
81 Al 9.21944 0.174061 9.32797
82 Al 6.5467 1.0978 10.724
83 Al 6.60353 1.02925 7.85213
84 Al 8.99624 2.17835 11.599
85 Al 5.59771 4.53924 10.9098
86 Al 7.91813 5.52269 14.4251
87 Al 5.46146 4.42131 7.88121
88 Al 7.94872 5.58321 11.4933
89 Al 9.14232 1.97214 14.2959
90 Al 7.564 3.32627 9.19609
91 Al 5.25075 6.50346 12.8408
92 Al 6.88209 3.29054 13.0185
93 Ni 7.08207 5.76692 9.26533
94 Ni 5.15105 2.38541 9.33635
95 Ni 7.45197 0.828706 12.8427
96 Ni 9.23804 4.13711 12.9198
97 Al 9.15754 6.7096 1.92145
98 Al 6.65441 7.74686 3.31678
99 Al 6.54682 7.78234 0.340205
100 Al 8.9906 8.91549 4.18488
101 Al 5.62319 11.0088 3.30457
102 Al 7.65281 12.0581 7.00135
103 Al 5.41649 10.9473 0.444919
104 Al 8.02507 12.2509 3.99119
105 Al 8.96523 8.89189 7.01994
106 Al 7.59991 9.95063 1.80472
107 Al 5.22178 13.2106 5.48373
108 Al 6.87561 9.95577 5.51313
109 Ni 7.00658 12.4992 1.77959
110 Ni 5.04303 9.10478 1.87931
111 Ni 7.41338 7.45331 5.64228
112 Ni 9.35939 10.8067 5.56129
113 Al 9.32162 6.87402 9.46091
114 Al 6.61371 7.64751 10.595
115 Al 6.34283 7.58176 7.85411
116 Al 8.84155 8.88582 11.4631
117 Al 5.36618 10.8661 10.7357
118 Al 7.90749 12.0684 14.422
119 Al 5.38067 11.0215 7.75799
120 Al 7.79008 12.0356 11.5931
121 Al 9.12085 8.72982 14.3461
122 Al 7.55748 9.87285 9.19153
123 Al 5.13715 13.2207 12.9278
124 Al 6.71672 9.77226 13.0895
125 Ni 7.00944 12.3184 9.30498
126 Ni 4.96956 9.03007 9.27388
127 Ni 7.53039 7.35863 12.9438
128 Ni 9.31942 10.7421 12.8892
ITEM: TIMESTEP
11500
ITEM: NUMBER OF ATOMS
128
ITEM: BOX BOUNDS xy xz yz pp pp pp
-4.1354440015881622e-03 9.8216028881425768e+00 4.8753304138296386e-02
-1.9457529865776799e-01 1.3280771911380089e+01 1.3770831774636103e-01
-4.2132227542769130e-02 1.4895609987354376e+01 -1.1367160057007084e-01
ITEM: ATOMS id element xu yu zu
1 Al 4.38092 -0.0837879 1.80775
2 Al 1.86047 0.895234 3.09707
3 Al 1.63126 1.07982 0.222726
4 Al 4.2481 2.13964 4.08842
5 Al 0.663149 4.45034 3.43763
6 Al 3.17433 5.55387 7.00023
7 Al 0.815649 4.50128 0.352853
8 Al 3.00483 5.56375 4.16487
9 Al 4.2213 2.14291 6.83626
10 Al 2.80656 3.22567 1.87962
11 Al 0.390557 6.58704 5.6091
12 Al 2.0695 3.24875 5.4002
13 Ni 2.24348 5.75956 1.79435
14 Ni 0.252896 2.39639 1.88481
15 Ni 2.69638 0.718483 5.47293
16 Ni 4.50336 4.20527 5.46435
17 Al 4.51618 -0.0523581 9.30446
18 Al 1.9431 0.940807 10.7324
19 Al 1.7377 0.946722 7.78891
20 Al 4.34366 1.90098 11.478
21 Al 0.821431 4.24301 10.8826
22 Al 3.31629 5.39359 14.4689
23 Al 0.712765 4.35706 7.73783
24 Al 3.34751 5.51804 11.6211
25 Al 4.19335 1.87586 14.4355
26 Al 2.79251 3.20701 9.0727
27 Al 0.610036 6.51075 12.9236
28 Al 2.32259 3.24252 13.145
29 Ni 2.3221 5.67295 9.29399
30 Ni 0.473851 2.30171 9.33348
31 Ni 2.80151 0.771383 12.8993
32 Ni 4.8521 4.01477 12.8618
33 Al 4.47364 6.71609 1.69157
34 Al 1.71637 7.71496 3.19515
35 Al 1.91276 7.74847 0.388381
36 Al 4.21693 8.96123 3.98288
37 Al 0.638123 11.0212 3.34718
38 Al 3.17932 12.1626 7.01369
39 Al 0.738302 11.0974 0.40532
40 Al 3.05532 11.9767 4.0942
41 Al 4.24558 8.72698 6.99385
42 Al 2.92176 10.0414 1.80509
43 Al 0.56964 13.2142 5.3289
44 Al 2.06271 9.96981 5.59785
45 Ni 2.19185 12.3543 1.78578
46 Ni 0.306416 9.03986 1.74892
47 Ni 2.6225 7.60789 5.516
48 Ni 4.59211 10.7464 5.57154
49 Al 4.59905 6.61444 9.32603
50 Al 1.81533 7.59649 10.7269
51 Al 1.88041 7.66992 7.93951
52 Al 4.26384 8.82275 11.4039
53 Al 0.8195 10.95 10.6375
54 Al 3.22511 12.0821 14.4591
55 Al 0.770655 11.0227 7.83813
56 Al 3.22481 12.1782 11.5552
57 Al 4.39857 8.86473 14.379
58 Al 2.91397 10.0016 9.20458
59 Al 0.528227 13.1948 12.9355
60 Al 2.20472 9.78706 12.844
61 Ni 2.33554 12.3708 9.38236
62 Ni 0.280819 8.9567 9.31347
63 Ni 3.00017 7.43546 12.95
64 Ni 4.82879 10.7781 13.019
65 Al 9.16718 -0.178213 1.89294
66 Al 6.50124 0.841341 3.34054
67 Al 6.58239 1.02192 0.403301
68 Al 9.00425 2.10961 3.99159
69 Al 5.51808 4.40775 3.1303
70 Al 7.90134 5.47635 6.86202
71 Al 5.6049 4.27886 0.363391
72 Al 7.90249 5.42873 4.14857
73 Al 9.03468 2.11567 6.78986
74 Al 7.58019 3.27172 1.8658
75 Al 5.29196 6.72824 5.50352
76 Al 6.81278 3.23485 5.5702
77 Ni 7.03038 5.70333 1.84039
78 Ni 5.0266 2.30704 1.89595
79 Ni 7.57113 0.75745 5.49234
80 Ni 9.40853 4.13125 5.55242
81 Al 9.36322 -0.160476 9.2989
82 Al 6.69653 0.963457 10.832
83 Al 6.65521 1.06373 7.84451
84 Al 9.17248 2.10401 11.6958
85 Al 5.36721 4.32291 10.5714
86 Al 8.20541 5.38228 14.3553
87 Al 5.54237 4.31189 7.7064
88 Al 7.78583 5.28118 11.6321
89 Al 9.10201 2.22393 14.5296
90 Al 7.8832 3.30866 9.32684
91 Al 5.46329 6.47886 13.0837
92 Al 6.95316 2.94537 12.8968
93 Ni 6.89737 5.66902 9.31481
94 Ni 5.15663 2.3804 9.15607
95 Ni 7.75117 0.667426 13.1846
96 Ni 9.6573 3.97406 13.0302
97 Al 9.23676 6.50996 1.72793
98 Al 6.61167 7.6931 3.30642
99 Al 6.7943 7.7313 0.434379
100 Al 9.03897 8.83875 3.9737
101 Al 5.40881 10.9928 3.16742
102 Al 8.02169 12.1788 7.09147
103 Al 5.51534 11.0856 0.287579
104 Al 7.79851 11.9253 4.14063
105 Al 9.07589 8.68832 7.06387
106 Al 7.69881 10.0612 1.7264
107 Al 5.3619 13.1567 5.58345
108 Al 6.89438 9.78229 5.69203
109 Ni 6.9377 12.3416 1.8941
110 Ni 5.27845 9.10922 1.73714
111 Ni 7.56548 7.43159 5.41477
112 Ni 9.29754 10.6751 5.52495
113 Al 9.36836 6.48577 9.23375
114 Al 6.77989 7.63449 10.836
115 Al 6.71999 7.70514 7.96586
116 Al 9.09371 8.6342 11.6242
117 Al 5.63257 11.0355 10.7828
118 Al 8.16694 12.1223 14.5253
119 Al 5.39364 10.9759 7.86118
120 Al 8.14088 11.9317 11.6248
121 Al 9.16114 8.60336 14.5143
122 Al 7.73578 10.014 9.26107
123 Al 5.60463 13.1058 12.9918
124 Al 6.99494 9.82426 13.0372
125 Ni 6.96577 12.3888 9.28214
126 Ni 5.19876 9.00462 9.31906
127 Ni 7.62904 7.43734 12.9931
128 Ni 9.58821 10.6837 13.0936
ITEM: TIMESTEP
11600
ITEM: NUMBER OF ATOMS
128
ITEM: BOX BOUNDS xy xz yz pp pp pp
-9.7762727535126714e-03 9.7035552506862253e+00 4.2306039124414288e-02
-1.0454556037370111e-02 1.3223844813424570e+01 2.0467116551979411e-02
-4.0121163481802391e-02 1.4893598923293403e+01 1.3522044094813924e-02
ITEM: ATOMS id element xu yu zu
1 Al 4.40161 0.0534409 1.88918
2 Al 1.7074 1.35298 3.31057
3 Al 1.80767 1.17401 0.391505
4 Al 4.19887 2.22074 4.09199
5 Al 0.748414 4.44654 3.25321
6 Al 3.02193 5.4788 7.02895
7 Al 0.69295 4.36084 0.275822
8 Al 3.12308 5.46895 4.08927
9 Al 4.15795 2.1701 7.0359
10 Al 2.94618 3.39768 1.69758
11 Al 0.49847 6.4889 5.46323
12 Al 1.98137 3.22927 5.60748
13 Ni 2.16202 5.79736 1.74008
14 Ni 0.257101 2.45337 1.75413
15 Ni 2.57112 0.928407 5.57994
16 Ni 4.55009 4.08601 5.64355
17 Al 4.40873 -0.0306665 9.21186
18 Al 1.91826 1.14791 10.7312
19 Al 1.7854 1.10822 7.93265
20 Al 4.2229 2.28259 11.676
21 Al 0.586329 4.43766 10.6742
22 Al 2.95441 5.5499 14.4802
23 Al 0.751374 4.50907 7.78653
24 Al 3.12903 5.43082 11.5094
25 Al 4.08623 2.23067 14.4748
26 Al 2.84051 3.47364 9.31182
27 Al 0.429422 6.54362 13.2267
28 Al 1.89472 3.29956 12.932
29 Ni 2.13932 5.86795 9.27982
30 Ni 0.251666 2.56157 9.34758
31 Ni 2.75137 0.908192 13.0943
32 Ni 4.49891 4.18216 13.0897
33 Al 4.46817 6.60891 1.80005
34 Al 1.74419 7.76668 3.34353
35 Al 1.77936 7.79486 0.421218
36 Al 4.39725 8.68697 4.18512
37 Al 0.633025 11.0207 3.36619
38 Al 3.13602 11.9946 6.94398
39 Al 0.628262 11.0781 0.378157
40 Al 2.94789 12.2233 4.09031
41 Al 4.24326 8.94842 6.9772
42 Al 2.79471 10.0513 1.8748
43 Al 0.488825 13.3134 5.592
44 Al 2.09721 9.75084 5.53327
45 Ni 2.00094 12.4675 1.88525
46 Ni 0.307677 9.13175 1.79694
47 Ni 2.80491 7.40403 5.52917
48 Ni 4.49628 10.7935 5.47258
49 Al 4.51402 6.67305 9.17732
50 Al 1.98593 7.85293 10.7807
51 Al 1.87805 7.75765 7.78866
52 Al 4.38499 8.884 11.5295
53 Al 0.751847 11.0802 10.7634
54 Al 3.14419 12.2146 14.5651
55 Al 0.595063 10.9706 7.91485
56 Al 3.06475 12.0543 11.4502
57 Al 4.2462 8.85702 14.3993
58 Al 2.93299 9.98351 9.3114
59 Al 0.477854 13.2032 12.9989
60 Al 2.06274 9.884 13.0329
61 Ni 2.12409 12.3416 9.16748
62 Ni 0.270667 9.03183 9.23337
63 Ni 2.65881 7.525 12.992
64 Ni 4.59346 10.8144 12.9762
65 Al 9.19672 0.108077 1.8876
66 Al 6.50014 1.01592 3.35183
67 Al 6.60894 1.06406 0.318237
68 Al 8.93884 2.27598 4.12971
69 Al 5.51673 4.33501 3.21049
70 Al 7.93188 5.34113 6.97094
71 Al 5.45759 4.46851 0.343038
72 Al 8.0242 5.60651 4.02452
73 Al 8.95074 2.2001 6.89912
74 Al 7.68219 3.39192 1.86042
75 Al 5.40024 6.40874 5.64859
76 Al 6.76763 3.2328 5.49565
77 Ni 6.92105 5.74182 1.76245
78 Ni 5.1242 2.447 1.80879
79 Ni 7.42224 0.820911 5.59724
80 Ni 9.39998 4.17444 5.50903
81 Al 9.37233 0.0829495 9.22806
82 Al 6.54759 1.2809 10.7256
83 Al 6.46359 1.15647 7.78881
84 Al 9.05855 2.24163 11.5305
85 Al 5.61508 4.43084 10.8768
86 Al 7.89299 5.30006 14.4214
87 Al 5.39475 4.41009 7.86913
88 Al 7.96393 5.53858 11.4558
89 Al 9.10369 2.13949 14.4055
90 Al 7.63739 3.36146 9.1818
91 Al 5.27949 6.48396 12.8344
92 Al 6.88836 3.37057 12.9483
93 Ni 6.97881 5.6821 9.2017
94 Ni 5.1045 2.35089 9.33319
95 Ni 7.50219 0.913102 12.9312
96 Ni 9.379 4.23109 12.9903
97 Al 9.23361 6.56877 1.73823
98 Al 6.62111 7.62942 3.33436
99 Al 6.59718 7.64722 0.238318
100 Al 9.07655 8.69725 4.1216
101 Al 5.39792 10.995 3.20243
102 Al 8.02563 12.0987 6.97224
103 Al 5.41361 11.1117 0.352004
104 Al 7.90441 12.0419 4.05518
105 Al 9.02947 8.75565 6.93677
106 Al 7.57683 9.84921 1.86302
107 Al 5.19282 13.1987 5.57075
108 Al 6.85098 9.77174 5.48791
109 Ni 7.12177 12.2779 1.85702
110 Ni 4.97957 8.99416 1.87263
111 Ni 7.60838 7.33959 5.57924
112 Ni 9.48556 10.8541 5.50994
113 Al 9.318 6.76494 9.28162
114 Al 6.70255 7.64619 10.83
115 Al 6.63094 7.71355 7.79467
116 Al 9.0135 8.61862 11.5742
117 Al 5.56116 11.1846 10.6496
118 Al 7.93703 12.0686 14.3631
119 Al 5.52873 11.0881 7.80293
120 Al 7.93818 12.186 11.4991
121 Al 8.95402 8.75028 14.4939
122 Al 7.76886 10.0025 9.36551
123 Al 5.26324 13.2517 12.952
124 Al 6.88479 9.89072 12.8949
125 Ni 7.14477 12.4132 9.20065
126 Ni 5.33012 9.10824 9.20612
127 Ni 7.7354 7.32568 12.9645
128 Ni 9.34532 10.859 12.9235
ITEM: TIMESTEP
11700
ITEM: NUMBER OF ATOMS
128
ITEM: BOX BOUNDS xy xz yz pp pp pp
-2.3655899415838305e-01 9.6849203856783870e+00 -1.1814213488047679e-02
1.3319189742987625e-02 1.3320976707291932e+01 -1.7083021724826836e-01
-2.1693115730696988e-02 1.4875170875542302e+01 1.3442768374254244e-01
ITEM: ATOMS id element xu yu zu
1 Al 4.39303 0.124612 1.58818
2 Al 1.56578 1.11035 3.37501
3 Al 1.78565 1.16588 0.279567
4 Al 4.2375 2.21227 4.0587
5 Al 0.45551 4.39805 3.25968
6 Al 3.00312 5.49205 7.06177
7 Al 0.520619 4.475 0.221759
8 Al 2.91581 5.51173 4.10456
9 Al 4.15553 2.25119 7.06297
10 Al 2.79505 3.25682 1.84401
11 Al 0.26953 6.57772 5.60944
12 Al 2.00829 3.30932 5.59553
13 Ni 1.97261 5.68322 1.83867
14 Ni 0.235599 2.44637 1.774
15 Ni 2.7722 0.91732 5.52617
16 Ni 4.50723 4.18003 5.57975
17 Al 4.12205 0.278867 9.27502
18 Al 1.42873 1.18873 10.7554
19 Al 1.63177 1.18865 7.63883
20 Al 4.00825 2.2217 11.5492
21 Al 0.469258 4.45701 10.7408
22 Al 2.83308 5.60435 14.6256
23 Al 0.616601 4.47093 7.87352
24 Al 2.9826 5.71746 11.5902
25 Al 4.04252 2.35275 14.3338
26 Al 2.70811 3.42991 9.4092
27 Al 0.157747 6.658 12.8419
28 Al 1.84247 3.39156 12.9833
29 Ni 2.01092 5.75471 9.18174
30 Ni 0.143468 2.49984 9.20867
31 Ni 2.46988 0.924003 13.0051
32 Ni 4.35928 4.3401 12.9372
33 Al 4.35804 6.63856 1.89327
34 Al 1.67066 7.80342 3.38424
35 Al 1.6037 7.7095 0.295153
36 Al 4.10215 8.9047 3.98004
37 Al 0.517521 11.1428 3.23558
38 Al 3.19491 12.1893 6.99039
39 Al 0.64054 10.9842 0.416784
40 Al 3.10346 12.1238 3.98296
41 Al 4.1739 8.75071 6.94571
42 Al 2.80374 9.92337 1.75292
43 Al 0.287643 13.1465 5.52046
44 Al 2.03811 9.88478 5.46851
45 Ni 2.21865 12.3132 1.71103
46 Ni 0.245995 9.0479 1.83768
47 Ni 2.67642 7.45651 5.57051
48 Ni 4.5166 10.7596 5.63026
49 Al 4.21948 6.87517 9.25162
50 Al 1.49243 7.71045 10.6905
51 Al 1.68688 7.83117 7.75714
52 Al 3.89883 8.86705 11.57
53 Al 0.537733 11.1902 10.7642
54 Al 2.85885 12.0662 14.3545
55 Al 0.564191 11.1523 7.77248
56 Al 2.95226 12.1399 11.5184
57 Al 3.90724 8.91614 14.5645
58 Al 2.79094 10.1996 9.16741
59 Al 0.221816 13.1455 13.1326
60 Al 1.78137 9.96482 13.0609
61 Ni 1.96091 12.5026 9.30786
62 Ni 0.210257 9.16953 9.23174
63 Ni 2.38394 7.63722 13.0196
64 Ni 4.31813 10.7765 13.0584
65 Al 9.20403 0.1734 1.71994
66 Al 6.50718 1.18923 3.14563
67 Al 6.54106 1.10311 0.346289
68 Al 9.00945 2.21515 4.10419
69 Al 5.38709 4.44087 3.30053
70 Al 7.83154 5.61721 6.99762
71 Al 5.34545 4.63357 0.418071
72 Al 7.86324 5.49411 4.14097
73 Al 8.92128 2.19303 7.00335
74 Al 7.5747 3.47643 1.68405
75 Al 5.18489 6.68328 5.37468
76 Al 6.83513 3.2962 5.59689
77 Ni 6.95639 5.81695 1.87588
78 Ni 5.0962 2.58932 1.78634
79 Ni 7.50685 0.942138 5.45127
80 Ni 9.35456 4.17295 5.66189
81 Al 9.06831 0.0992508 9.17005
82 Al 6.36613 1.09504 10.6435
83 Al 6.53133 1.25565 7.78429
84 Al 8.76723 2.17038 11.4584
85 Al 5.30534 4.66262 10.7176
86 Al 7.71501 5.77547 14.3941
87 Al 5.56372 4.63465 7.74956
88 Al 7.6085 5.59016 11.6389
89 Al 8.78432 2.33575 14.4733
90 Al 7.49511 3.42479 9.45506
91 Al 5.01423 6.74529 13.0462
92 Al 6.55485 3.48688 13.0642
93 Ni 6.98143 5.86025 9.33039
94 Ni 4.96841 2.5684 9.28646
95 Ni 7.28376 0.924993 12.9717
96 Ni 9.24769 4.28421 12.9866
97 Al 9.26238 6.72901 2.02242
98 Al 6.65021 7.75458 3.32784
99 Al 6.64542 7.84982 0.375718
100 Al 8.99781 8.77658 4.13191
101 Al 5.55119 11.1406 3.37244
102 Al 7.86573 12.0434 6.9464
103 Al 5.49021 10.9376 0.311468
104 Al 7.91497 12.1945 3.93683
105 Al 8.96418 8.86125 7.00803
106 Al 7.73046 10.1049 1.82096
107 Al 5.26199 13.2976 5.55202
108 Al 6.78399 9.92189 5.56201
109 Ni 6.81946 12.4209 1.71418
110 Ni 5.12194 9.13445 1.83783
111 Ni 7.47779 7.61112 5.55442
112 Ni 9.34349 10.7687 5.50535
113 Al 9.16465 6.77234 9.21112
114 Al 6.61392 7.92391 10.7829
115 Al 6.51034 7.91267 7.76967
116 Al 8.83278 8.93207 11.5392
117 Al 5.32466 11.0238 10.7494
118 Al 7.7281 12.1266 14.4416
119 Al 5.34061 11.1059 7.86788
120 Al 7.69417 12.0997 11.6162
121 Al 8.83968 8.86015 14.4613
122 Al 7.66524 9.96484 9.17221
123 Al 4.99402 13.2425 13.1499
124 Al 6.58266 10.0631 12.9846
125 Ni 6.8537 12.2374 9.29856
126 Ni 4.9069 9.13962 9.30246
127 Ni 7.31197 7.74793 13.0029
128 Ni 9.24267 10.8982 13.0288
ITEM: TIMESTEP
11800
ITEM: NUMBER OF ATOMS
128
ITEM: BOX BOUNDS xy xz yz pp pp pp
-1.6215389356180232e-01 9.6739890353426077e+00 -6.3520910578054535e-02
-1.2185771522596589e-02 1.3241698091214190e+01 -5.5649769897455625e-02
-2.8750691517828386e-02 1.4882228451329436e+01 2.9644106399229708e-02
ITEM: ATOMS id element xu yu zu
1 Al 4.47931 0.024911 1.95955
2 Al 1.8244 1.12055 3.15276
3 Al 1.65962 1.01285 0.255901
4 Al 4.07134 2.35235 4.05867
5 Al 0.61858 4.43581 3.27204
6 Al 2.86178 5.4929 6.9594
7 Al 0.588991 4.50908 0.367553
8 Al 3.14852 5.59419 4.12094
9 Al 4.16647 2.12003 6.87506
10 Al 2.83354 3.49028 1.87228
11 Al 0.257287 6.64106 5.49949
12 Al 1.83793 3.21791 5.50392
13 Ni 2.19288 5.77074 1.89508
14 Ni 0.257534 2.44421 1.89708
15 Ni 2.64225 0.898552 5.44031
16 Ni 4.54212 4.22882 5.43488
17 Al 4.41439 -0.0909609 9.2515
18 Al 1.71669 1.29665 10.6303
19 Al 1.71917 1.34677 7.73953
20 Al 4.04822 2.28043 11.4638
21 Al 0.530879 4.47793 10.789
22 Al 3.01481 5.37717 14.5233
23 Al 0.59626 4.34942 7.8831
24 Al 2.95176 5.35552 11.6545
25 Al 3.94267 2.2452 14.5664
26 Al 2.8666 3.33954 9.14334
27 Al 0.275533 6.62215 13.1034
28 Al 1.80279 3.25141 13.109
29 Ni 1.92954 5.71843 9.31286
30 Ni 0.102742 2.38197 9.37023
31 Ni 2.66759 0.987968 12.9819
32 Ni 4.6017 4.17723 12.9576
33 Al 4.31553 6.69819 1.67514
34 Al 1.70593 7.71786 3.26082
35 Al 1.78257 7.79005 0.245622
36 Al 4.02604 8.83977 4.14283
37 Al 0.563034 10.9639 3.27152
38 Al 2.94203 12.1591 6.94504
39 Al 0.574105 11.1244 0.29913
40 Al 2.96334 12.049 4.1401
41 Al 3.91078 8.80951 6.98465
42 Al 2.75728 9.9084 1.77107
43 Al 0.253733 13.2485 5.49533
44 Al 1.84818 9.90092 5.59431
45 Ni 2.10943 12.2916 1.85332
46 Ni 0.167534 9.06246 1.82154
47 Ni 2.48306 7.63722 5.58557
48 Ni 4.57756 10.8555 5.46429
49 Al 4.29117 6.50054 9.29567
50 Al 1.55941 7.72853 10.8247
51 Al 1.52792 7.69346 7.84455
52 Al 4.09469 8.81559 11.5609
53 Al 0.473324 11.0674 10.6696
54 Al 3.03359 12.1172 14.2902
55 Al 0.436731 11.1216 7.83607
56 Al 2.9287 12.1599 11.5678
57 Al 4.05372 8.83753 14.3672
58 Al 2.64639 9.81771 9.30805
59 Al 0.273756 13.1525 12.8713
60 Al 1.89397 9.88263 12.9039
61 Ni 2.1149 12.2996 9.29807
62 Ni 0.121744 9.07346 9.30928
63 Ni 2.60276 7.39009 12.9679
64 Ni 4.41995 10.8196 12.9619
65 Al 9.36577 -0.0231378 1.84942
66 Al 6.47109 1.13635 3.32608
67 Al 6.56693 1.29199 0.48435
68 Al 9.02424 1.96155 4.0218
69 Al 5.41761 4.4866 3.19387
70 Al 7.87294 5.44991 7.06888
71 Al 5.6033 4.21275 0.298413
72 Al 7.90816 5.50051 4.00213
73 Al 8.92143 2.21788 6.97424
74 Al 7.68368 3.50297 1.90997
75 Al 5.18154 6.69535 5.75078
76 Al 6.87516 3.23343 5.57013
77 Ni 6.95397 5.793 1.842
78 Ni 5.0355 2.41686 1.88025
79 Ni 7.52475 0.905354 5.61057
80 Ni 9.30887 4.23508 5.45695
81 Al 9.28317 0.0159151 9.34365
82 Al 6.6454 1.24829 10.756
83 Al 6.54882 1.27336 7.72194
84 Al 8.99139 2.21751 11.4965
85 Al 5.52479 4.39255 10.7651
86 Al 7.89387 5.49925 14.4593
87 Al 5.4547 4.37879 7.70662
88 Al 7.94071 5.45235 11.4619
89 Al 9.02678 2.2638 14.5547
90 Al 7.65293 3.37938 9.08717
91 Al 5.19258 6.48095 13.0256
92 Al 6.78688 3.32654 12.8932
93 Ni 6.81299 5.71665 9.28515
94 Ni 5.12706 2.43958 9.22831
95 Ni 7.51901 0.909517 13.073
96 Ni 9.27963 4.15236 13.0152
97 Al 9.26332 6.73342 1.71137
98 Al 6.55125 7.8203 3.40897
99 Al 6.49789 7.65056 0.296065
100 Al 8.9248 8.86585 4.14107
101 Al 5.45965 11.0129 3.20288
102 Al 7.92719 12.1071 7.03066
103 Al 5.37853 11.0251 0.353229
104 Al 7.78603 12.1096 4.11947
105 Al 8.93665 8.75141 6.99997
106 Al 7.56825 9.98037 1.7103
107 Al 5.15571 13.2886 5.51417
108 Al 6.84213 9.84827 5.53667
109 Ni 7.03471 12.4071 1.90212
110 Ni 4.9715 9.0569 1.72908
111 Ni 7.47059 7.49436 5.58983
112 Ni 9.33224 10.8431 5.58601
113 Al 9.20504 6.60154 9.30591
114 Al 6.4218 7.69197 10.8161
115 Al 6.47263 7.86715 7.80347
116 Al 8.8593 8.67641 11.4957
117 Al 5.41966 10.9967 10.6682
118 Al 7.64356 12.2256 14.426
119 Al 5.46926 11.0546 7.63632
120 Al 7.86153 12.137 11.4915
121 Al 8.95283 8.85148 14.5329
122 Al 7.52605 10.0112 9.32459
123 Al 5.12269 13.2473 12.8608
124 Al 6.73698 9.88801 13.0599
125 Ni 6.8767 12.5446 9.28502
126 Ni 4.83876 8.98236 9.20384
127 Ni 7.45056 7.40443 13.0329
128 Ni 9.35284 10.7568 13.0161
ITEM: TIMESTEP
11900
ITEM: NUMBER OF ATOMS
128
ITEM: BOX BOUNDS xy xz yz pp pp pp
-4.6206783698617615e-03 9.8094695989947134e+00 -4.4046422520543560e-03
-1.5487176868307004e-01 1.3222172987690561e+01 1.7824774062059545e-01
-2.9215650558609418e-02 1.4882693410370230e+01 -1.3256699428486482e-01
ITEM: ATOMS id element xu yu zu
1 Al 4.36719 0.142552 1.94375
2 Al 1.70491 1.13013 3.42026
3 Al 1.90049 1.19431 0.308621
4 Al 4.27945 1.99497 4.15368
5 Al 0.741086 4.55832 3.34272
6 Al 3.22454 5.50604 6.99574
7 Al 0.727362 4.39784 0.31107
8 Al 3.12858 5.24615 3.99039
9 Al 4.05349 2.17691 7.03209
10 Al 2.81743 3.31964 1.79385
11 Al 0.556151 6.58976 5.65385
12 Al 2.13643 3.27594 5.42921
13 Ni 2.07035 5.7671 1.72998
14 Ni 0.376835 2.49462 1.84462
15 Ni 2.70481 0.773622 5.73558
16 Ni 4.53234 4.15622 5.60884
17 Al 4.41114 -0.0171053 9.23519
18 Al 1.87002 1.02184 10.742
19 Al 1.83352 1.01399 7.8836
20 Al 4.36378 1.94554 11.5994
21 Al 0.845755 4.44492 10.6903
22 Al 3.18146 5.48253 14.3153
23 Al 0.668856 4.58192 7.73706
24 Al 3.26956 5.41258 11.5266
25 Al 4.44926 1.908 14.5475
26 Al 2.8355 3.1458 9.35877
27 Al 0.702447 6.39559 12.9693
28 Al 2.34965 3.0812 12.9912
29 Ni 2.31487 5.73275 9.22185
30 Ni 0.514652 2.50959 9.09967
31 Ni 2.85657 0.566929 13.0113
32 Ni 4.66109 3.9659 13.0986
33 Al 4.34881 6.52877 1.78443
34 Al 1.78499 7.71218 3.26617
35 Al 1.79513 7.66369 0.284862
36 Al 4.10687 8.68518 4.11763
37 Al 0.649245 11.0559 3.2606
38 Al 3.05587 11.9578 7.03951
39 Al 0.739026 11.0259 0.331752
40 Al 3.10002 12.1249 4.07375
41 Al 4.22987 8.67665 7.07571
42 Al 2.91899 9.95536 1.86652
43 Al 0.505076 13.0292 5.54793
44 Al 2.01998 9.76343 5.51458
45 Ni 1.92189 12.5164 1.89045
46 Ni 0.286077 9.08371 1.75106
47 Ni 2.78346 7.38947 5.51523
48 Ni 4.39978 10.6761 5.59129
49 Al 4.51701 6.68671 9.22535
50 Al 1.88271 7.6761 10.7159
51 Al 1.90157 7.80072 7.8586
52 Al 4.29049 8.70916 11.5039
53 Al 0.79351 11.0414 10.683
54 Al 3.23016 11.9119 14.4032
55 Al 0.69442 10.8449 7.73627
56 Al 3.21076 11.9506 11.5377
57 Al 4.37451 8.69736 14.5251
58 Al 3.04448 9.83365 9.45402
59 Al 0.498678 13.1133 12.9979
60 Al 2.16994 9.76462 13.1457
61 Ni 2.1364 12.2694 9.26326
62 Ni 0.338978 8.89187 9.32044
63 Ni 2.89586 7.36327 13.0116
64 Ni 4.83472 10.7689 13
65 Al 9.11628 0.152805 1.87343
66 Al 6.74386 1.02313 3.17444
67 Al 6.57614 0.978027 0.290832
68 Al 9.03754 2.22077 4.10902
69 Al 5.49911 4.41973 3.2972
70 Al 7.85904 5.33336 6.90573
71 Al 5.40241 4.30944 0.37433
72 Al 7.97647 5.50818 4.0272
73 Al 9.04938 2.00146 6.98633
74 Al 7.56176 3.23319 1.71483
75 Al 5.20058 6.56405 5.35563
76 Al 6.85972 3.2055 5.46512
77 Ni 7.00115 5.65029 1.75384
78 Ni 5.20748 2.34832 1.78815
79 Ni 7.49149 0.848992 5.50629
80 Ni 9.3913 4.18652 5.53887
81 Al 9.22131 -0.0338402 9.33505
82 Al 6.79238 0.983121 10.7503
83 Al 6.61623 1.05963 7.82113
84 Al 9.23671 2.03768 11.4482
85 Al 5.62213 4.3334 10.7968
86 Al 8.11788 5.34768 14.4306
87 Al 5.52502 4.42761 7.94831
88 Al 8.10488 5.29733 11.5015
89 Al 9.24123 1.93893 14.4064
90 Al 7.84924 3.2165 9.36324
91 Al 5.44036 6.50731 12.9704
92 Al 6.93418 3.11722 13.0743
93 Ni 7.07234 5.68033 9.20435
94 Ni 5.19916 2.44118 9.25809
95 Ni 7.73952 0.708022 12.9309
96 Ni 9.58096 4.04266 12.9939
97 Al 9.2182 6.64122 1.79745
98 Al 6.57005 7.75797 3.25603
99 Al 6.67362 7.79636 0.30521
100 Al 8.87586 8.7852 4.00154
101 Al 5.47442 11.0325 3.30648
102 Al 7.97648 11.9554 6.9109
103 Al 5.54706 11.0881 0.287255
104 Al 7.86145 12.0494 4.11398
105 Al 8.93336 8.66714 6.97518
106 Al 7.63911 9.91077 1.92992
107 Al 5.30293 12.9878 5.52154
108 Al 6.76569 9.85868 5.60091
109 Ni 6.99637 12.2252 1.79006
110 Ni 5.18288 9.10529 1.82113
111 Ni 7.44312 7.53163 5.48971
112 Ni 9.3469 10.713 5.57554
113 Al 9.30048 6.6519 9.22108
114 Al 6.8103 7.70613 10.6707
115 Al 6.54996 7.6203 7.70131
116 Al 9.30098 8.65751 11.5728
117 Al 5.63136 11.0524 10.7848
118 Al 8.15641 12.0172 14.5788
119 Al 5.47473 11.0011 7.84992
120 Al 8.06302 11.9662 11.5506
121 Al 9.34494 8.6661 14.3944
122 Al 7.74485 9.95574 9.37826
123 Al 5.44855 12.9279 13.0075
124 Al 7.00997 9.66897 12.9341
125 Ni 7.11714 12.2366 9.32342
126 Ni 5.36277 9.06823 9.36304
127 Ni 7.58744 7.31833 12.8907
128 Ni 9.47309 10.6988 12.9506
ITEM: TIMESTEP
12000
ITEM: NUMBER OF ATOMS
128
ITEM: BOX BOUNDS xy xz yz pp pp pp
-1.2660843348082373e-02 9.7598781594087107e+00 3.7268284111527820e-02
-1.4332948182978775e-01 1.3276407157338477e+01 7.8943209692794558e-02
-3.5123552607835506e-02 1.4888601312419450e+01 -6.6790537783659149e-02
ITEM: ATOMS id element xu yu zu
1 Al 4.53558 0.079276 1.67776
2 Al 1.77031 1.08536 3.1166
3 Al 1.81217 1.09674 0.305518
4 Al 4.09763 2.13233 4.03652
5 Al 0.625603 4.34156 3.23412
6 Al 3.25771 5.36004 6.91638
7 Al 0.709128 4.41126 0.425333
8 Al 3.06009 5.34676 4.16499
9 Al 4.19307 2.05022 7.02474
10 Al 2.74004 3.32546 1.83837
11 Al 0.534523 6.459 5.39899
12 Al 2.07855 3.14716 5.59287
13 Ni 2.17151 5.68621 1.86449
14 Ni 0.109886 2.24913 1.71091
15 Ni 2.73845 0.830505 5.44362
16 Ni 4.60291 4.07546 5.45865
17 Al 4.45278 -0.0526161 9.39921
18 Al 1.79141 1.0043 10.7133
19 Al 1.84985 1.20094 7.80378
20 Al 4.18895 2.12621 11.5567
21 Al 0.7536 4.2095 10.6552
22 Al 3.13077 5.36329 14.4163
23 Al 0.862321 4.26062 7.93073
24 Al 3.0315 5.53384 11.5904
25 Al 4.2441 2.36341 14.5326
26 Al 3.10261 3.51219 9.4023
27 Al 0.556352 6.62588 12.9859
28 Al 2.05614 3.109 12.8327
29 Ni 2.21608 5.7687 9.24933
30 Ni 0.213382 2.26702 9.36159
31 Ni 2.75736 0.779825 13.027
32 Ni 4.6113 4.13735 12.8868
33 Al 4.32545 6.62304 1.86751
34 Al 1.8299 7.82297 3.20542
35 Al 1.81979 7.67161 0.280862
36 Al 4.23559 8.70983 4.02958
37 Al 0.528989 11.0966 3.27522
38 Al 3.11209 12.1347 6.96233
39 Al 0.592995 10.9945 0.392436
40 Al 2.98435 12.0258 4.06418
41 Al 4.40402 8.75785 6.85912
42 Al 2.85037 9.91762 1.75415
43 Al 0.466027 13.3511 5.5722
44 Al 2.11983 9.86486 5.54684
45 Ni 2.26925 12.2586 1.7968
46 Ni 0.280152 9.02591 1.90554
47 Ni 2.79387 7.45203 5.48947
48 Ni 4.6458 10.8595 5.50036
49 Al 4.55098 6.60546 9.33061
50 Al 1.8687 7.87385 10.5979
51 Al 1.8481 7.63511 7.66928
52 Al 4.32968 8.54875 11.4187
53 Al 0.866695 11.0708 10.8059
54 Al 3.1867 12.2291 14.4487
55 Al 0.675819 11.2208 7.72505
56 Al 3.18847 12.0624 11.5847
57 Al 4.28908 8.69334 14.4727
58 Al 2.89522 9.99219 8.9499
59 Al 0.50663 13.1087 13.097
60 Al 2.21475 9.79874 12.9482
61 Ni 2.2176 12.4657 9.28158
62 Ni 0.466037 9.05459 9.17703
63 Ni 2.78823 7.43248 13.0094
64 Ni 4.53581 10.7706 13.0852
65 Al 9.12536 -0.136627 1.99502
66 Al 6.52262 1.07337 3.43469
67 Al 6.63936 1.14669 0.362476
68 Al 8.93232 2.16536 4.09586
69 Al 5.50593 4.35067 3.24456
70 Al 8.20964 5.48037 7.10936
71 Al 5.50343 4.51872 0.324523
72 Al 7.83498 5.24347 4.23429
73 Al 9.01955 2.13118 7.10553
74 Al 7.61995 3.40278 1.83512
75 Al 5.2889 6.42955 5.56845
76 Al 6.94125 3.18771 5.62856
77 Ni 7.02743 5.78523 1.80871
78 Ni 5.05699 2.41626 1.71873
79 Ni 7.59168 0.722395 5.58943
80 Ni 9.43478 4.07285 5.57495
81 Al 9.17973 -0.135415 9.24794
82 Al 6.63581 1.09021 10.7991
83 Al 6.7581 1.05077 7.8533
84 Al 8.98183 2.03068 11.6656
85 Al 5.47128 4.29018 10.6104
86 Al 7.98958 5.23807 14.4783
87 Al 5.51794 4.51442 7.88232
88 Al 7.94543 5.36802 11.6347
89 Al 8.97845 2.06472 14.3484
90 Al 7.62077 3.27605 9.18737
91 Al 5.37569 6.62223 13.016
92 Al 6.71279 3.08955 13.0332
93 Ni 7.05257 5.71302 9.3383
94 Ni 5.12488 2.29054 9.25944
95 Ni 7.54648 0.758153 13.0511
96 Ni 9.49972 4.2014 12.9613
97 Al 9.28644 6.57087 1.76349
98 Al 6.7099 7.75607 3.22431
99 Al 6.48325 7.73121 0.327159
100 Al 9.09167 8.64691 4.13128
101 Al 5.54678 11.157 3.28124
102 Al 8.0011 12.0512 6.87895
103 Al 5.51446 11.1045 0.392403
104 Al 7.87567 12.1557 4.11473
105 Al 9.07331 8.8782 6.89874
106 Al 7.63938 9.98293 1.78711
107 Al 5.1655 13.2258 5.56152
108 Al 6.9382 9.83389 5.46162
109 Ni 6.95894 12.5483 1.8004
110 Ni 5.12068 9.09385 1.81057
111 Ni 7.56482 7.35925 5.5627
112 Ni 9.42683 10.7697 5.58633
113 Al 9.35726 6.67287 9.32103
114 Al 6.69975 7.69088 10.8047
115 Al 6.77776 7.69105 7.90017
116 Al 9.07795 8.85846 11.4111
117 Al 5.50041 11.035 10.737
118 Al 7.8846 12.1287 14.5324
119 Al 5.48739 11.1571 7.83899
120 Al 8.00474 12.163 11.5445
121 Al 9.13304 8.73131 14.5986
122 Al 7.61305 10.0182 9.1128
123 Al 5.16633 13.2099 13.0425
124 Al 6.80488 9.89852 12.9887
125 Ni 6.96602 12.351 9.24875
126 Ni 5.13885 9.05796 9.21186
127 Ni 7.69108 7.45473 13.1066
128 Ni 9.52656 10.695 13.1011
ITEM: TIMESTEP
12100
ITEM: NUMBER OF ATOMS
128
ITEM: BOX BOUNDS xy xz yz pp pp pp
-1.7606450625904843e-01 9.6882796812951550e+00 2.7275675953131569e-02
-1.8485098366687325e-02 1.3341095340386975e+01 -1.4606632317333032e-01
1.1528295875952388e-02 1.4841949463935665e+01 1.2274202872794913e-01
ITEM: ATOMS id element xu yu zu
1 Al 4.42883 0.0705135 1.84226
2 Al 1.6371 1.10966 3.32872
3 Al 1.65942 1.0104 0.411847
4 Al 4.08756 2.26379 4.15056
5 Al 0.665061 4.40935 3.28819
6 Al 2.95456 5.39614 6.8745
7 Al 0.476522 4.55563 0.556285
8 Al 3.10926 5.54059 4.14391
9 Al 4.10403 2.16303 6.97898
10 Al 2.74488 3.35794 1.8018
11 Al 0.353697 6.59345 5.7384
12 Al 1.88631 3.24632 5.58313
13 Ni 2.10745 5.7467 1.86649
14 Ni 0.359984 2.56845 1.991
15 Ni 2.56941 0.976552 5.50458
16 Ni 4.50575 4.2874 5.57097
17 Al 4.38653 0.0854 9.19766
18 Al 1.6815 1.3097 10.6151
19 Al 1.64989 1.11095 7.71485
20 Al 4.0298 2.43469 11.4725
21 Al 0.552932 4.53093 10.7594
22 Al 2.95817 5.67334 14.5312
23 Al 0.453649 4.38087 7.83996
24 Al 3.03533 5.41644 11.3973
25 Al 4.099 2.2624 14.5057
26 Al 2.69432 3.28451 9.13018
27 Al 0.353716 6.6354 12.9059
28 Al 1.92227 3.49563 12.9982
29 Ni 1.922 5.72389 9.29053
30 Ni 0.0947785 2.53593 9.27838
31 Ni 2.40688 1.06931 12.9411
32 Ni 4.43584 4.25812 13.0422
33 Al 4.36316 6.71065 1.76747
34 Al 1.68994 7.81058 3.31357
35 Al 1.74938 7.88146 0.307066
36 Al 4.1563 8.82396 4.15309
37 Al 0.826543 11.0909 3.32164
38 Al 3.24493 12.1852 6.9593
39 Al 0.44701 11.0983 0.394125
40 Al 3.09297 12.1215 4.20307
41 Al 3.99327 8.85946 7.06796
42 Al 2.88909 9.96341 1.86262
43 Al 0.363894 13.1444 5.56615
44 Al 1.94587 9.94474 5.68123
45 Ni 2.15137 12.394 1.86856
46 Ni 0.273274 9.09228 1.8033
47 Ni 2.64221 7.52468 5.60727
48 Ni 4.6155 10.847 5.57378
49 Al 4.27386 6.58765 9.19348
50 Al 1.63002 7.73215 10.7465
51 Al 1.70502 7.78732 7.9059
52 Al 3.96992 8.96051 11.5898
53 Al 0.508682 11.1358 10.6457
54 Al 2.93347 12.2804 14.3532
55 Al 0.563911 11.1662 7.82515
56 Al 3.01562 12.254 11.5083
57 Al 4.11235 8.78904 14.3804
58 Al 2.70049 10.1011 9.45758
59 Al 0.223847 13.3038 12.7835
60 Al 1.67812 9.92022 12.8321
61 Ni 2.17508 12.393 9.22973
62 Ni 0.203818 9.14504 9.38212
63 Ni 2.48402 7.60437 12.953
64 Ni 4.49568 10.9207 12.8677
65 Al 9.10246 -0.0259665 1.57412
66 Al 6.62311 1.13477 3.20941
67 Al 6.45411 1.06908 0.331509
68 Al 9.06246 2.03025 4.20758
69 Al 5.5837 4.50259 3.44192
70 Al 7.76187 5.47259 6.87861
71 Al 5.52102 4.47452 0.394767
72 Al 8.00613 5.49098 4.16681
73 Al 8.98043 2.1332 6.99234
74 Al 7.80678 3.46301 1.84275
75 Al 5.17731 6.57248 5.61171
76 Al 6.90843 3.31864 5.37429
77 Ni 6.94446 5.75273 1.90187
78 Ni 5.03727 2.52776 1.87877
79 Ni 7.42196 0.868411 5.47869
80 Ni 9.30277 4.15879 5.51459
81 Al 9.16278 0.172161 9.25938
82 Al 6.55395 1.13383 10.6669
83 Al 6.47661 1.12745 7.70287
84 Al 8.75617 2.27663 11.561
85 Al 5.43418 4.6192 10.6557
86 Al 7.78929 5.72922 14.4417
87 Al 5.41934 4.46037 7.85303
88 Al 7.76738 5.68373 11.486
89 Al 8.78561 2.16396 14.4626
90 Al 7.51826 3.42548 9.34843
91 Al 5.09007 6.7058 12.9226
92 Al 6.807 3.5873 12.9934
93 Ni 6.93712 5.85266 9.18966
94 Ni 5.17729 2.59201 9.34523
95 Ni 7.42121 0.98135 12.9826
96 Ni 9.16889 4.2356 13.0032
97 Al 9.23773 6.72286 1.99619
98 Al 6.57054 7.81544 3.35029
99 Al 6.71644 7.92382 0.394408
100 Al 9.13837 8.85604 4.11214
101 Al 5.44138 11.0702 3.25597
102 Al 7.9901 12.1498 7.04901
103 Al 5.4488 11.0297 0.376238
104 Al 7.89009 12.1025 4.0033
105 Al 9.05407 8.87081 7.00733
106 Al 7.68429 9.98343 1.90862
107 Al 5.26483 13.2097 5.38138
108 Al 6.93956 9.94351 5.58917
109 Ni 6.87083 12.3447 1.81067
110 Ni 5.1814 8.96582 1.83277
111 Ni 7.66767 7.55737 5.5834
112 Ni 9.3994 10.796 5.51039
113 Al 9.15509 6.6919 9.14999
114 Al 6.33341 7.76863 10.6975
115 Al 6.536 7.81583 7.78287
116 Al 8.87944 8.80606 11.5193
117 Al 5.35408 11.0523 10.5787
118 Al 7.55075 12.1731 14.3947
119 Al 5.5541 10.9737 7.86769
120 Al 7.59445 12.2217 11.5671
121 Al 8.87617 8.98134 14.3522
122 Al 7.57439 10.025 9.26773
123 Al 5.06898 13.2415 12.9767
124 Al 6.66008 9.96601 13.1226
125 Ni 6.83715 12.3858 9.25279
126 Ni 5.00982 9.07588 9.24181
127 Ni 7.37271 7.56705 12.8568
128 Ni 9.18458 10.9949 12.878
ITEM: TIMESTEP
12200
ITEM: NUMBER OF ATOMS
128
ITEM: BOX BOUNDS xy xz yz pp pp pp
-1.5333469563686036e-01 9.6872798863898346e+00 -1.2996856271041475e-02
1.4639155389625458e-02 1.3293475084552476e+01 -8.4063775232276705e-02
-5.2441366278570101e-02 1.4905919126090190e+01 1.0824602664975654e-01
ITEM: ATOMS id element xu yu zu
1 Al 4.43472 -0.0278401 1.82401
2 Al 1.86409 1.26253 3.24535
3 Al 1.70634 1.10157 0.370443
4 Al 4.24444 2.08915 4.10565
5 Al 0.557342 4.66297 3.12442
6 Al 3.11281 5.61861 6.92025
7 Al 0.654032 4.39995 0.402377
8 Al 3.09344 5.63333 4.1342
9 Al 4.10224 2.31571 6.93035
10 Al 2.91377 3.43404 1.90091
11 Al 0.193319 6.71179 5.4769
12 Al 2.02383 3.29018 5.49762
13 Ni 2.10059 5.83061 1.79166
14 Ni 0.168678 2.57219 1.65347
15 Ni 2.80471 0.781674 5.64184
16 Ni 4.53016 4.21573 5.51553
17 Al 4.28315 0.0232195 9.29788
18 Al 1.57505 1.24117 10.8586
19 Al 1.80074 1.22753 7.7677
20 Al 3.96897 2.28317 11.4502
21 Al 0.603261 4.56314 10.6304
22 Al 3.02301 5.57478 14.56
23 Al 0.58144 4.49617 7.80602
24 Al 2.98568 5.46512 11.5862
25 Al 4.17401 2.18901 14.47
26 Al 2.67563 3.42407 9.29497
27 Al 0.206053 6.82027 13.1685
28 Al 1.8312 3.17861 13.0123
29 Ni 2.15295 5.85893 9.32059
30 Ni 0.309633 2.49909 9.20724
31 Ni 2.6738 0.824523 13.0076
32 Ni 4.39616 4.26613 13.0219
33 Al 4.39845 6.7272 1.81713
34 Al 1.5372 7.7612 3.31322
35 Al 1.81624 7.77053 0.358133
36 Al 4.06491 8.86397 4.05242
37 Al 0.538997 11.1398 3.1522
38 Al 3.01777 12.03 7.0501
39 Al 0.609052 10.9616 0.241166
40 Al 3.08591 11.9123 4.0212
41 Al 4.06417 8.83364 7.02936
42 Al 2.6583 9.95135 1.84356
43 Al 0.275963 13.1928 5.41862
44 Al 1.85178 9.93121 5.42461
45 Ni 2.05446 12.4201 1.70129
46 Ni 0.220251 9.12181 1.75943
47 Ni 2.6297 7.51721 5.56062
48 Ni 4.36644 10.7104 5.49949
49 Al 4.38159 6.75368 9.26955
50 Al 1.54167 7.7047 10.9408
51 Al 1.5728 7.90506 7.75038
52 Al 4.16611 8.83994 11.7074
53 Al 0.589986 11.0179 10.7277
54 Al 3.05624 12.2398 14.5437
55 Al 0.488889 10.9976 7.7772
56 Al 2.98897 12.1211 11.5494
57 Al 3.96692 9.00608 14.5782
58 Al 2.69454 9.96518 9.32172
59 Al 0.295062 13.2758 13.2191
60 Al 1.93122 9.95217 13.0473
61 Ni 2.00984 12.3727 9.35747
62 Ni 0.193116 9.14587 9.25394
63 Ni 2.64633 7.53499 13.0626
64 Ni 4.47377 10.8713 13.0253
65 Al 9.38819 0.143918 2.07908
66 Al 6.62263 1.0677 3.28038
67 Al 6.71764 1.22147 0.349959
68 Al 9.03511 2.4039 4.00753
69 Al 5.39632 4.47155 3.24916
70 Al 7.74893 5.61987 6.92512
71 Al 5.44016 4.40186 0.250148
72 Al 7.85464 5.55414 4.08216
73 Al 9.11429 2.21323 6.85257
74 Al 7.54874 3.4242 1.88525
75 Al 5.17851 6.49916 5.56731
76 Al 6.71284 3.21784 5.63206
77 Ni 7.00563 5.75006 1.73771
78 Ni 5.12194 2.39681 1.72223
79 Ni 7.5861 0.987061 5.51188
80 Ni 9.33681 4.31266 5.5324
81 Al 9.30347 0.228835 9.18531
82 Al 6.56725 1.33784 10.5913
83 Al 6.49586 1.24636 7.78205
84 Al 8.9877 2.2824 11.4751
85 Al 5.37906 4.40169 10.7593
86 Al 7.7575 5.36651 14.432
87 Al 5.40675 4.43243 7.88472
88 Al 7.87971 5.47237 11.5498
89 Al 8.97762 2.42586 14.2855
90 Al 7.71081 3.50599 9.21439
91 Al 5.16776 6.58384 13.1633
92 Al 6.62781 3.27115 13.0234
93 Ni 6.79885 5.76971 9.31197
94 Ni 4.78462 2.51325 9.18918
95 Ni 7.50342 0.939705 12.9679
96 Ni 9.42638 4.32747 12.9756
97 Al 9.30591 6.7209 1.57437
98 Al 6.45675 7.88947 3.20049
99 Al 6.46368 7.89897 0.299057
100 Al 9.01493 8.84778 4.00138
101 Al 5.54024 11.1097 3.19967
102 Al 7.85208 12.0768 7.08155
103 Al 5.61218 11.2312 0.27559
104 Al 7.81186 12.0979 4.14241
105 Al 8.78511 8.72467 6.94934
106 Al 7.72728 9.95787 1.6535
107 Al 5.20143 13.1383 5.7463
108 Al 6.70003 9.91145 5.45249
109 Ni 7.07127 12.3604 1.78285
110 Ni 4.95123 9.14642 1.8216
111 Ni 7.3812 7.52453 5.50688
112 Ni 9.38009 10.812 5.57644
113 Al 9.13236 6.64742 9.2886
114 Al 6.66797 7.77076 10.6893
115 Al 6.50605 7.84659 7.94063
116 Al 9.09788 8.79269 11.6409
117 Al 5.34744 11.1885 10.7232
118 Al 7.95703 12.2603 14.5995
119 Al 5.37054 11.0927 7.98171
120 Al 7.93285 12.2058 11.5708
121 Al 8.84835 8.84155 14.5199
122 Al 7.58401 10.0608 9.44734
123 Al 5.14314 13.1277 13.0777
124 Al 6.79124 9.96754 12.7611
125 Ni 6.89469 12.4335 9.25667
126 Ni 5.03703 9.14478 9.36684
127 Ni 7.37745 7.52742 13.0329
128 Ni 9.34672 10.7336 13.0467
ITEM: TIMESTEP
12300
ITEM: NUMBER OF ATOMS
128
ITEM: BOX BOUNDS xy xz yz pp pp pp
-2.9997677460126937e-02 9.7743266173994865e+00 1.4056987593492373e-02
-1.3987953348688939e-01 1.3207126323705335e+01 9.9266130089573384e-02
-2.2296141374405387e-02 1.4875773901186022e+01 -1.3262142307389133e-01
ITEM: ATOMS id element xu yu zu
1 Al 4.30857 0.0124582 1.75975
2 Al 1.7394 1.09771 3.18047
3 Al 1.86236 1.14863 0.381225
4 Al 4.10659 2.13703 4.00794
5 Al 0.655635 4.47221 3.19214
6 Al 3.23184 5.50376 6.93583
7 Al 0.573289 4.32959 0.388852
8 Al 3.07061 5.37606 4.0369
9 Al 4.20069 1.99407 7.03932
10 Al 2.79461 3.31067 1.79992
11 Al 0.37438 6.60644 5.47861
12 Al 2.07991 3.23012 5.58988
13 Ni 2.14965 5.65597 1.71992
14 Ni 0.253831 2.40455 1.87209
15 Ni 2.51437 1.02064 5.46979
16 Ni 4.54982 4.09878 5.5381
17 Al 4.44646 -0.188303 9.17006
18 Al 1.87431 1.01435 10.6912
19 Al 1.72516 1.05638 7.79332
20 Al 4.24514 1.84119 11.525
21 Al 0.767831 4.38149 10.635
22 Al 3.24575 5.3571 14.3588
23 Al 0.791987 4.43946 7.8142
24 Al 3.09353 5.49824 11.5218
25 Al 4.22932 2.10099 14.5809
26 Al 3.02947 3.23814 9.30286
27 Al 0.589844 6.38791 12.7017
28 Al 2.09363 3.21046 12.8318
29 Ni 2.13806 5.67602 9.25218
30 Ni 0.377557 2.39761 9.32953
31 Ni 2.78438 0.809497 13.0027
32 Ni 4.63142 4.01436 12.9331
33 Al 4.38278 6.58036 1.73029
34 Al 1.82291 7.64851 3.20368
35 Al 1.6918 7.55321 0.371938
36 Al 4.20223 8.77744 4.0637
37 Al 0.687585 10.8941 3.2826
38 Al 3.0714 12.1236 6.88754
39 Al 0.637121 11.0107 0.429765
40 Al 3.14759 12.211 4.18572
41 Al 4.21151 8.70532 7.00155
42 Al 2.91763 9.96831 1.8135
43 Al 0.35419 13.0759 5.71721
44 Al 2.05154 9.8313 5.64646
45 Ni 2.1166 12.3667 1.90863
46 Ni 0.117088 8.96628 1.92617
47 Ni 2.62975 7.39792 5.46459
48 Ni 4.56565 10.7797 5.51799
49 Al 4.49764 6.54363 9.33171
50 Al 1.80426 7.858 10.6759
51 Al 1.74172 7.67764 7.75595
52 Al 4.15783 8.83762 11.455
53 Al 0.800426 10.8978 10.6846
54 Al 3.16077 11.9512 14.4506
55 Al 0.626013 10.9091 7.85968
56 Al 3.22983 11.9347 11.5398
57 Al 4.25438 8.54922 14.4332
58 Al 2.90815 9.90864 9.0974
59 Al 0.534859 13.0311 12.8968
60 Al 2.08824 9.76804 13.0156
61 Ni 2.18905 12.1941 9.24677
62 Ni 0.234642 8.95586 9.26946
63 Ni 2.76067 7.38725 12.9171
64 Ni 4.71219 10.6428 13.0255
65 Al 9.37088 -0.0320246 1.58841
66 Al 6.65354 1.21045 3.28509
67 Al 6.53052 1.02929 0.386661
68 Al 9.02079 2.1302 4.17779
69 Al 5.52576 4.41103 3.31082
70 Al 8.07068 5.5755 7.01915
71 Al 5.45454 4.42027 0.226608
72 Al 7.98495 5.58435 4.08603
73 Al 9.02977 2.22776 6.97286
74 Al 7.60492 3.43929 1.72974
75 Al 5.07782 6.65924 5.4288
76 Al 6.8681 3.35338 5.52891
77 Ni 6.80581 5.72154 1.81656
78 Ni 5.19584 2.46345 1.91191
79 Ni 7.54483 0.797887 5.65131
80 Ni 9.47147 4.09034 5.56715
81 Al 9.35938 -0.0155688 9.33004
82 Al 6.69114 1.0559 10.858
83 Al 6.72234 1.10484 7.91535
84 Al 9.29984 2.05906 11.4783
85 Al 5.52611 4.23498 10.7404
86 Al 8.00824 5.27136 14.3757
87 Al 5.62436 4.40168 7.70392
88 Al 8.06311 5.33202 11.5046
89 Al 9.19528 2.09862 14.5232
90 Al 7.61918 3.32953 9.26903
91 Al 5.31075 6.39147 12.9074
92 Al 6.99791 3.13784 13.0819
93 Ni 7.09819 5.72427 9.25282
94 Ni 5.21476 2.35983 9.22555
95 Ni 7.68014 0.821821 13.0696
96 Ni 9.44673 3.91855 13.0152
97 Al 9.20431 6.58208 1.9189
98 Al 6.4583 7.64185 3.32921
99 Al 6.5858 7.64137 0.306492
100 Al 9.01485 8.68939 4.09167
101 Al 5.43369 11.1118 3.29713
102 Al 7.92634 12.1099 7.01441
103 Al 5.49702 11.0661 0.543543
104 Al 7.96283 12.1344 4.05917
105 Al 9.01437 8.67252 6.95924
106 Al 7.62652 9.93177 2.02096
107 Al 5.33505 13.2374 5.46442
108 Al 6.84082 9.77254 5.64849
109 Ni 6.98221 12.3228 1.85941
110 Ni 5.16708 8.97958 1.80382
111 Ni 7.61944 7.39033 5.62112
112 Ni 9.37357 10.7717 5.61313
113 Al 9.30133 6.5914 9.35567
114 Al 6.60699 7.63266 10.7542
115 Al 6.61149 7.63874 7.80157
116 Al 9.04197 8.69488 11.5415
117 Al 5.69047 10.8567 10.746
118 Al 7.98699 11.9376 14.4429
119 Al 5.59796 11.0546 7.87628
120 Al 8.0952 11.9818 11.5544
121 Al 9.24615 8.67765 14.4242
122 Al 7.64343 9.80225 9.12401
123 Al 5.29031 12.9725 12.997
124 Al 6.95943 9.6876 13.1139
125 Ni 7.08156 12.2908 9.21445
126 Ni 5.20878 8.96839 9.17159
127 Ni 7.66294 7.39085 13.1035
128 Ni 9.55973 10.6833 13.0112
ITEM: TIMESTEP
12400
ITEM: NUMBER OF ATOMS
128
ITEM: BOX BOUNDS xy xz yz pp pp pp
-9.8320779102065714e-03 9.7710429749548240e+00 5.2254643132979423e-02
-1.9384292974877970e-01 1.3253236662258693e+01 7.7950431655341504e-02
-5.6107241962806143e-03 1.4859088484007920e+01 -1.4047448078243130e-01
ITEM: ATOMS id element xu yu zu
1 Al 4.36759 -0.0423274 1.99803
2 Al 1.82874 0.973969 3.26921
3 Al 1.74016 0.992967 0.324936
4 Al 4.18687 2.09993 4.12427
5 Al 0.833737 4.32076 3.2119
6 Al 3.09693 5.3648 6.96286
7 Al 0.665657 4.40522 0.332373
8 Al 3.18303 5.62599 4.12012
9 Al 4.16555 2.10135 7.04985
10 Al 2.72939 3.27528 1.77239
11 Al 0.573918 6.44371 5.62993
12 Al 2.00463 3.1239 5.47504
13 Ni 2.13318 5.80757 1.86088
14 Ni 0.339832 2.35149 1.87634
15 Ni 2.79526 0.739208 5.59791
16 Ni 4.55775 4.15608 5.60502
17 Al 4.44813 0.0412428 9.51642
18 Al 1.74909 1.13913 10.8214
19 Al 1.86145 1.12551 7.87625
20 Al 4.25256 2.14675 11.6099
21 Al 0.767975 4.28827 10.7762
22 Al 3.14307 5.38723 14.4268
23 Al 0.631458 4.38845 7.87848
24 Al 3.12832 5.34622 11.594
25 Al 4.27738 2.05473 14.3598
26 Al 2.96773 3.31313 9.30383
27 Al 0.536403 6.50878 13.0183
28 Al 2.01726 3.02934 13.2
29 Ni 2.20273 5.65821 9.31919
30 Ni 0.221241 2.23979 9.40477
31 Ni 2.79825 0.675328 12.9284
32 Ni 4.75119 4.1812 13.043
33 Al 4.48352 6.67966 1.96063
34 Al 1.82343 7.66235 3.30937
35 Al 1.80933 7.83055 0.265365
36 Al 4.25529 8.7176 4.08292
37 Al 0.604161 11.0237 3.14007
38 Al 3.24179 12.0893 7.08558
39 Al 0.627632 11.0882 0.352035
40 Al 3.14909 12.0339 4.08584
41 Al 4.40221 8.71013 7.01295
42 Al 2.80995 9.89687 1.78273
43 Al 0.482848 13.1827 5.52226
44 Al 2.12147 9.78872 5.62915
45 Ni 2.25194 12.2957 1.77427
46 Ni 0.380819 9.04736 1.74428
47 Ni 2.80427 7.47044 5.55511
48 Ni 4.58851 10.8638 5.55209
49 Al 4.51353 6.66476 9.28755
50 Al 1.87964 7.64756 10.7162
51 Al 1.90811 7.69066 7.84109
52 Al 4.28788 8.57958 11.4905
53 Al 0.795587 11.136 10.6864
54 Al 3.14287 11.9824 14.4073
55 Al 0.856521 11.1673 7.73618
56 Al 3.13245 12.0861 11.5315
57 Al 4.37143 8.64383 14.3371
58 Al 2.86613 10.0231 9.39414
59 Al 0.688577 12.8836 12.9169
60 Al 2.06839 9.73441 12.8042
61 Ni 2.32795 12.4938 9.32448
62 Ni 0.462799 9.03298 9.26068
63 Ni 2.71343 7.30646 12.9514
64 Ni 4.51697 10.6591 12.8919
65 Al 9.16853 0.0458409 1.94002
66 Al 6.53499 1.0723 3.26946
67 Al 6.53505 1.07373 0.386407
68 Al 8.92527 2.12242 4.11579
69 Al 5.46288 4.32223 3.12391
70 Al 7.85916 5.21881 7.06628
71 Al 5.50732 4.45932 0.459726
72 Al 7.87698 5.39955 4.14657
73 Al 8.98276 2.09281 7.0011
74 Al 7.62997 3.24804 1.91677
75 Al 5.38709 6.39027 5.61724
76 Al 6.75697 3.20518 5.46471
77 Ni 7.14381 5.74217 1.89985
78 Ni 4.9707 2.44814 1.78085
79 Ni 7.59319 0.683707 5.48389
80 Ni 9.37785 4.06334 5.56895
81 Al 9.22138 -0.190202 9.32797
82 Al 6.75858 0.971081 10.7078
83 Al 6.47097 0.894648 7.71686
84 Al 9.09514 2.05363 11.6413
85 Al 5.48785 4.42261 10.6696
86 Al 8.02224 5.47276 14.3831
87 Al 5.494 4.28689 7.87536
88 Al 7.93373 5.33065 11.5916
89 Al 8.98287 2.0947 14.4627
90 Al 7.62262 3.28214 9.40544
91 Al 5.2479 6.50114 13.0254
92 Al 6.90035 3.11039 12.9653
93 Ni 7.07732 5.64931 9.23965
94 Ni 5.26189 2.40515 9.33795
95 Ni 7.46438 0.546854 12.9576
96 Ni 9.42832 4.08136 13.0408
97 Al 9.42481 6.63641 1.92666
98 Al 6.81195 7.75034 3.14617
99 Al 6.50501 7.65452 0.344895
100 Al 9.15218 8.67198 4.02663
101 Al 5.54441 10.9636 3.26668
102 Al 8.01195 12.0292 6.98824
103 Al 5.45683 11.0517 0.479004
104 Al 7.84064 11.983 4.11154
105 Al 9.06687 8.80377 6.93097
106 Al 7.77284 10.0373 1.68935
107 Al 5.31416 13.1728 5.36127
108 Al 6.92312 9.76538 5.44261
109 Ni 6.88925 12.3763 1.82053
110 Ni 5.12555 9.09013 1.87365
111 Ni 7.55216 7.44097 5.4443
112 Ni 9.50003 10.7437 5.48005
113 Al 9.30079 6.55914 9.20699
114 Al 6.73004 7.71407 10.5159
115 Al 6.74758 7.7132 7.76462
116 Al 9.10459 8.7299 11.364
117 Al 5.38869 10.9212 10.6934
118 Al 7.92308 11.9407 14.4865
119 Al 5.66927 10.9627 7.88458
120 Al 7.98822 11.8593 11.577
121 Al 8.94187 8.71197 14.3585
122 Al 7.7761 9.91927 9.24715
123 Al 5.23568 13.0575 12.8461
124 Al 6.88755 9.75031 12.9504
125 Ni 7.00644 12.2125 9.26188
126 Ni 5.17385 9.00966 9.23652
127 Ni 7.61872 7.37458 12.7701
128 Ni 9.37725 10.6446 13.0249
ITEM: TIMESTEP
12500
ITEM: NUMBER OF ATOMS
128
ITEM: BOX BOUNDS xy xz yz pp pp pp
-9.5843064473670012e-02 9.6619201275668161e+00 2.1436569902647876e-02
-4.8518340664849724e-02 1.3331048907017601e+01 -8.6365329065783022e-02
-1.3363704364754092e-02 1.4866841464176396e+01 8.2662353060419358e-02
ITEM: ATOMS id element xu yu zu
1 Al 4.40622 0.0130224 1.82268
2 Al 1.75611 1.17947 3.23865
3 Al 1.7955 1.15548 0.434044
4 Al 4.20094 2.19258 3.98813
5 Al 0.58657 4.41053 3.20209
6 Al 3.05653 5.40901 6.95823
7 Al 0.649473 4.45781 0.26408
8 Al 2.88423 5.38909 4.20453
9 Al 4.1788 2.16934 6.99827
10 Al 2.87904 3.408 1.916
11 Al 0.500962 6.58195 5.42223
12 Al 2.0206 3.27269 5.64236
13 Ni 2.14313 5.72124 1.97243
14 Ni 0.240772 2.53715 1.80128
15 Ni 2.73339 0.796346 5.48449
16 Ni 4.5924 4.11214 5.56697
17 Al 4.2871 -0.0751715 9.10508
18 Al 1.67926 1.07119 10.6599
19 Al 1.70339 1.2111 7.74657
20 Al 4.07548 2.23382 11.5743
21 Al 0.473318 4.44209 10.6598
22 Al 2.94309 5.53675 14.3784
23 Al 0.557586 4.4409 7.74407
24 Al 3.01747 5.48725 11.4363
25 Al 4.03573 2.22385 14.4481
26 Al 2.65077 3.2863 9.22114
27 Al 0.410735 6.66853 13.0351
28 Al 1.94696 3.32873 12.9812
29 Ni 2.01892 5.73557 9.22282
30 Ni 0.198358 2.50885 9.14167
31 Ni 2.50736 0.916396 13.0259
32 Ni 4.34006 4.13736 12.9774
33 Al 4.47373 6.61743 1.77647
34 Al 1.75878 7.80716 3.28532
35 Al 1.77187 7.58054 0.488889
36 Al 4.09915 8.80486 3.97475
37 Al 0.605058 11.1446 3.288
38 Al 2.98124 12.1389 6.96421
39 Al 0.676717 10.9468 0.327579
40 Al 3.14078 12.1703 4.0538
41 Al 4.11179 8.79947 7.11355
42 Al 2.79377 10.1151 1.9266
43 Al 0.418452 13.2485 5.53307
44 Al 1.99717 9.86994 5.46425
45 Ni 2.08652 12.4482 1.78929
46 Ni 0.292193 9.1674 1.94487
47 Ni 2.68912 7.39996 5.5477
48 Ni 4.52389 10.7203 5.46649
49 Al 4.37699 6.67645 9.23521
50 Al 1.80381 7.7314 10.7733
51 Al 1.73968 7.74954 7.86569
52 Al 4.09148 8.8526 11.584
53 Al 0.493824 11.1713 10.6235
54 Al 2.90654 12.2445 14.3955
55 Al 0.651632 11.1573 7.73744
56 Al 2.9361 12.1256 11.5153
57 Al 3.98793 9.00574 14.5675
58 Al 2.79109 10.0011 9.28338
59 Al 0.269808 13.4971 13.057
60 Al 1.93295 9.90556 12.9834
61 Ni 1.9288 12.3581 9.23782
62 Ni 0.247644 9.10254 9.26448
63 Ni 2.70174 7.49559 13.0462
64 Ni 4.45255 10.9137 12.9467
65 Al 9.2705 -0.0271537 1.74407
66 Al 6.598 1.09698 3.31409
67 Al 6.69646 1.14997 0.383699
68 Al 9.10044 2.0775 4.17224
69 Al 5.61335 4.46283 3.31643
70 Al 7.93038 5.49805 7.09217
71 Al 5.44188 4.29169 0.460833
72 Al 7.89601 5.48216 4.1039
73 Al 8.97727 2.12962 6.93901
74 Al 7.63043 3.3168 1.79659
75 Al 5.18039 6.48728 5.53897
76 Al 6.8878 3.27097 5.62931
77 Ni 6.88642 5.81338 1.77821
78 Ni 5.24614 2.43402 1.82647
79 Ni 7.3842 0.884732 5.53207
80 Ni 9.33736 4.16212 5.61297
81 Al 9.1497 0.100623 9.25693
82 Al 6.36755 1.27666 10.6955
83 Al 6.58492 1.23977 7.83418
84 Al 8.87368 2.24901 11.3169
85 Al 5.52055 4.48199 10.6644
86 Al 7.77354 5.56626 14.4403
87 Al 5.45411 4.47489 7.75957
88 Al 7.79529 5.60599 11.6178
89 Al 8.93007 2.25501 14.4364
90 Al 7.5435 3.47272 9.13864
91 Al 5.11846 6.56918 12.9771
92 Al 6.71884 3.41614 13.0084
93 Ni 6.88799 5.7975 9.22888
94 Ni 4.94658 2.48367 9.18942
95 Ni 7.39999 1.01216 12.9793
96 Ni 9.31196 4.18955 12.9416
97 Al 9.10845 6.87687 1.83441
98 Al 6.5557 7.68077 3.39757
99 Al 6.63682 7.85607 0.478195
100 Al 8.90818 9.00435 4.07396
101 Al 5.48085 11.1476 3.16629
102 Al 7.83434 12.1237 6.99297
103 Al 5.62459 11.043 0.274183
104 Al 7.92729 12.2 4.18846
105 Al 9.02363 8.82344 7.05776
106 Al 7.58073 9.94963 1.87593
107 Al 5.20997 13.0949 5.68071
108 Al 6.90358 9.95154 5.63829
109 Ni 7.03059 12.3914 1.78915
110 Ni 5.10776 9.09907 1.76301
111 Ni 7.59449 7.57877 5.58896
112 Ni 9.43765 10.8856 5.62913
113 Al 9.20914 6.6229 9.22814
114 Al 6.51276 7.88118 10.788
115 Al 6.49797 7.82852 7.78719
116 Al 8.97898 8.75872 11.5328
117 Al 5.3426 11.1253 10.7155
118 Al 7.8525 12.0992 14.4041
119 Al 5.43862 11.1047 7.83639
120 Al 7.85172 12.3782 11.6017
121 Al 9.01822 8.86785 14.4486
122 Al 7.58352 10.0928 9.25083
123 Al 5.14583 13.3676 13.0809
124 Al 6.91312 9.97282 12.9524
125 Ni 6.96565 12.5442 9.26951
126 Ni 5.11762 9.06529 9.3007
127 Ni 7.49271 7.50731 13.1946
128 Ni 9.36388 10.9756 12.8938
ITEM: TIMESTEP
12600
ITEM: NUMBER OF ATOMS
128
ITEM: BOX BOUNDS xy xz yz pp pp pp
-1.6674221101043368e-01 9.6582903363944244e+00 -3.9322352601981476e-02
1.4164107032653028e-02 1.3397756780079359e+01 -1.0013534427031941e-01
-5.1160851733721202e-02 1.4904638611545357e+01 2.1205267381967619e-01
ITEM: ATOMS id element xu yu zu
1 Al 4.39968 0.141447 1.6261
2 Al 1.63995 1.25555 3.32377
3 Al 1.71773 1.11071 0.181558
4 Al 4.22373 2.26226 4.08367
5 Al 0.796423 4.66669 3.40236
6 Al 3.05913 5.64513 6.94856
7 Al 0.465611 4.31295 0.454232
8 Al 3.07525 5.60437 3.96712
9 Al 4.08104 2.44718 7.07388
10 Al 2.79819 3.31528 1.76958
11 Al 0.301727 6.66643 5.70928
12 Al 1.92588 3.39017 5.40388
13 Ni 2.15042 5.74639 1.64795
14 Ni 0.185923 2.45112 1.81297
15 Ni 2.45587 0.91969 5.5404
16 Ni 4.43505 4.29706 5.5483
17 Al 4.41595 0.137942 9.23233
18 Al 1.66303 1.17439 10.7248
19 Al 1.71225 1.22479 7.87315
20 Al 4.09726 2.30835 11.5191
21 Al 0.623552 4.61179 10.6764
22 Al 2.89355 5.69372 14.3633
23 Al 0.513146 4.55252 7.76683
24 Al 2.9719 5.80798 11.7298
25 Al 4.04951 2.46725 14.3053
26 Al 2.72264 3.558 9.16121
27 Al 0.166267 6.83443 13.0191
28 Al 1.89934 3.45605 13.0069
29 Ni 2.16165 5.99902 9.33297
30 Ni 0.307946 2.62688 9.26743
31 Ni 2.66324 1.05627 12.9882
32 Ni 4.50119 4.28595 12.967
33 Al 4.4037 6.85782 1.67926
34 Al 1.65467 7.69171 3.20831
35 Al 1.77311 7.78674 0.199687
36 Al 4.06337 8.91636 4.12185
37 Al 0.656814 10.9748 3.15018
38 Al 2.73127 12.0502 6.97577
39 Al 0.539578 11.1586 0.420177
40 Al 2.95535 12.1414 4.13153
41 Al 4.01968 8.91292 7.12282
42 Al 2.77669 9.92429 1.78438
43 Al 0.211393 13.191 5.55105
44 Al 1.72698 9.96598 5.54186
45 Ni 2.19491 12.4312 1.86355
46 Ni 0.232739 8.95829 1.77427
47 Ni 2.51652 7.54967 5.51093
48 Ni 4.47736 10.8927 5.62853
49 Al 4.32419 6.76099 9.35981
50 Al 1.63793 7.85126 10.7934
51 Al 1.52902 7.85731 7.7949
52 Al 4.02978 9.00284 11.5129
53 Al 0.747276 11.1378 10.794
54 Al 2.95015 12.35 14.4382
55 Al 0.424273 11.0366 7.94516
56 Al 3.09345 12.247 11.5375
57 Al 4.12468 9.0518 14.5231
58 Al 2.80756 9.9966 9.18275
59 Al 0.32437 13.3239 12.9297
60 Al 1.96735 10.116 13.0327
61 Ni 2.19664 12.3014 9.29279
62 Ni 0.0366953 9.10977 9.33186
63 Ni 2.5483 7.7505 12.9689
64 Ni 4.53116 10.9668 13.0823
65 Al 9.16709 0.0934757 1.78553
66 Al 6.55993 1.16426 3.21089
67 Al 6.57029 1.28643 0.311029
68 Al 8.93903 2.28985 3.98024
69 Al 5.41741 4.45588 3.20389
70 Al 7.76432 5.53192 7.02928
71 Al 5.56395 4.46887 0.344504
72 Al 7.74865 5.5566 4.08889
73 Al 9.01308 2.26151 7.01092
74 Al 7.60794 3.38117 1.82553
75 Al 5.10857 6.71047 5.57895
76 Al 6.74292 3.30439 5.50794
77 Ni 6.81363 5.77315 1.8099
78 Ni 5.0497 2.45635 1.78069
79 Ni 7.5817 0.990387 5.56721
80 Ni 9.28898 4.31253 5.44182
81 Al 9.13818 0.108375 9.17454
82 Al 6.58119 1.23546 10.7528
83 Al 6.6067 1.30508 7.80266
84 Al 9.01783 2.46223 11.6093
85 Al 5.45628 4.53437 10.6729
86 Al 7.81409 5.71954 14.4961
87 Al 5.48672 4.55583 7.82449
88 Al 7.78167 5.52074 11.4589
89 Al 8.83581 2.37471 14.5346
90 Al 7.67952 3.48369 9.33425
91 Al 5.18 6.77286 12.9619
92 Al 6.69359 3.37772 12.9181
93 Ni 6.82071 5.8066 9.27063
94 Ni 5.04425 2.5121 9.25338
95 Ni 7.50803 1.0769 13.0141
96 Ni 9.21656 4.42995 13.0653
97 Al 9.22609 6.63675 1.66919
98 Al 6.68576 7.90994 3.20355
99 Al 6.62514 7.72542 0.375177
100 Al 8.98068 8.78642 4.00618
101 Al 5.43513 11.131 3.28296
102 Al 7.8638 12.0732 6.96814
103 Al 5.45128 11.0224 0.412741
104 Al 7.96654 12.0993 4.06973
105 Al 8.79517 8.86254 7.01658
106 Al 7.6555 10.04 1.7872
107 Al 5.14322 13.2535 5.56743
108 Al 6.79808 9.86665 5.55219
109 Ni 6.9676 12.3658 1.80663
110 Ni 5.0858 9.09498 1.81394
111 Ni 7.30611 7.58114 5.53188
112 Ni 9.15643 10.7611 5.5288
113 Al 9.1005 6.77749 9.31567
114 Al 6.37697 7.88374 10.7623
115 Al 6.45983 7.92792 7.94319
116 Al 8.93314 9.03331 11.7399
117 Al 5.39 11.2217 10.7876
118 Al 7.7668 12.345 14.4506
119 Al 5.39521 11.2077 7.79231
120 Al 7.98042 12.1512 11.5244
121 Al 8.8015 8.948 14.5945
122 Al 7.52042 10.0421 9.32997
123 Al 5.28383 13.3789 12.9051
124 Al 6.69692 10.0963 13.0991
125 Ni 6.83374 12.4199 9.19459
126 Ni 4.95224 9.20324 9.28816
127 Ni 7.37004 7.71369 12.9496
128 Ni 9.25262 10.8896 13.1604
ITEM: TIMESTEP
12700
ITEM: NUMBER OF ATOMS
128
ITEM: BOX BOUNDS xy xz yz pp pp pp
-9.1942219834468403e-02 9.7776479844189428e+00 -3.8080999102761331e-02
1.3259750038605134e-02 1.3196195106689839e+01 9.2780941430943134e-02
-4.0470664848378135e-02 1.4893948424660017e+01 9.5866434361012061e-03
ITEM: ATOMS id element xu yu zu
1 Al 4.31938 0.100716 2.01674
2 Al 1.63615 1.07945 3.33193
3 Al 1.7585 1.10232 0.343959
4 Al 4.06671 2.33901 4.02001
5 Al 0.477834 4.43799 3.20281
6 Al 3.13601 5.54932 6.91296
7 Al 0.681377 4.63002 0.180473
8 Al 2.84619 5.39275 4.10904
9 Al 4.36486 2.1678 7.04879
10 Al 2.80684 3.42748 1.80367
11 Al 0.456784 6.57959 5.46286
12 Al 1.92953 3.27372 5.64149
13 Ni 1.99763 5.7931 1.95228
14 Ni 0.262225 2.42235 1.77777
15 Ni 2.67551 0.973506 5.56004
16 Ni 4.44068 4.1378 5.46186
17 Al 4.49485 0.148826 9.48551
18 Al 1.89522 1.3791 10.8064
19 Al 1.67916 1.18269 7.77408
20 Al 4.3886 2.19926 11.6716
21 Al 0.622919 4.40198 10.7316
22 Al 3.24601 5.61344 14.5336
23 Al 0.559004 4.31522 7.96516
24 Al 3.17736 5.52277 11.5675
25 Al 4.27897 2.09426 14.4845
26 Al 2.95285 3.42692 9.36338
27 Al 0.391169 6.41171 13.0448
28 Al 2.23244 3.24341 13.0194
29 Ni 2.01883 5.69906 9.21715
30 Ni 0.18315 2.44903 9.35226
31 Ni 2.73942 0.877508 13.0351
32 Ni 4.64434 4.20883 13.0179
33 Al 4.32668 6.59647 1.8079
34 Al 1.63232 7.85546 3.3188
35 Al 1.70461 7.76646 0.429118
36 Al 4.11171 8.72334 4.07918
37 Al 0.532142 11.1347 3.33927
38 Al 3.26911 12.238 7.18225
39 Al 0.606817 11.0307 0.336371
40 Al 2.90774 12.1144 4.08021
41 Al 4.31423 8.78742 6.94853
42 Al 2.76894 9.83527 1.82922
43 Al 0.372896 13.1957 5.57971
44 Al 2.06544 9.96017 5.56426
45 Ni 1.98429 12.1802 1.83771
46 Ni 0.171873 9.17727 1.81661
47 Ni 2.73295 7.46663 5.53895
48 Ni 4.44346 10.8037 5.44889
49 Al 4.30154 6.59904 9.17227
50 Al 1.76803 7.69047 10.7807
51 Al 1.81424 7.74087 7.78441
52 Al 4.21871 8.74922 11.4529
53 Al 0.587214 11.1331 10.6617
54 Al 3.13623 12.131 14.5057
55 Al 0.69968 11.2381 7.78718
56 Al 2.9962 12.1064 11.4917
57 Al 4.25471 8.75348 14.5125
58 Al 2.87787 10.0113 9.35117
59 Al 0.540445 13.0992 13.1319
60 Al 2.04785 9.75672 12.9703
61 Ni 2.07621 12.5199 9.2841
62 Ni 0.333018 9.21359 9.13284
63 Ni 2.66748 7.36734 12.9566
64 Ni 4.55968 10.7202 12.9746
65 Al 9.18005 0.00618407 1.88335
66 Al 6.56391 1.35096 3.24289
67 Al 6.59919 1.08337 0.288321
68 Al 9.06619 2.12202 4.02443
69 Al 5.53799 4.39642 3.30187
70 Al 7.89891 5.40303 6.94838
71 Al 5.56065 4.49122 0.400993
72 Al 7.96839 5.4946 4.03667
73 Al 8.94202 2.13684 7.10584
74 Al 7.7158 3.30929 1.65983
75 Al 5.25404 6.54023 5.5112
76 Al 6.88404 3.27488 5.4871
77 Ni 7.06312 5.66482 1.74877
78 Ni 5.02987 2.49382 1.89359
79 Ni 7.53281 0.866376 5.54407
80 Ni 9.53093 4.20399 5.57565
81 Al 9.38925 0.0387983 9.33779
82 Al 6.66735 1.17826 10.7977
83 Al 6.6974 1.11171 7.83519
84 Al 9.15011 2.03994 11.664
85 Al 5.67898 4.53588 10.81
86 Al 8.06012 5.31438 14.4578
87 Al 5.44833 4.52255 7.83433
88 Al 7.96533 5.55253 11.4683
89 Al 9.19626 2.17548 14.5083
90 Al 7.72052 3.46569 9.18258
91 Al 5.2749 6.78625 12.9759
92 Al 6.96815 3.11191 13.0085
93 Ni 6.99792 5.77774 9.25683
94 Ni 5.276 2.5043 9.32454
95 Ni 7.67364 0.772838 12.9739
96 Ni 9.53086 4.12377 12.9235
97 Al 9.28345 6.86686 1.92266
98 Al 6.36962 7.55199 3.23088
99 Al 6.52269 7.70532 0.232119
100 Al 8.96587 8.74857 3.96895
101 Al 5.42968 10.9802 3.20058
102 Al 7.97995 12.081 7.01735
103 Al 5.46727 11.0234 0.352209
104 Al 7.80114 12.0099 4.13326
105 Al 9.05273 8.80349 6.90187
106 Al 7.57992 9.89341 1.88079
107 Al 5.22599 13.1036 5.38581
108 Al 6.86029 9.74015 5.42786
109 Ni 6.82975 12.4217 1.86978
110 Ni 5.04044 9.06087 1.79215
111 Ni 7.62203 7.39454 5.45532
112 Ni 9.52405 10.8213 5.57146
113 Al 9.36673 6.84576 9.2416
114 Al 6.54121 7.67034 10.6225
115 Al 6.6261 7.69431 7.69524
116 Al 9.0397 8.8179 11.5502
117 Al 5.5379 11.041 10.7348
118 Al 8.16392 12.0542 14.5704
119 Al 5.5531 11.0007 7.88378
120 Al 7.91574 12.0454 11.572
121 Al 9.12058 8.77187 14.3587
122 Al 7.75323 9.88831 9.10643
123 Al 5.29627 13.1685 13.031
124 Al 6.77109 9.93686 13.0109
125 Ni 7.05964 12.3629 9.31406
126 Ni 5.17465 8.97416 9.22217
127 Ni 7.62409 7.48133 12.9516
128 Ni 9.46497 10.7883 12.89
ITEM: TIMESTEP
12800
ITEM: NUMBER OF ATOMS
128
ITEM: BOX BOUNDS xy xz yz pp pp pp
-1.8669607889245654e-02 9.8416451025234259e+00 4.2226411954438978e-02
-3.0122458317131989e-01 1.3247895524061590e+01 1.4974326042343658e-01
1.0665098681596596e-02 1.4842812661130040e+01 -2.5319727240207374e-01
ITEM: ATOMS id element xu yu zu
1 Al 4.53342 -0.0360517 1.65563
2 Al 1.90345 1.11661 3.33684
3 Al 1.69282 1.11012 0.31139
4 Al 4.40634 2.03267 4.08442
5 Al 0.829653 4.27739 3.35387
6 Al 3.31506 5.39023 6.97817
7 Al 0.575566 4.36366 0.358705
8 Al 3.18437 5.5213 4.04301
9 Al 4.27738 1.99703 6.96479
10 Al 2.99893 3.31381 1.90734
11 Al 0.444262 6.44973 5.43545
12 Al 2.13104 3.20728 5.35626
13 Ni 2.10794 5.698 1.74742
14 Ni 0.204956 2.30627 1.90873
15 Ni 2.81231 0.709671 5.50478
16 Ni 4.70194 4.05185 5.67003
17 Al 4.45672 -0.103985 9.22486
18 Al 1.68986 0.86145 10.6907
19 Al 1.91382 0.892448 7.86095
20 Al 4.13267 2.03514 11.4315
21 Al 0.791111 4.16221 10.7557
22 Al 3.07863 5.23115 14.342
23 Al 0.773247 4.24077 7.82699
24 Al 3.16676 5.21849 11.508
25 Al 4.2593 1.96077 14.4409
26 Al 2.88261 3.21626 9.22416
27 Al 0.527778 6.46035 12.8036
28 Al 2.01783 2.89911 13.02
29 Ni 2.24483 5.57041 9.23015
30 Ni 0.294678 2.35351 9.14271
31 Ni 2.81117 0.635971 12.9727
32 Ni 4.62447 3.93966 12.9567
33 Al 4.43091 6.57102 1.93532
34 Al 1.71459 7.6991 3.20106
35 Al 1.65625 7.79817 0.388543
36 Al 4.29555 8.62997 4.16611
37 Al 0.779425 11.1595 3.21781
38 Al 3.08195 11.9955 6.93326
39 Al 0.542601 11.1008 0.534581
40 Al 3.18054 11.9318 4.01573
41 Al 4.39248 8.54638 6.92289
42 Al 2.98578 9.97708 1.82089
43 Al 0.611255 13.1529 5.43701
44 Al 2.12169 9.70611 5.4663
45 Ni 2.24582 12.5123 1.82504
46 Ni 0.243537 8.94198 1.87678
47 Ni 2.75492 7.31517 5.53444
48 Ni 4.67339 10.6782 5.5628
49 Al 4.75871 6.57324 9.31825
50 Al 2.06562 7.64876 10.7045
51 Al 1.91756 7.5045 7.84537
52 Al 4.41491 8.52308 11.5498
53 Al 0.796696 10.9117 10.7211
54 Al 3.15038 11.8038 14.3422
55 Al 0.727957 11.0189 7.84459
56 Al 3.21184 11.9905 11.4881
57 Al 4.31816 8.45818 14.4512
58 Al 2.93985 9.87677 9.11617
59 Al 0.433332 13.0751 12.9736
60 Al 2.09716 9.66023 12.9711
61 Ni 2.3003 12.2319 9.21469
62 Ni 0.41653 8.84397 9.24631
63 Ni 2.8853 7.29725 12.9792
64 Ni 4.70533 10.4692 12.9197
65 Al 9.32593 -0.0305578 1.74094
66 Al 6.55999 0.94706 3.22614
67 Al 6.7318 1.0076 0.454504
68 Al 8.92494 2.0793 4.08763
69 Al 5.37528 4.35044 3.31029
70 Al 7.99737 5.50259 6.93159
71 Al 5.46616 4.52736 0.488684
72 Al 7.96975 5.3932 4.1278
73 Al 9.02692 2.02885 7.07013
74 Al 7.62103 3.31153 1.99705
75 Al 5.42019 6.56504 5.55185
76 Al 6.86076 3.12257 5.70232
77 Ni 7.04477 5.70921 1.86201
78 Ni 5.16938 2.41358 1.81916
79 Ni 7.4653 0.773807 5.61395
80 Ni 9.38723 3.99097 5.5677
81 Al 9.32189 -0.206796 9.23563
82 Al 6.53838 0.846974 10.7367
83 Al 6.61406 0.925831 7.73456
84 Al 8.96769 1.99642 11.5151
85 Al 5.5646 4.41592 10.6668
86 Al 8.06673 5.27103 14.4021
87 Al 5.64801 4.33213 7.9197
88 Al 8.05144 5.34431 11.4533
89 Al 9.17029 1.85523 14.4624
90 Al 7.63249 3.11882 9.3542
91 Al 5.51594 6.19904 12.9834
92 Al 7.04137 3.16794 12.955
93 Ni 7.1455 5.61527 9.2992
94 Ni 5.17727 2.29408 9.27503
95 Ni 7.46094 0.664736 12.9796
96 Ni 9.50177 4.01487 13.0686
97 Al 9.41463 6.39875 1.83401
98 Al 6.84961 7.81717 3.27893
99 Al 6.47699 7.72501 0.291669
100 Al 9.12281 8.9105 4.13523
101 Al 5.64999 11.0266 3.29286
102 Al 8.03272 12.1537 7.03768
103 Al 5.28621 10.9078 0.42073
104 Al 7.99041 12.0795 4.0535
105 Al 9.14549 8.70949 7.08159
106 Al 7.68372 9.957 1.72113
107 Al 5.24575 13.0675 5.70745
108 Al 7.00721 9.86894 5.79723
109 Ni 7.02841 12.2346 1.80336
110 Ni 5.20889 9.0265 1.89695
111 Ni 7.63424 7.52524 5.67657
112 Ni 9.51307 10.81 5.50948
113 Al 9.65899 6.33964 9.23456
114 Al 6.82732 7.62733 10.643
115 Al 6.70071 7.73039 7.86941
116 Al 9.12674 8.52395 11.4323
117 Al 5.61724 10.7783 10.7551
118 Al 7.9249 11.734 14.2578
119 Al 5.42722 10.9781 7.95963
120 Al 7.91578 11.8779 11.5224
121 Al 9.12728 8.54282 14.3757
122 Al 7.8593 9.86976 9.37189
123 Al 5.27714 13.0027 13.0305
124 Al 6.96662 9.61416 12.7787
125 Ni 6.992 12.1841 9.28887
126 Ni 5.17714 8.99358 9.24513
127 Ni 7.74104 7.21109 13.048
128 Ni 9.46931 10.5828 12.9672
ITEM: TIMESTEP
12900
ITEM: NUMBER OF ATOMS
128
ITEM: BOX BOUNDS xy xz yz pp pp pp
-6.7138321822773794e-02 9.7096156660571875e+00 7.5961797451819843e-02
-1.6283979943490928e-01 1.3277098555173833e+01 -6.4490275473690351e-02
-3.6474149668544342e-02 1.4889951909480189e+01 -8.5609457553424237e-02
ITEM: ATOMS id element xu yu zu
1 Al 4.398 -0.0344702 1.8696
2 Al 1.82038 0.9615 3.19946
3 Al 1.65398 1.0934 0.281449
4 Al 4.10521 2.1044 4.04735
5 Al 0.571154 4.54632 3.13695
6 Al 3.00891 5.44629 6.88944
7 Al 0.730081 4.41582 0.351553
8 Al 3.05272 5.31951 4.02947
9 Al 4.02504 2.12098 6.96949
10 Al 2.85122 3.1918 1.87594
11 Al 0.5032 6.51348 5.7128
12 Al 1.92511 3.17792 5.59702
13 Ni 2.34442 5.7329 1.91521
14 Ni 0.232947 2.44722 1.7185
15 Ni 2.65443 0.75788 5.57838
16 Ni 4.60384 4.1593 5.49505
17 Al 4.24458 -0.0881242 9.03608
18 Al 1.81087 0.773277 10.6099
19 Al 1.6977 0.889051 7.88838
20 Al 4.07519 1.96498 11.5187
21 Al 0.614386 4.43575 10.6405
22 Al 3.05561 5.30286 14.5662
23 Al 0.735745 4.41765 7.93832
24 Al 3.12662 5.29121 11.5587
25 Al 3.87937 2.01944 14.4164
26 Al 2.6877 3.20961 9.35622
27 Al 0.432387 6.37052 13.1022
28 Al 2.00584 3.34229 12.9478
29 Ni 2.15601 5.66644 9.23847
30 Ni 0.316848 2.21363 9.30847
31 Ni 2.53773 0.701358 13.0244
32 Ni 4.46741 4.09728 13.0245
33 Al 4.40327 6.71637 1.74062
34 Al 1.90175 7.66104 3.21
35 Al 1.78758 7.62202 0.418777
36 Al 4.20623 8.8712 4.17271
37 Al 0.776442 11.0185 3.28594
38 Al 3.06493 12.1019 6.97175
39 Al 0.715889 11.1747 0.267655
40 Al 3.17855 12.2178 4.12787
41 Al 4.09576 8.7676 7.08979
42 Al 2.91559 9.93281 1.7843
43 Al 0.457411 13.0882 5.56902
44 Al 2.04165 9.86442 5.47046
45 Ni 2.11707 12.3153 1.80021
46 Ni 0.497652 9.10639 1.72935
47 Ni 2.74859 7.51435 5.55123
48 Ni 4.54928 10.8238 5.53408
49 Al 4.58437 6.65906 9.37378
50 Al 1.71052 7.48736 10.6796
51 Al 1.67569 7.69371 7.95898
52 Al 4.05215 8.97691 11.5948
53 Al 0.592444 11.0384 10.7709
54 Al 3.13048 12.0767 14.4997
55 Al 0.652315 10.939 7.90277
56 Al 2.99613 11.9716 11.6203
57 Al 4.25963 8.83532 14.4024
58 Al 2.91709 9.92545 9.40185
59 Al 0.484701 13.1737 12.9704
60 Al 2.062 9.90011 12.9134
61 Ni 2.06468 12.2883 9.25399
62 Ni 0.236768 9.05831 9.40272
63 Ni 2.62687 7.46563 13.0584
64 Ni 4.56097 10.893 13.1046
65 Al 9.32105 -0.0228632 1.83867
66 Al 6.58725 1.04477 3.28274
67 Al 6.43444 1.0661 0.264164
68 Al 9.18584 2.15258 4.09428
69 Al 5.48266 4.30298 3.22768
70 Al 8.04994 5.39372 7.07345
71 Al 5.54544 4.40388 0.471033
72 Al 7.96946 5.54401 4.14561
73 Al 9.06085 2.23586 6.99066
74 Al 7.64423 3.33717 1.73201
75 Al 5.23908 6.57656 5.5748
76 Al 6.91109 3.20087 5.38276
77 Ni 6.9255 5.79342 1.85928
78 Ni 5.11606 2.38136 1.85437
79 Ni 7.5681 0.719926 5.51392
80 Ni 9.41545 4.15409 5.49023
81 Al 9.15924 -0.026259 9.27968
82 Al 6.5303 1.12117 10.6411
83 Al 6.57836 1.23358 7.62701
84 Al 8.98205 2.08645 11.5358
85 Al 5.38766 4.15509 10.5921
86 Al 7.90492 5.33538 14.4063
87 Al 5.56912 4.34766 7.66598
88 Al 7.71925 5.22343 11.6134
89 Al 8.88983 2.10455 14.4077
90 Al 7.89154 3.40257 9.17277
91 Al 5.17781 6.46816 12.983
92 Al 6.65589 3.06886 12.9655
93 Ni 6.8303 5.6175 9.28692
94 Ni 4.87286 2.30302 9.26266
95 Ni 7.4969 0.754746 13.0474
96 Ni 9.32751 3.96608 12.9322
97 Al 9.13836 6.80552 1.90537
98 Al 6.4942 7.76423 3.3467
99 Al 6.82617 7.80572 0.449887
100 Al 9.11123 8.73487 4.00051
101 Al 5.45373 11.1744 3.17763
102 Al 7.9099 12.0938 6.9533
103 Al 5.53168 11.1534 0.405304
104 Al 7.97963 12.0553 3.97886
105 Al 8.95181 8.70548 6.96559
106 Al 7.74006 10.1221 1.95743
107 Al 5.29414 13.3418 5.58829
108 Al 6.81681 9.74023 5.28201
109 Ni 6.98111 12.4923 1.84506
110 Ni 5.13947 9.07312 1.72426
111 Ni 7.54156 7.36814 5.53803
112 Ni 9.32521 10.6728 5.58834
113 Al 8.86637 6.81724 9.43079
114 Al 6.54569 7.69111 10.7973
115 Al 6.58733 7.73663 7.73521
116 Al 8.98228 8.72526 11.5723
117 Al 5.44801 11.1296 10.6764
118 Al 7.98171 12.3087 14.4604
119 Al 5.6213 11.0327 7.60609
120 Al 7.92294 12.1456 11.4839
121 Al 9.06582 8.59746 14.4594
122 Al 7.56292 9.9886 9.36503
123 Al 5.29214 13.0591 12.847
124 Al 6.91343 9.9441 13.1249
125 Ni 6.95216 12.4618 9.19666
126 Ni 5.1908 9.00013 9.27422
127 Ni 7.50633 7.36874 12.9843
128 Ni 9.42354 10.6951 13.0649
ITEM: TIMESTEP
13000
ITEM: NUMBER OF ATOMS
128
ITEM: BOX BOUNDS xy xz yz pp pp pp
-2.4104401190041877e-01 9.6947370077906267e+00 2.0755122013022854e-02
2.9359046465785354e-02 1.3391482999921640e+01 -1.9806794837909156e-01
-4.0220309963009626e-02 1.4893698069774661e+01 2.2097383309507787e-01
ITEM: ATOMS id element xu yu zu
1 Al 4.38103 0.123955 1.96249
2 Al 1.71949 1.25331 3.34225
3 Al 1.77419 1.26914 0.377742
4 Al 4.13892 2.2534 4.06483
5 Al 0.703149 4.4914 3.26774
6 Al 2.95539 5.51421 7.016
7 Al 0.708532 4.43412 0.345084
8 Al 2.9394 5.5342 3.98604
9 Al 4.05755 2.06924 6.93212
10 Al 2.82152 3.41841 1.70125
11 Al 0.218736 6.64594 5.48581
12 Al 1.91875 3.40499 5.60171
13 Ni 2.07402 5.85058 1.68802
14 Ni 0.360304 2.52369 1.81412
15 Ni 2.53282 0.932752 5.51011
16 Ni 4.36717 4.25006 5.55276
17 Al 4.33116 0.187237 9.45676
18 Al 1.67285 1.43258 10.6818
19 Al 1.65685 1.35403 7.8712
20 Al 4.0986 2.37034 11.4122
21 Al 0.506576 4.6309 10.7444
22 Al 2.87282 5.57624 14.4235
23 Al 0.549731 4.68044 7.65314
24 Al 2.93814 5.6091 11.5581
25 Al 4.05163 2.32951 14.4409
26 Al 2.71625 3.47165 9.22519
27 Al 0.21084 6.87729 13.1563
28 Al 1.70136 3.44948 13.043
29 Ni 1.87854 5.9012 9.36038
30 Ni 0.144218 2.77876 9.2361
31 Ni 2.61172 1.01071 12.9708
32 Ni 4.44219 4.30633 12.9025
33 Al 4.3388 6.57807 1.82244
34 Al 1.69414 7.77267 3.24716
35 Al 1.82811 7.8796 0.389167
36 Al 4.10692 8.75925 4.01719
37 Al 0.368103 11.0225 3.20437
38 Al 3.0382 12.1622 7.0282
39 Al 0.748505 11.1639 0.278654
40 Al 2.96212 12.1 4.21892
41 Al 4.14 8.97844 6.9398
42 Al 2.7337 10.068 1.89828
43 Al 0.204402 13.2287 5.46535
44 Al 1.78901 9.85375 5.60147
45 Ni 2.12353 12.3684 1.85481
46 Ni 0.147953 9.01322 1.90121
47 Ni 2.62639 7.5494 5.57391
48 Ni 4.53978 10.7873 5.52062
49 Al 4.28505 6.86397 9.18633
50 Al 1.48454 8.11346 10.7217
51 Al 1.63749 7.85458 7.68578
52 Al 3.93544 8.7979 11.4894
53 Al 0.570804 11.1097 10.7007
54 Al 2.99651 12.0628 14.3466
55 Al 0.547447 11.1891 7.77129
56 Al 3.00371 12.2783 11.5488
57 Al 3.94128 9.14843 14.5789
58 Al 2.67383 9.97148 9.26364
59 Al 0.328898 13.3799 13.0634
60 Al 1.75814 10.0071 13.1395
61 Ni 2.06215 12.5494 9.32981
62 Ni 0.105671 9.10213 9.17405
63 Ni 2.57615 7.58407 12.9871
64 Ni 4.41561 10.8948 12.9315
65 Al 9.18886 0.274965 1.96318
66 Al 6.49035 1.27169 3.22226
67 Al 6.74842 1.21632 0.360889
68 Al 8.86534 2.33364 4.10779
69 Al 5.41351 4.53405 3.26766
70 Al 7.65533 5.48532 6.98905
71 Al 5.51494 4.3586 0.31532
72 Al 7.85164 5.49701 4.04153
73 Al 9.02914 2.34669 7.10576
74 Al 7.78844 3.41657 1.7055
75 Al 5.226 6.51036 5.55105
76 Al 6.69285 3.45944 5.60978
77 Ni 6.94338 5.73748 1.69936
78 Ni 4.97432 2.59353 1.84687
79 Ni 7.38204 1.04882 5.53363
80 Ni 9.26447 4.32486 5.547
81 Al 9.33307 0.285524 9.19255
82 Al 6.54985 1.30376 10.7369
83 Al 6.51263 1.17677 7.84036
84 Al 8.8981 2.54939 11.5331
85 Al 5.39858 4.60839 10.8277
86 Al 7.7635 5.64795 14.4339
87 Al 5.27323 4.43802 7.87738
88 Al 7.85453 5.7757 11.5938
89 Al 8.93696 2.49853 14.4882
90 Al 7.52231 3.49367 9.35845
91 Al 5.0792 6.69647 13.0489
92 Al 6.80617 3.53868 12.9445
93 Ni 6.79019 5.92601 9.32255
94 Ni 5.04788 2.55493 9.29423
95 Ni 7.47207 1.064 12.9123
96 Ni 9.16683 4.43518 13.0021
97 Al 9.35999 6.62565 1.6541
98 Al 6.62387 7.75325 3.14725
99 Al 6.65396 7.76963 0.418457
100 Al 8.94653 8.81902 4.19989
101 Al 5.56722 11.0452 3.2916
102 Al 7.83414 12.1125 6.96622
103 Al 5.56743 11.0755 0.264803
104 Al 7.74968 12.2057 4.16766
105 Al 8.7982 8.72437 6.97734
106 Al 7.58627 9.93361 1.80398
107 Al 5.27906 13.1282 5.36482
108 Al 6.78273 10.0178 5.75019
109 Ni 6.91652 12.4035 1.90944
110 Ni 5.17794 9.1647 1.86222
111 Ni 7.33044 7.58084 5.4568
112 Ni 9.26945 10.853 5.54915
113 Al 9.23454 6.59156 9.12801
114 Al 6.45685 7.86336 10.7243
115 Al 6.4349 7.79779 7.8135
116 Al 8.78 9.05243 11.468
117 Al 5.38454 11.0383 10.7767
118 Al 7.77773 12.2131 14.4537
119 Al 5.33585 11.1876 7.77657
120 Al 7.79902 12.2123 11.4339
121 Al 8.78152 9.03598 14.5874
122 Al 7.49402 10.0129 9.18784
123 Al 5.07486 13.2823 13.1545
124 Al 6.6419 9.84446 13.025
125 Ni 6.96476 12.4053 9.29048
126 Ni 4.88086 9.09709 9.35024
127 Ni 7.34923 7.68988 13.0536
128 Ni 9.12212 11.0332 12.9251
ITEM: TIMESTEP
13100
ITEM: NUMBER OF ATOMS
128
ITEM: BOX BOUNDS xy xz yz pp pp pp
-1.5043322455866592e-01 9.7175307496285548e+00 -5.6605267051337241e-02
2.4192204926483996e-02 1.3379460771364668e+01 -7.3030301350512231e-03
-1.5543518494522068e-02 1.4869021278306169e+01 2.0378476299880255e-01
ITEM: ATOMS id element xu yu zu
1 Al 4.45377 0.132383 1.72874
2 Al 1.63483 1.25295 3.30122
3 Al 1.65904 1.29715 0.412205
4 Al 4.15846 2.2122 3.9665
5 Al 0.51979 4.52131 3.32261
6 Al 3.02674 5.53429 6.98725
7 Al 0.573889 4.53747 0.479182
8 Al 3.02961 5.5927 4.05675
9 Al 4.04325 2.50787 7.03177
10 Al 2.7812 3.43223 1.88877
11 Al 0.295017 6.62826 5.46698
12 Al 1.8382 3.4128 5.52694
13 Ni 1.98661 5.77381 1.85049
14 Ni 0.0702598 2.45656 1.81082
15 Ni 2.80536 1.04033 5.5314
16 Ni 4.56789 4.27973 5.54184
17 Al 4.29598 0.252203 9.1151
18 Al 1.69144 1.29294 10.7825
19 Al 1.61449 1.4569 7.86728
20 Al 4.27887 2.39429 11.4925
21 Al 0.645844 4.50828 10.6874
22 Al 2.97331 5.84746 14.4867
23 Al 0.452829 4.43606 7.9108
24 Al 3.09428 5.66545 11.6157
25 Al 4.17489 2.47409 14.5111
26 Al 2.95117 3.51822 9.30213
27 Al 0.201906 6.68423 12.8622
28 Al 1.98112 3.47557 13.0224
29 Ni 2.0933 5.77248 9.19506
30 Ni 0.118181 2.4492 9.29473
31 Ni 2.71361 1.05902 13.0177
32 Ni 4.53803 4.45944 13.0958
33 Al 4.27941 6.56672 1.75526
34 Al 1.49905 7.79249 3.23746
35 Al 1.51725 7.73708 0.387417
36 Al 4.07781 8.82259 4.05773
37 Al 0.587856 11.0063 3.417
38 Al 2.88083 12.0984 7.00534
39 Al 0.628042 10.9261 0.483641
40 Al 3.12637 12.2768 4.06801
41 Al 3.9278 8.76775 7.00393
42 Al 2.69356 9.98063 1.73535
43 Al 0.403856 13.2847 5.59386
44 Al 2.01504 9.97689 5.46727
45 Ni 2.06162 12.3962 1.75408
46 Ni 0.0171986 9.11011 1.794
47 Ni 2.43304 7.53257 5.46231
48 Ni 4.42594 10.789 5.67732
49 Al 4.41759 6.81034 9.29631
50 Al 1.61466 7.82648 10.7072
51 Al 1.6265 7.87532 7.82633
52 Al 4.07175 8.92617 11.3706
53 Al 0.510713 11.2054 10.7148
54 Al 3.00733 12.2262 14.2673
55 Al 0.452266 11.2324 7.77379
56 Al 3.12601 12.3081 11.4145
57 Al 4.02146 8.89396 14.422
58 Al 2.73012 10.0166 9.16478
59 Al 0.311053 13.1647 12.9842
60 Al 1.98689 10.0387 12.9938
61 Ni 2.03306 12.4742 9.20691
62 Ni 0.311159 9.24839 9.41286
63 Ni 2.49063 7.67157 12.9488
64 Ni 4.4334 10.9762 13.0841
65 Al 9.2963 0.0444874 1.64108
66 Al 6.54895 1.09046 3.34576
67 Al 6.66592 1.11074 0.339309
68 Al 9.02233 2.07168 4.10801
69 Al 5.47159 4.46953 3.25934
70 Al 8.04972 5.66139 6.94523
71 Al 5.47949 4.5555 0.368056
72 Al 7.85826 5.48316 4.19293
73 Al 9.01086 2.18483 7.04545
74 Al 7.60817 3.35781 1.87302
75 Al 5.32174 6.6888 5.60427
76 Al 6.82366 3.36229 5.53729
77 Ni 6.96844 5.80246 1.88354
78 Ni 5.20929 2.39767 1.7752
79 Ni 7.47033 0.903633 5.50135
80 Ni 9.43153 4.19203 5.58107
81 Al 9.26109 0.147481 9.38019
82 Al 6.4701 1.17204 10.7374
83 Al 6.57782 1.26524 7.95891
84 Al 8.95725 2.33054 11.5723
85 Al 5.61531 4.55944 10.8302
86 Al 7.88268 5.61817 14.398
87 Al 5.60581 4.74928 7.75913
88 Al 7.86844 5.51571 11.5523
89 Al 9.0136 2.45089 14.5426
90 Al 7.68391 3.45907 9.23538
91 Al 5.23775 6.83382 12.9204
92 Al 6.89289 3.45944 13.0438
93 Ni 7.1174 5.9201 9.16939
94 Ni 5.14315 2.66028 9.30467
95 Ni 7.45421 1.06659 13.0409
96 Ni 9.53431 4.28415 13.0067
97 Al 9.18939 6.76675 1.81998
98 Al 6.56107 7.74051 3.26615
99 Al 6.53669 7.81427 0.27209
100 Al 8.83444 8.91503 4.05362
101 Al 5.51573 11.1575 3.25494
102 Al 7.95815 12.2129 6.91566
103 Al 5.33814 10.8508 0.428459
104 Al 7.91715 12.1537 4.06724
105 Al 9.07228 8.89843 6.86404
106 Al 7.49407 9.87153 1.75948
107 Al 5.04508 13.3184 5.76014
108 Al 6.75286 10.0313 5.51106
109 Ni 6.95677 12.3416 1.78473
110 Ni 5.01874 8.96171 1.87691
111 Ni 7.64045 7.53887 5.58631
112 Ni 9.48581 10.9589 5.49958
113 Al 9.24541 6.95025 9.28648
114 Al 6.50465 7.84919 10.6837
115 Al 6.51813 7.81855 7.80276
116 Al 9.07409 8.90998 11.5253
117 Al 5.52817 11.1994 10.8189
118 Al 7.90999 12.1069 14.4437
119 Al 5.45842 11.0486 7.70705
120 Al 7.82425 12.2265 11.6424
121 Al 8.89375 8.91465 14.4197
122 Al 7.78717 10.0877 9.12692
123 Al 5.13571 13.2872 12.9921
124 Al 6.89354 10.137 12.9399
125 Ni 6.92634 12.3936 9.3314
126 Ni 5.0127 9.1769 9.16555
127 Ni 7.50174 7.69504 12.8839
128 Ni 9.54547 10.9031 13.0213
ITEM: TIMESTEP
13200
ITEM: NUMBER OF ATOMS
128
ITEM: BOX BOUNDS xy xz yz pp pp pp
-7.8365640097814743e-02 9.8312157565212708e+00 -3.8639537046485574e-02
-1.3881084509034328e-01 1.3207336889168102e+01 1.6048383121366167e-01
4.5085359375462986e-04 1.4853026906217879e+01 -1.3134216921458589e-01
ITEM: ATOMS id element xu yu zu
1 Al 4.50652 0.0855064 1.82724
2 Al 1.79918 1.20779 3.28375
3 Al 1.64668 1.13192 0.437954
4 Al 4.26235 2.18279 4.25992
5 Al 0.70328 4.40711 3.2864
6 Al 3.2688 5.40476 7.04281
7 Al 0.660598 4.33525 0.392416
8 Al 3.06864 5.42449 4.17123
9 Al 4.23666 2.05061 6.90973
10 Al 2.77068 3.40634 1.8537
11 Al 0.401466 6.59278 5.62968
12 Al 1.96337 3.23621 5.53575
13 Ni 2.18492 5.68029 1.88179
14 Ni 0.196702 2.40362 1.80978
15 Ni 2.66416 0.822455 5.60341
16 Ni 4.71919 4.15341 5.59315
17 Al 4.53745 -0.0112253 9.31351
18 Al 1.7611 0.910397 10.7981
19 Al 1.74938 1.06123 7.88874
20 Al 4.23238 2.13269 11.3948
21 Al 0.697197 4.34192 10.7369
22 Al 3.22126 5.32259 14.5429
23 Al 0.833077 4.22851 7.71985
24 Al 3.05289 5.37611 11.5359
25 Al 4.31691 2.12193 14.5157
26 Al 2.86322 3.22078 9.21346
27 Al 0.565245 6.47477 13.0473
28 Al 2.02759 3.23108 12.9087
29 Ni 2.16609 5.66114 9.21004
30 Ni 0.327653 2.40285 9.23061
31 Ni 2.74763 0.84123 12.9863
32 Ni 4.59693 4.01931 12.8925
33 Al 4.29161 6.77999 1.92544
34 Al 1.76719 7.68005 3.35357
35 Al 1.77103 7.64068 0.409123
36 Al 4.1799 8.84152 4.13612
37 Al 0.60329 10.8646 3.34836
38 Al 3.14011 11.9956 7.04114
39 Al 0.544309 11.0639 0.52867
40 Al 2.92033 12.0604 4.08233
41 Al 4.15601 8.69598 7.05453
42 Al 2.78639 9.91109 1.7707
43 Al 0.402952 13.0577 5.54187
44 Al 2.10628 9.79958 5.55728
45 Ni 2.11912 12.3922 1.81476
46 Ni 0.394748 8.97874 1.6958
47 Ni 2.77003 7.44367 5.64385
48 Ni 4.58458 10.7705 5.4393
49 Al 4.53907 6.6268 9.15897
50 Al 1.83444 7.7237 10.7367
51 Al 1.76511 7.74821 7.88329
52 Al 4.43104 8.58464 11.49
53 Al 0.751609 10.9942 10.6685
54 Al 3.24001 12.054 14.3853
55 Al 0.837183 11.0298 7.82604
56 Al 3.16066 12.1165 11.6332
57 Al 4.33928 8.63749 14.2909
58 Al 3.08604 9.9345 9.33347
59 Al 0.266033 13.0459 12.9252
60 Al 2.08301 9.73686 12.9269
61 Ni 2.25311 12.3191 9.34203
62 Ni 0.216288 8.89409 9.2125
63 Ni 2.84871 7.33702 12.9763
64 Ni 4.62646 10.6594 12.9379
65 Al 9.21609 0.0487142 1.90294
66 Al 6.67946 1.01941 3.37384
67 Al 6.49961 1.1845 0.430675
68 Al 9.01442 2.0685 4.13622
69 Al 5.52427 4.49775 3.3386
70 Al 8.00117 5.40608 7.03473
71 Al 5.4427 4.52926 0.277955
72 Al 7.9964 5.51808 4.08964
73 Al 9.18906 2.08556 6.94013
74 Al 7.62158 3.32264 1.82024
75 Al 5.22693 6.65608 5.51198
76 Al 6.91766 3.26306 5.57109
77 Ni 6.91954 5.69285 1.87413
78 Ni 5.02312 2.43976 1.94556
79 Ni 7.6433 0.734253 5.54557
80 Ni 9.39964 4.12431 5.53204
81 Al 9.32377 0.0123934 9.09875
82 Al 6.65181 1.07187 10.721
83 Al 6.77926 1.18607 7.88125
84 Al 9.05057 2.05212 11.5151
85 Al 5.49166 4.41169 10.595
86 Al 8.09287 5.3197 14.4968
87 Al 5.61306 4.45591 7.85272
88 Al 7.94776 5.45568 11.4999
89 Al 9.02791 1.96503 14.5218
90 Al 7.78069 3.36012 9.29422
91 Al 5.32206 6.3559 12.9121
92 Al 6.84852 3.02409 12.9154
93 Ni 7.01589 5.66181 9.32483
94 Ni 5.11704 2.31151 9.29306
95 Ni 7.56388 0.734549 12.9572
96 Ni 9.40285 4.06573 12.9543
97 Al 9.4437 6.52744 1.95478
98 Al 6.5377 7.84273 3.26988
99 Al 6.50672 7.63999 0.361714
100 Al 9.14922 8.66866 4.13208
101 Al 5.55409 10.9412 3.10945
102 Al 8.02984 12.0038 6.97108
103 Al 5.47568 11.057 0.264923
104 Al 7.95292 11.9204 4.09558
105 Al 9.02418 8.78965 6.85608
106 Al 7.8209 9.83256 1.86699
107 Al 5.25407 13.0287 5.32984
108 Al 6.81516 9.83683 5.52861
109 Ni 6.98642 12.2429 1.82301
110 Ni 5.11438 9.14488 1.68205
111 Ni 7.56767 7.40357 5.53795
112 Ni 9.4823 10.7008 5.58298
113 Al 9.37454 6.44667 9.27899
114 Al 6.68944 7.64374 10.8196
115 Al 6.82632 7.62696 7.91302
116 Al 9.15574 8.62902 11.5136
117 Al 5.48222 11.1178 10.6581
118 Al 7.93531 12.1165 14.355
119 Al 5.46892 10.9749 7.73506
120 Al 7.94588 11.995 11.3714
121 Al 9.09937 8.66012 14.3735
122 Al 7.72449 9.99772 9.46363
123 Al 5.37082 13.0239 12.9259
124 Al 6.86269 9.63865 13.0116
125 Ni 7.0559 12.4001 9.19288
126 Ni 5.19725 8.91476 9.29315
127 Ni 7.7516 7.25383 13.0566
128 Ni 9.39715 10.7245 12.9432
ITEM: TIMESTEP
13300
ITEM: NUMBER OF ATOMS
128
ITEM: BOX BOUNDS xy xz yz pp pp pp
2.2493363403083499e-02 9.6512042698995568e+00 3.9634666595147125e-02
-3.4885737693573932e-01 1.3269397665468471e+01 3.0571444512080309e-03
-5.8129210605952331e-02 1.4911606970417587e+01 -2.7932792475962392e-01
ITEM: ATOMS id element xu yu zu
1 Al 4.36077 0.0106045 1.83478
2 Al 1.75911 0.879137 3.27126
3 Al 1.75915 1.04518 0.367771
4 Al 4.14241 2.01037 3.99876
5 Al 0.71208 4.46137 3.20135
6 Al 3.10578 5.34667 6.96993
7 Al 0.668876 4.36778 0.355537
8 Al 3.13198 5.39978 3.95518
9 Al 4.10583 1.95133 6.87491
10 Al 2.77912 3.26595 1.80639
11 Al 0.585608 6.41538 5.41786
12 Al 2.00925 3.1251 5.69977
13 Ni 2.20242 5.74228 1.6914
14 Ni 0.378525 2.44852 1.81596
15 Ni 2.70089 0.645106 5.439
16 Ni 4.43101 3.9215 5.52898
17 Al 4.4224 -0.271501 9.29952
18 Al 2.02501 0.972253 10.5885
19 Al 1.66435 0.829408 7.7453
20 Al 4.27241 1.89963 11.4943
21 Al 0.699726 4.27816 10.7432
22 Al 3.01726 5.15989 14.5036
23 Al 0.578444 4.4856 7.84588
24 Al 3.16642 5.20171 11.5968
25 Al 4.10986 1.8279 14.4929
26 Al 2.76266 3.29901 9.15142
27 Al 0.440796 6.30079 12.9395
28 Al 2.03559 2.89461 12.9899
29 Ni 2.12205 5.75998 9.35684
30 Ni 0.346971 2.34069 9.18271
31 Ni 2.64812 0.409208 12.9573
32 Ni 4.52091 3.83813 13.059
33 Al 4.5761 6.48117 1.61408
34 Al 1.8699 7.6651 3.17523
35 Al 1.92929 7.79833 0.405939
36 Al 4.29409 8.69458 4.2512
37 Al 0.653403 10.9974 3.30787
38 Al 3.05385 11.9726 7.02977
39 Al 0.724745 11.0857 0.365706
40 Al 3.11776 12.0012 4.11589
41 Al 4.25397 8.68566 6.88358
42 Al 2.93595 9.9472 1.86748
43 Al 0.405834 13.1586 5.46494
44 Al 1.95724 9.70967 5.59984
45 Ni 2.05118 12.3239 1.81915
46 Ni 0.313362 9.09303 1.91383
47 Ni 2.90187 7.40587 5.44722
48 Ni 4.62626 10.6638 5.61117
49 Al 4.50013 6.45794 9.39975
50 Al 1.75472 7.5415 10.7594
51 Al 1.946 7.66186 7.78765
52 Al 4.16022 8.71235 11.5122
53 Al 0.652667 10.9371 10.788
54 Al 3.18395 11.8446 14.5897
55 Al 0.673658 10.8998 7.81147
56 Al 3.07389 11.7843 11.5222
57 Al 4.29363 8.55384 14.478
58 Al 2.80817 9.71114 9.23679
59 Al 0.35844 13.0778 12.9555
60 Al 2.08009 9.54299 13.0986
61 Ni 2.01426 12.1937 9.18466
62 Ni 0.253944 8.91904 9.32604
63 Ni 2.69634 7.25711 12.9861
64 Ni 4.62286 10.6368 13.0321
65 Al 9.20478 -0.0903843 1.83853
66 Al 6.65815 1.06455 3.28959
67 Al 6.52382 0.985422 0.234066
68 Al 8.98305 2.13379 4.12909
69 Al 5.51919 4.27003 3.25268
70 Al 7.67478 5.3516 6.87824
71 Al 5.4436 4.22086 0.33975
72 Al 7.92902 5.42018 4.10677
73 Al 8.99585 2.09535 7.00036
74 Al 7.80074 3.34386 1.83287
75 Al 5.22957 6.22543 5.5302
76 Al 6.71535 3.11706 5.43137
77 Ni 7.00394 5.67496 1.73384
78 Ni 5.18112 2.32577 1.67316
79 Ni 7.5365 0.832162 5.48488
80 Ni 9.43645 4.06054 5.56247
81 Al 9.21193 -0.255986 9.36495
82 Al 6.65681 0.936949 10.7107
83 Al 6.55017 0.806854 7.80162
84 Al 8.92841 1.97213 11.4673
85 Al 5.49815 4.15181 10.6897
86 Al 7.77825 5.26486 14.3917
87 Al 5.39714 4.25464 7.81075
88 Al 7.84338 5.34479 11.457
89 Al 8.98243 1.88439 14.5208
90 Al 7.55493 3.07702 9.19592
91 Al 5.1787 6.32998 13.1441
92 Al 6.7688 2.97096 13.1658
93 Ni 6.88092 5.46786 9.26219
94 Ni 5.10506 2.2266 9.24118
95 Ni 7.57758 0.687464 13.0012
96 Ni 9.4584 3.95918 13.008
97 Al 9.30879 6.71967 1.5901
98 Al 6.55688 7.62736 3.31579
99 Al 6.70541 7.89591 0.369837
100 Al 9.16168 8.7226 4.20022
101 Al 5.53311 10.9515 3.33692
102 Al 7.94771 12.0195 6.99879
103 Al 5.4583 11.241 0.350117
104 Al 7.94496 12.1302 4.02705
105 Al 9.05199 8.40173 6.94646
106 Al 7.59712 10.1416 1.86112
107 Al 5.31015 13.1295 5.58582
108 Al 6.95433 9.84832 5.54789
109 Ni 6.93429 12.4908 1.84481
110 Ni 5.1805 8.97778 1.92855
111 Ni 7.48213 7.41999 5.49075
112 Ni 9.33255 10.6144 5.51969
113 Al 9.0958 6.5625 9.36166
114 Al 6.60903 7.55822 10.6692
115 Al 6.43926 7.46836 7.74664
116 Al 8.99172 8.59108 11.6103
117 Al 5.65181 10.8998 10.767
118 Al 7.96342 12.0261 14.4811
119 Al 5.33811 10.9967 7.89679
120 Al 7.90963 12.084 11.5753
121 Al 9.10896 8.46731 14.4577
122 Al 7.63802 9.79438 9.22885
123 Al 5.16457 13.0822 13.1333
124 Al 6.73815 9.69592 13.0606
125 Ni 6.97086 12.1994 9.39686
126 Ni 5.18457 8.93585 9.39759
127 Ni 7.45737 7.26811 12.9925
128 Ni 9.4045 10.5304 13.0341
ITEM: TIMESTEP
13400
ITEM: NUMBER OF ATOMS
128
ITEM: BOX BOUNDS xy xz yz pp pp pp
-1.4183687595799807e-01 9.6864276951603312e+00 5.7289666489510588e-02
-5.5354359761220273e-02 1.3295267833571961e+01 -1.4370466954346636e-01
-2.7082158342810914e-02 1.4880559918154439e+01 4.0045260518385258e-02
ITEM: ATOMS id element xu yu zu
1 Al 4.52006 -0.00435977 1.75935
2 Al 1.82573 1.05152 3.21338
3 Al 1.90797 1.07806 0.359168
4 Al 4.21833 2.19179 4.15214
5 Al 0.636881 4.23905 3.22209
6 Al 2.98422 5.34953 6.80606
7 Al 0.75522 4.44332 0.3828
8 Al 2.93225 5.55055 4.10953
9 Al 4.15115 2.24176 6.97012
10 Al 2.73537 3.36226 1.6814
11 Al 0.195481 6.60684 5.53013
12 Al 1.99765 3.2561 5.33377
13 Ni 2.12299 5.7814 1.84235
14 Ni 0.285018 2.41593 1.71174
15 Ni 2.65676 0.829062 5.62896
16 Ni 4.50307 4.24054 5.49326
17 Al 4.37758 0.0642715 9.20585
18 Al 1.61342 1.13166 10.8897
19 Al 1.79537 1.1916 7.9179
20 Al 4.1109 2.11123 11.5142
21 Al 0.476799 4.41701 10.7188
22 Al 2.91462 5.55901 14.4598
23 Al 0.733936 4.21595 7.74508
24 Al 3.00377 5.59347 11.5535
25 Al 4.24159 2.18347 14.43
26 Al 2.76249 3.26135 9.41757
27 Al 0.324372 6.72951 12.9373
28 Al 1.89875 3.37978 12.9735
29 Ni 2.14136 5.5493 9.20666
30 Ni 0.179479 2.3616 9.32977
31 Ni 2.74249 0.969108 13.0545
32 Ni 4.52465 4.25985 12.9757
33 Al 4.25206 6.83149 1.89707
34 Al 1.71732 7.80197 3.28578
35 Al 1.69197 7.64212 0.347254
36 Al 4.1311 8.75346 4.03016
37 Al 0.517557 11.082 3.2158
38 Al 3.0761 12.1597 7.09696
39 Al 0.725267 11.2175 0.434596
40 Al 3.10747 12.2858 4.16033
41 Al 4.0033 8.77139 6.8505
42 Al 2.80573 10.0055 1.88015
43 Al 0.435408 13.3145 5.63261
44 Al 1.95306 9.96284 5.40927
45 Ni 2.27159 12.4155 1.77718
46 Ni 0.319516 8.95676 1.83144
47 Ni 2.52501 7.47914 5.56646
48 Ni 4.49124 10.7768 5.5736
49 Al 4.36602 6.62815 9.17118
50 Al 1.83082 7.77633 10.6841
51 Al 1.57486 7.56955 7.73233
52 Al 4.14132 8.92461 11.6342
53 Al 0.583303 11.1262 10.7251
54 Al 3.01966 12.2364 14.4676
55 Al 0.66043 11.2502 7.91101
56 Al 2.97319 12.2181 11.588
57 Al 3.88722 8.83974 14.5484
58 Al 2.86598 10.1203 9.26486
59 Al 0.505492 13.1469 13.0333
60 Al 1.88528 9.94908 12.8898
61 Ni 2.1659 12.4525 9.24785
62 Ni 0.298184 9.09334 9.25183
63 Ni 2.7022 7.60058 13.0901
64 Ni 4.41308 10.7907 13.1164
65 Al 9.23711 0.0116651 1.87512
66 Al 6.54935 1.08624 3.26102
67 Al 6.72366 1.08107 0.323471
68 Al 8.79503 2.13265 4.08364
69 Al 5.27963 4.48206 3.21738
70 Al 7.8583 5.52739 7.15527
71 Al 5.4224 4.42589 0.309729
72 Al 7.74315 5.35998 4.11774
73 Al 8.85595 2.18822 7.02865
74 Al 7.62583 3.2626 1.82411
75 Al 5.10574 6.68215 5.52203
76 Al 6.72932 3.25113 5.56308
77 Ni 6.94115 5.72681 1.75727
78 Ni 5.00572 2.42979 1.82546
79 Ni 7.34841 0.824893 5.60121
80 Ni 9.33129 4.12315 5.44118
81 Al 9.04744 0.0710114 9.28834
82 Al 6.63805 1.08537 10.6832
83 Al 6.50431 1.23403 7.84572
84 Al 8.88115 2.00458 11.6139
85 Al 5.35311 4.47242 10.5636
86 Al 7.90102 5.47822 14.5249
87 Al 5.46499 4.39517 7.79358
88 Al 7.82513 5.59994 11.3836
89 Al 9.02223 2.25318 14.288
90 Al 7.59178 3.44152 9.42508
91 Al 5.20312 6.58019 12.8789
92 Al 6.79515 3.34034 12.8217
93 Ni 6.90367 5.84914 9.29898
94 Ni 5.06335 2.48612 9.38361
95 Ni 7.48972 0.712552 12.9946
96 Ni 9.27305 4.18577 12.9886
97 Al 9.24604 6.60925 1.95453
98 Al 6.52028 7.69851 3.19146
99 Al 6.43073 7.63945 0.218466
100 Al 8.86328 8.88728 4.04845
101 Al 5.37304 11.133 3.3592
102 Al 7.85821 12.1954 6.97816
103 Al 5.50519 11.0368 0.384015
104 Al 7.84726 12.1647 4.08393
105 Al 8.9034 9.06434 6.91519
106 Al 7.56471 10.028 1.82261
107 Al 5.15361 13.337 5.60034
108 Al 6.72483 9.70324 5.48388
109 Ni 7.05172 12.4602 1.80671
110 Ni 5.11278 9.10754 1.75849
111 Ni 7.53439 7.34647 5.62769
112 Ni 9.28606 10.9113 5.5707
113 Al 9.21041 6.63018 9.31916
114 Al 6.44052 7.73938 10.631
115 Al 6.48323 7.86434 7.87447
116 Al 8.82027 8.84362 11.568
117 Al 5.43761 10.9048 10.5433
118 Al 7.80124 12.1955 14.5781
119 Al 5.41791 11.0096 7.75117
120 Al 7.78634 12.0803 11.4302
121 Al 8.83443 8.84367 14.4957
122 Al 7.66226 10.0068 9.29259
123 Al 5.22082 13.0729 12.8908
124 Al 6.67797 10.0695 13.0035
125 Ni 6.91391 12.4173 9.27138
126 Ni 4.948 9.06921 9.25101
127 Ni 7.4469 7.52731 13.0067
128 Ni 9.29622 10.8781 13.0553
ITEM: TIMESTEP
13500
ITEM: NUMBER OF ATOMS
128
ITEM: BOX BOUNDS xy xz yz pp pp pp
-1.4230173932924151e-01 9.7087946351320760e+00 -6.0151989938177497e-03
1.2533608394281082e-02 1.3416697431863133e+01 -5.8497727459633123e-02
-6.5119528461750065e-03 1.4859989712657800e+01 2.2936282696504756e-01
ITEM: ATOMS id element xu yu zu
1 Al 4.25694 0.140325 1.8542
2 Al 1.81471 1.25678 3.24375
3 Al 1.75052 1.29153 0.395383
4 Al 4.23085 2.28698 4.2019
5 Al 0.540306 4.49653 3.39726
6 Al 3.03846 5.61069 6.99939
7 Al 0.619066 4.42836 0.371983
8 Al 2.99117 5.57122 4.21874
9 Al 4.15678 2.29622 7.06575
10 Al 2.94585 3.59185 2.04839
11 Al 0.391723 6.51637 5.63495
12 Al 1.84427 3.43293 5.68764
13 Ni 1.92662 5.7565 1.83957
14 Ni 0.118043 2.50133 1.91193
15 Ni 2.74073 0.990842 5.55555
16 Ni 4.57054 4.25369 5.61869
17 Al 4.35712 0.281723 9.1354
18 Al 1.68393 1.41535 10.7091
19 Al 1.6679 1.24403 7.73084
20 Al 4.07504 2.4352 11.5021
21 Al 0.55042 4.56348 10.7765
22 Al 2.88751 5.72404 14.4413
23 Al 0.509743 4.56445 7.98117
24 Al 3.0446 5.60105 11.4624
25 Al 4.07759 2.43544 14.5655
26 Al 2.90021 3.55017 9.19047
27 Al 0.17796 6.626 13.1088
28 Al 1.85303 3.43428 13.0397
29 Ni 1.93147 5.98479 9.26942
30 Ni 0.224506 2.59151 9.32232
31 Ni 2.5611 1.04992 12.9753
32 Ni 4.52711 4.4013 13.0063
33 Al 4.33613 6.63862 1.80652
34 Al 1.62684 7.73816 3.23476
35 Al 1.65416 7.81675 0.268258
36 Al 4.0774 8.75489 4.04408
37 Al 0.514407 11.0777 3.28257
38 Al 2.95661 12.2319 6.96739
39 Al 0.654939 10.9882 0.302328
40 Al 3.07044 12.2257 4.05834
41 Al 4.17713 8.83174 6.97801
42 Al 2.81877 9.94285 1.76303
43 Al 0.408575 13.2012 5.46509
44 Al 2.00966 9.96018 5.67125
45 Ni 1.98882 12.475 1.83311
46 Ni 0.0748599 9.15169 1.77728
47 Ni 2.55446 7.50419 5.67095
48 Ni 4.38052 10.9355 5.45845
49 Al 4.37112 6.85279 9.35632
50 Al 1.52873 7.8157 10.7472
51 Al 1.60965 7.90704 7.80708
52 Al 3.98805 8.88663 11.4472
53 Al 0.603908 11.2309 10.7194
54 Al 2.88393 12.2093 14.3593
55 Al 0.593593 11.0667 7.74852
56 Al 2.91304 12.3307 11.6502
57 Al 4.08415 8.92302 14.3065
58 Al 2.75308 10.1445 9.32369
59 Al 0.264663 13.3449 13.0699
60 Al 1.97728 10.0747 12.932
61 Ni 2.18989 12.4447 9.21724
62 Ni 0.190854 9.25835 9.16885
63 Ni 2.48144 7.51769 12.8633
64 Ni 4.58356 10.95 12.9186
65 Al 9.26255 -0.0312076 1.56756
66 Al 6.58057 1.17481 3.28042
67 Al 6.52719 1.02338 0.523158
68 Al 9.00202 2.25771 4.10125
69 Al 5.55533 4.47003 3.42781
70 Al 7.89439 5.72992 6.97669
71 Al 5.5145 4.49887 0.292203
72 Al 7.98811 5.66803 4.15176
73 Al 9.02384 2.21767 7.04505
74 Al 7.62085 3.38364 1.86492
75 Al 5.28544 6.75045 5.65503
76 Al 6.87678 3.24631 5.53467
77 Ni 7.00793 5.86604 1.96625
78 Ni 5.25196 2.56719 1.85306
79 Ni 7.57025 0.877969 5.51392
80 Ni 9.2996 4.17983 5.59748
81 Al 9.23066 0.170705 9.16228
82 Al 6.55242 1.17006 10.7123
83 Al 6.58423 1.23092 7.72493
84 Al 9.05915 2.40479 11.6036
85 Al 5.53553 4.74638 10.7322
86 Al 7.8469 5.71639 14.4381
87 Al 5.50766 4.592 7.77112
88 Al 7.94661 5.55355 11.3952
89 Al 8.98114 2.42039 14.566
90 Al 7.61941 3.48898 9.23646
91 Al 5.23099 6.85066 13.1311
92 Al 6.82657 3.47375 12.9933
93 Ni 7.08328 5.98953 9.26652
94 Ni 5.17794 2.62883 9.22512
95 Ni 7.49968 1.14982 12.9848
96 Ni 9.30802 4.29028 13.0507
97 Al 9.23607 6.7992 1.7055
98 Al 6.4899 7.87727 3.25247
99 Al 6.66918 7.76774 0.532312
100 Al 9.01904 8.92833 4.00255
101 Al 5.32447 11.1013 3.25127
102 Al 7.91136 12.114 6.90278
103 Al 5.47413 10.8151 0.244682
104 Al 7.87268 12.1178 4.0404
105 Al 8.94944 8.74916 6.95672
106 Al 7.56793 9.9654 1.88912
107 Al 5.26471 13.2043 5.44307
108 Al 6.80693 10.089 5.51621
109 Ni 7.00255 12.2452 1.81382
110 Ni 4.99212 9.03661 1.84693
111 Ni 7.53297 7.67601 5.42995
112 Ni 9.51624 10.8862 5.52229
113 Al 9.25301 6.72234 9.20166
114 Al 6.66267 7.93293 10.6858
115 Al 6.6226 7.88325 7.95137
116 Al 9.07092 8.88824 11.5448
117 Al 5.4961 11.1956 10.6769
118 Al 7.81755 12.1019 14.4441
119 Al 5.36687 11.0717 7.72114
120 Al 7.99951 12.2738 11.4191
121 Al 8.96523 9.01265 14.392
122 Al 7.55876 10.0642 9.30975
123 Al 5.10803 13.3784 13.1153
124 Al 6.76981 10.0236 12.8614
125 Ni 6.93963 12.4666 9.21039
126 Ni 5.12121 9.21484 9.27901
127 Ni 7.52422 7.67967 13.0089
128 Ni 9.41022 10.8885 12.8895
ITEM: TIMESTEP
13600
ITEM: NUMBER OF ATOMS
128
ITEM: BOX BOUNDS xy xz yz pp pp pp
-1.1122421281730246e-01 9.7563145704272820e+00 -5.0233138394930633e-02
2.7786588139593782e-02 1.3245994933083368e+01 6.4317673748618825e-02
-2.8218809351913343e-02 1.4881696569163552e+01 7.3913307930585648e-02
ITEM: ATOMS id element xu yu zu
1 Al 4.40863 0.019111 1.82611
2 Al 1.66987 1.10241 3.34836
3 Al 1.63644 1.23351 0.34339
4 Al 4.04644 2.24451 4.02291
5 Al 0.683379 4.50837 3.34685
6 Al 3.11981 5.65188 6.92065
7 Al 0.60055 4.45009 0.243296
8 Al 3.02741 5.43376 4.05649
9 Al 4.17981 2.23853 7.02977
10 Al 2.59401 3.3091 1.68099
11 Al 0.431615 6.83005 5.5803
12 Al 2.00713 3.38817 5.56715
13 Ni 2.22566 5.73946 1.87498
14 Ni 0.179198 2.48811 1.83984
15 Ni 2.60381 0.915044 5.47541
16 Ni 4.51255 4.15256 5.54064
17 Al 4.32444 0.0997941 9.3027
18 Al 1.67102 1.19977 10.7733
19 Al 1.83183 1.23408 7.71649
20 Al 4.0734 2.2759 11.4611
21 Al 0.579297 4.43359 10.7581
22 Al 3.0868 5.58142 14.5064
23 Al 0.696177 4.69446 7.91904
24 Al 2.95434 5.56799 11.6447
25 Al 4.13895 2.18169 14.4438
26 Al 2.69645 3.29061 9.31777
27 Al 0.488814 6.65022 13.0021
28 Al 2.0084 3.37039 13.0138
29 Ni 2.20996 5.85394 9.37435
30 Ni 0.247912 2.57337 9.16498
31 Ni 2.71882 0.89209 12.9582
32 Ni 4.51066 4.12033 13.0085
33 Al 4.47903 6.73392 1.68491
34 Al 1.7601 7.73012 3.28652
35 Al 1.73374 7.71215 0.365843
36 Al 4.27069 8.89948 3.99886
37 Al 0.589967 10.9155 3.27897
38 Al 3.04408 12.1037 6.96061
39 Al 0.550539 11.0932 0.318896
40 Al 3.14634 11.9927 4.01934
41 Al 4.10421 8.94525 7.10307
42 Al 2.84398 9.89387 1.79587
43 Al 0.28734 13.1182 5.63548
44 Al 1.97378 9.79716 5.45316
45 Ni 2.12034 12.3584 1.76232
46 Ni 0.286546 9.06905 1.87755
47 Ni 2.8737 7.53479 5.41244
48 Ni 4.65237 10.7485 5.53631
49 Al 4.41818 6.73537 9.18332
50 Al 1.90136 7.96661 10.7321
51 Al 1.8382 7.84929 7.86077
52 Al 4.29642 8.82365 11.6887
53 Al 0.622524 11.031 10.8213
54 Al 3.03113 12.2367 14.3563
55 Al 0.674072 10.9808 7.64219
56 Al 3.02122 11.9678 11.5489
57 Al 4.14222 9.07421 14.4735
58 Al 2.69552 10.0434 9.16389
59 Al 0.411282 13.3205 12.9397
60 Al 1.90763 9.98795 13.0424
61 Ni 1.96924 12.4057 9.31081
62 Ni 0.246246 9.01164 9.37139
63 Ni 2.73932 7.58182 13.0869
64 Ni 4.43325 10.8162 13.0297
65 Al 9.14612 0.194329 1.97062
66 Al 6.60643 1.21176 3.31734
67 Al 6.49313 1.42598 0.377987
68 Al 8.9791 2.40436 4.1306
69 Al 5.54071 4.47866 3.3196
70 Al 7.96833 5.43167 7.0726
71 Al 5.38647 4.37014 0.400822
72 Al 8.0393 5.48747 4.06494
73 Al 9.12193 2.24685 6.96649
74 Al 7.61272 3.37123 1.86909
75 Al 5.27935 6.62543 5.46422
76 Al 6.88435 3.32935 5.62709
77 Ni 6.98261 5.7631 1.7231
78 Ni 5.05454 2.38262 1.83723
79 Ni 7.57755 0.931614 5.52271
80 Ni 9.53994 4.31904 5.52116
81 Al 9.38977 0.096037 9.32616
82 Al 6.47379 1.29595 10.7016
83 Al 6.61504 1.13102 7.80995
84 Al 9.11446 2.34451 11.4986
85 Al 5.59462 4.41431 10.9236
86 Al 7.92533 5.52148 14.3451
87 Al 5.36354 4.46899 7.84773
88 Al 7.92342 5.48222 11.5586
89 Al 9.02783 2.31626 14.421
90 Al 7.66797 3.3867 9.19619
91 Al 5.22993 6.53242 12.9633
92 Al 6.83868 3.24165 13.0682
93 Ni 6.93267 5.69015 9.31626
94 Ni 4.91308 2.46449 9.20564
95 Ni 7.48427 0.959402 12.8486
96 Ni 9.50009 4.30398 12.955
97 Al 9.32279 6.54636 1.8747
98 Al 6.60919 7.67755 3.23739
99 Al 6.53342 7.70128 0.375673
100 Al 8.94278 8.72053 4.09283
101 Al 5.64 11.0074 3.23437
102 Al 8.01668 12.1015 6.98306
103 Al 5.4253 11.072 0.246101
104 Al 7.86597 12.0247 3.98832
105 Al 9.04196 8.70622 7.14823
106 Al 7.734 9.82166 1.71625
107 Al 5.28113 13.0582 5.53706
108 Al 6.8679 9.82881 5.485
109 Ni 6.91505 12.4902 1.71677
110 Ni 5.09156 9.06407 1.85164
111 Ni 7.45235 7.47734 5.67181
112 Ni 9.38556 10.8053 5.46219
113 Al 9.13888 6.54163 9.3769
114 Al 6.55928 7.67043 10.6187
115 Al 6.6086 7.69395 7.88212
116 Al 8.96377 8.82307 11.5386
117 Al 5.60003 11.1113 10.8073
118 Al 7.89143 12.1788 14.4791
119 Al 5.59768 11.0339 7.829
120 Al 7.96274 12.117 11.5933
121 Al 9.0256 8.80715 14.492
122 Al 7.54369 9.98198 9.26557
123 Al 5.21378 13.2278 12.8934
124 Al 6.71755 9.85146 13.0221
125 Ni 7.11636 12.4601 9.37831
126 Ni 5.22939 9.0711 9.25171
127 Ni 7.54916 7.50082 12.9732
128 Ni 9.41476 10.8833 12.9457
ITEM: TIMESTEP
13700
ITEM: NUMBER OF ATOMS
128
ITEM: BOX BOUNDS xy xz yz pp pp pp
-1.9329505916274019e-02 9.6874496162430912e+00 -2.0270648927976868e-03
-1.8167352038098919e-01 1.3222490235086768e+01 3.9141352963327880e-02
-4.8061375903207804e-02 1.4901539135714847e+01 -1.5905149858660231e-01
ITEM: ATOMS id element xu yu zu
1 Al 4.38462 0.0181729 1.84639
2 Al 1.7227 1.2372 3.28208
3 Al 1.69101 0.853582 0.265069
4 Al 4.15062 2.07344 3.99183
5 Al 0.620955 4.4782 3.30244
6 Al 3.16579 5.39053 7.06299
7 Al 0.624708 4.52541 0.300458
8 Al 3.07169 5.51424 3.96801
9 Al 4.10138 2.08731 7.16212
10 Al 2.65021 3.32576 1.81408
11 Al 0.438225 6.39719 5.31017
12 Al 2.00608 3.13041 5.42992
13 Ni 2.22715 5.78186 1.76238
14 Ni 0.349096 2.36333 1.69017
15 Ni 2.5433 0.728778 5.63568
16 Ni 4.47252 4.16854 5.49992
17 Al 4.42928 0.00751404 9.27158
18 Al 1.76491 0.961049 10.6814
19 Al 1.68435 0.986609 7.74246
20 Al 4.30264 1.96522 11.6615
21 Al 0.706314 4.35226 10.804
22 Al 3.11949 5.31049 14.4714
23 Al 0.721716 4.26319 7.82749
24 Al 3.11256 5.4805 11.5248
25 Al 4.17473 2.0902 14.3453
26 Al 2.93086 3.24642 9.1409
27 Al 0.408223 6.41961 12.9844
28 Al 2.00947 3.1465 12.9865
29 Ni 2.15478 5.66085 9.15475
30 Ni 0.245676 2.37102 9.30843
31 Ni 2.56412 0.764697 13.046
32 Ni 4.55195 4.06979 12.9546
33 Al 4.62212 6.61253 1.88497
34 Al 1.77189 7.74822 3.28301
35 Al 1.77785 7.5976 0.32583
36 Al 4.1608 8.78046 4.08266
37 Al 0.547518 11.0944 3.45287
38 Al 3.01975 11.945 7.016
39 Al 0.642104 10.9729 0.431208
40 Al 3.01338 12.1393 4.14299
41 Al 4.20598 8.7481 6.99226
42 Al 2.90445 9.834 1.86388
43 Al 0.309395 13.2353 5.57639
44 Al 2.03178 9.84162 5.54562
45 Ni 2.1739 12.2553 1.85933
46 Ni 0.240714 9.02988 1.77631
47 Ni 2.56004 7.44701 5.61809
48 Ni 4.67025 10.7413 5.57906
49 Al 4.49149 6.62443 9.3857
50 Al 1.70362 7.53313 10.6769
51 Al 1.85171 7.7505 7.78795
52 Al 4.18318 8.71548 11.6924
53 Al 0.638174 11.0339 10.7737
54 Al 3.20048 11.8176 14.531
55 Al 0.639734 11.005 7.80205
56 Al 3.14027 11.9846 11.5595
57 Al 4.26933 8.56257 14.529
58 Al 2.80058 9.82538 9.26098
59 Al 0.377491 13.0487 12.8125
60 Al 2.07562 9.78962 13.0414
61 Ni 2.17346 12.1965 9.22564
62 Ni 0.348662 8.96335 9.25308
63 Ni 2.76697 7.34385 13.0092
64 Ni 4.6598 10.6286 13.0004
65 Al 9.19891 0.0605814 1.7834
66 Al 6.66478 1.18724 3.20152
67 Al 6.41391 1.15049 0.385741
68 Al 8.98413 2.13499 3.99125
69 Al 5.45129 4.28703 3.18449
70 Al 7.96429 5.40928 7.02737
71 Al 5.52446 4.40229 0.36483
72 Al 7.83419 5.27727 3.97286
73 Al 8.8474 2.1831 7.11473
74 Al 7.75247 3.27263 1.64432
75 Al 5.37666 6.42358 5.52281
76 Al 6.82505 3.22907 5.45662
77 Ni 6.90726 5.68403 1.84173
78 Ni 5.11094 2.40374 1.71211
79 Ni 7.55666 0.896953 5.57925
80 Ni 9.35505 4.02017 5.45625
81 Al 9.04574 -0.0924632 9.30899
82 Al 6.57027 0.951166 10.7599
83 Al 6.60335 1.05797 7.79335
84 Al 9.00577 2.18451 11.4453
85 Al 5.35482 4.26689 10.6366
86 Al 8.01802 5.3034 14.5295
87 Al 5.60545 4.23691 7.7302
88 Al 7.7807 5.41592 11.5252
89 Al 9.0382 2.0642 14.3003
90 Al 7.62184 3.32976 9.36317
91 Al 5.27785 6.46678 12.9402
92 Al 6.83848 3.21931 12.8565
93 Ni 6.9508 5.70162 9.23496
94 Ni 5.11865 2.26836 9.27813
95 Ni 7.58864 0.681191 13.0792
96 Ni 9.42523 4.06398 12.9936
97 Al 9.02235 6.67489 1.84655
98 Al 6.69841 7.8016 3.29223
99 Al 6.66274 7.75299 0.402437
100 Al 9.11663 8.70129 4.15607
101 Al 5.4674 11.0984 3.35948
102 Al 8.00069 12.0997 6.967
103 Al 5.55917 11.0857 0.311232
104 Al 7.84185 12.1512 4.10898
105 Al 9.11875 8.70462 6.95363
106 Al 7.81716 9.99865 1.90486
107 Al 5.1447 13.2174 5.50877
108 Al 6.85162 9.73149 5.59762
109 Ni 7.00092 12.3665 2.01288
110 Ni 5.23255 9.04949 1.79654
111 Ni 7.70178 7.3305 5.41238
112 Ni 9.28 10.7037 5.66337
113 Al 9.11382 6.51523 9.23839
114 Al 6.55475 7.80258 10.7345
115 Al 6.64018 7.75196 7.73236
116 Al 9.04205 8.68483 11.5903
117 Al 5.39533 11.003 10.7367
118 Al 7.94686 11.9221 14.5756
119 Al 5.43164 10.9127 7.81606
120 Al 7.8671 11.9127 11.5794
121 Al 9.03864 8.55046 14.5247
122 Al 7.63444 9.91718 9.24468
123 Al 5.32886 13.0843 12.9527
124 Al 6.99598 9.8638 13.074
125 Ni 6.84632 12.1398 9.1603
126 Ni 5.12948 8.92841 9.26251
127 Ni 7.63186 7.3164 13.0852
128 Ni 9.44135 10.6092 13.0725
ITEM: TIMESTEP
13800
ITEM: NUMBER OF ATOMS
128
ITEM: BOX BOUNDS xy xz yz pp pp pp
-6.3485376995330411e-02 9.6975778224775926e+00 5.5827586244534627e-02
-1.8148513388949197e-01 1.3249039069192989e+01 -5.2740963018578106e-02
-1.0411305004273785e-02 1.4863889064815927e+01 -1.3231427798888543e-01
ITEM: ATOMS id element xu yu zu
1 Al 4.50839 -0.0237376 1.70262
2 Al 1.74468 1.07646 3.22728
3 Al 1.83694 1.24615 0.425258
4 Al 4.165 2.1194 4.02657
5 Al 0.616862 4.26674 3.37732
6 Al 3.02556 5.27847 6.99641
7 Al 0.65865 4.43945 0.269561
8 Al 3.00112 5.32823 3.99374
9 Al 4.14715 2.1358 7.1616
10 Al 2.96133 3.42545 1.98142
11 Al 0.388533 6.50582 5.67343
12 Al 1.95742 3.12101 5.58176
13 Ni 2.04932 5.63036 1.77016
14 Ni 0.216941 2.42053 1.92118
15 Ni 2.76313 0.832518 5.45762
16 Ni 4.62287 4.08782 5.5501
17 Al 4.59185 -0.0650071 9.42124
18 Al 1.73203 0.978347 10.8013
19 Al 1.80975 1.0983 7.73879
20 Al 4.21046 2.15049 11.5625
21 Al 0.474412 4.30591 10.6447
22 Al 3.01206 5.41394 14.3315
23 Al 0.554033 4.31635 7.82088
24 Al 3.11526 5.31423 11.5399
25 Al 4.33107 1.926 14.3735
26 Al 2.84597 3.29349 9.34655
27 Al 0.309505 6.5092 13.1452
28 Al 1.93005 3.07355 12.9474
29 Ni 2.09074 5.62465 9.33382
30 Ni 0.209205 2.37643 9.29603
31 Ni 2.79578 0.786038 13.0005
32 Ni 4.61987 4.01938 12.9921
33 Al 4.32169 6.6732 1.81078
34 Al 1.82341 7.71902 3.23916
35 Al 1.84583 7.8332 0.381863
36 Al 4.22694 8.70288 4.16515
37 Al 0.63459 11.0865 3.34394
38 Al 3.08429 12.1668 7.03108
39 Al 0.782251 11.0205 0.346922
40 Al 3.01297 12.0428 4.0825
41 Al 4.18258 8.61829 7.00076
42 Al 2.91342 10.1302 1.83432
43 Al 0.528487 13.1452 5.47225
44 Al 2.04849 9.80471 5.69167
45 Ni 2.14974 12.4389 1.74232
46 Ni 0.267673 9.06794 1.79491
47 Ni 2.61306 7.42868 5.51075
48 Ni 4.37084 10.646 5.57132
49 Al 4.37109 6.58268 9.17652
50 Al 1.70277 7.61959 10.6929
51 Al 1.72785 7.7159 7.73016
52 Al 4.16932 8.52249 11.4559
53 Al 0.683342 10.9517 10.7167
54 Al 3.12306 12.0213 14.5163
55 Al 0.581776 11.1392 7.90369
56 Al 3.17608 11.9956 11.5009
57 Al 4.08598 8.58359 14.4088
58 Al 2.96433 10.0021 9.25517
59 Al 0.642155 13.0636 13.1888
60 Al 2.05259 9.74713 12.8485
61 Ni 2.16787 12.391 9.31039
62 Ni 0.31008 9.05714 9.21867
63 Ni 2.67243 7.3407 12.912
64 Ni 4.52691 10.6463 12.9979
65 Al 9.24689 -0.121512 1.83465
66 Al 6.52549 0.931555 3.25359
67 Al 6.60246 1.13437 0.463306
68 Al 8.97497 1.89722 4.15136
69 Al 5.44463 4.49781 3.17697
70 Al 7.67975 5.36305 7.04365
71 Al 5.49803 4.41034 0.432464
72 Al 8.01406 5.47518 4.07677
73 Al 8.99416 1.96577 6.91563
74 Al 7.58774 3.28505 1.90173
75 Al 5.16669 6.42692 5.54605
76 Al 6.82903 3.09751 5.49337
77 Ni 7.03114 5.76898 1.75354
78 Ni 5.1463 2.39138 1.86321
79 Ni 7.42523 0.684551 5.54463
80 Ni 9.28504 4.13555 5.51508
81 Al 9.2193 -0.108074 9.3424
82 Al 6.5158 1.15782 10.8521
83 Al 6.61277 1.13518 7.74555
84 Al 9.04571 2.00872 11.615
85 Al 5.55103 4.41805 10.7899
86 Al 7.84126 5.41017 14.4082
87 Al 5.32703 4.37846 7.87458
88 Al 7.94627 5.53013 11.4299
89 Al 8.93905 1.97816 14.4814
90 Al 7.58428 3.22901 9.22469
91 Al 5.21096 6.53861 13.0133
92 Al 6.8209 3.02932 13.0869
93 Ni 7.00263 5.63662 9.24272
94 Ni 5.11541 2.52358 9.29058
95 Ni 7.51593 0.638041 12.9945
96 Ni 9.29358 3.956 13.0153
97 Al 9.29637 6.58348 1.68789
98 Al 6.5534 7.54158 3.25748
99 Al 6.57011 7.89564 0.341156
100 Al 8.93904 8.73712 4.11936
101 Al 5.43001 11.0688 3.30918
102 Al 7.87615 12.0124 7.00833
103 Al 5.44818 10.9874 0.312786
104 Al 7.89781 12.0621 3.89684
105 Al 8.97054 8.87369 6.94348
106 Al 7.68963 9.91175 1.86556
107 Al 5.24384 13.0138 5.51655
108 Al 6.73748 9.95417 5.59871
109 Ni 6.98837 12.3216 1.65322
110 Ni 5.01372 8.97282 1.83496
111 Ni 7.48412 7.54238 5.59141
112 Ni 9.50589 10.8404 5.57498
113 Al 9.26269 6.64872 9.29278
114 Al 6.49693 7.61087 10.6435
115 Al 6.50863 7.63804 7.81997
116 Al 9.02689 8.71972 11.6094
117 Al 5.46992 10.8488 10.7826
118 Al 7.86598 11.8868 14.3381
119 Al 5.41069 10.9847 7.8555
120 Al 7.91786 11.9436 11.5719
121 Al 8.83565 8.82687 14.4512
122 Al 7.6846 10.0244 9.23787
123 Al 5.28805 13.1626 13.0707
124 Al 6.728 9.77706 12.9246
125 Ni 6.97726 12.396 9.3851
126 Ni 5.08776 8.94222 9.16543
127 Ni 7.5677 7.42648 12.9157
128 Ni 9.41876 10.706 12.9261
ITEM: TIMESTEP
13900
ITEM: NUMBER OF ATOMS
128
ITEM: BOX BOUNDS xy xz yz pp pp pp
-1.0019468721254988e-01 9.7005975589917952e+00 3.4631072936551710e-02
-2.6594321874252813e-02 1.3361259287882959e+01 -6.5234023413604417e-02
8.8813766473716527e-04 1.4852589622146908e+01 1.3479675271632321e-01
ITEM: ATOMS id element xu yu zu
1 Al 4.47638 0.09944 1.86944
2 Al 1.7226 1.07752 3.38223
3 Al 1.77851 1.08673 0.404717
4 Al 4.13841 2.20848 4.07638
5 Al 0.534097 4.48959 3.24289
6 Al 3.08664 5.51886 7.03549
7 Al 0.582019 4.44495 0.420949
8 Al 3.12 5.4999 4.05375
9 Al 4.29441 2.32404 6.99106
10 Al 2.93736 3.33225 1.86714
11 Al 0.366918 6.70402 5.49538
12 Al 1.99202 3.34248 5.5535
13 Ni 2.08872 5.85494 1.95135
14 Ni 0.2187 2.38787 1.81125
15 Ni 2.67633 0.919332 5.61563
16 Ni 4.4975 4.24869 5.63195
17 Al 4.2049 0.153646 9.16058
18 Al 1.74671 1.36246 10.8209
19 Al 1.80809 1.10723 7.78236
20 Al 4.23499 2.26496 11.5752
21 Al 0.675329 4.47527 10.625
22 Al 2.94465 5.56932 14.5061
23 Al 0.513858 4.49709 7.79954
24 Al 3.06656 5.59597 11.5634
25 Al 4.09707 2.26421 14.4422
26 Al 2.8372 3.40721 9.13169
27 Al 0.300979 6.60715 12.7223
28 Al 2.02851 3.41379 13.0249
29 Ni 2.04117 5.83744 9.23369
30 Ni 0.332734 2.53816 9.26726
31 Ni 2.66761 0.983105 12.9248
32 Ni 4.4674 4.30855 12.9815
33 Al 4.31389 6.77334 1.90242
34 Al 1.65743 7.67999 3.40706
35 Al 1.72044 7.75669 0.365895
36 Al 4.01825 8.85242 4.04747
37 Al 0.584881 11.2179 3.21709
38 Al 3.15825 12.1045 6.9209
39 Al 0.674708 11.0832 0.352691
40 Al 3.19066 12.1031 4.07927
41 Al 4.12059 8.97458 7.03722
42 Al 2.71387 9.82374 1.72582
43 Al 0.323663 13.1937 5.57256
44 Al 2.00408 9.98917 5.29915
45 Ni 2.12928 12.4363 1.81515
46 Ni 0.234826 9.04863 1.82555
47 Ni 2.68894 7.57669 5.59576
48 Ni 4.67327 10.9631 5.46873
49 Al 4.41 6.75824 9.32765
50 Al 1.68465 7.89664 10.765
51 Al 1.68861 7.79142 7.7916
52 Al 4.06997 8.8817 11.4986
53 Al 0.528397 11.2027 10.6348
54 Al 2.99926 12.229 14.4478
55 Al 0.69414 11.0399 7.70752
56 Al 2.94728 12.2319 11.4942
57 Al 4.11086 8.88887 14.3656
58 Al 2.75399 9.95294 9.32303
59 Al 0.361714 13.4705 12.9396
60 Al 1.8658 9.91057 13.0077
61 Ni 2.08807 12.4164 9.26824
62 Ni 0.172675 9.1797 9.26363
63 Ni 2.56709 7.56235 13.0439
64 Ni 4.49027 10.9596 12.8861
65 Al 9.2679 -0.0135677 1.75962
66 Al 6.64321 1.08338 3.34406
67 Al 6.6057 1.12586 0.454295
68 Al 9.06733 2.22242 4.09087
69 Al 5.41623 4.49536 3.32352
70 Al 7.85932 5.63546 7.07566
71 Al 5.53986 4.46227 0.404784
72 Al 8.00109 5.53954 4.19663
73 Al 8.91558 2.07786 7.04001
74 Al 7.61104 3.37795 1.93525
75 Al 5.16586 6.72791 5.58462
76 Al 6.83284 3.3429 5.64882
77 Ni 6.95138 5.78948 1.93995
78 Ni 5.18582 2.50807 1.89613
79 Ni 7.59185 0.924985 5.55445
80 Ni 9.43816 4.2039 5.54771
81 Al 9.32348 0.0625826 9.1665
82 Al 6.54147 1.15027 10.6465
83 Al 6.4871 1.10721 7.69181
84 Al 9.02408 2.24754 11.5405
85 Al 5.37626 4.48127 10.6005
86 Al 7.95072 5.54189 14.4975
87 Al 5.47722 4.49766 7.85323
88 Al 7.90248 5.4648 11.3362
89 Al 8.99366 2.26937 14.3142
90 Al 7.72179 3.41456 9.31807
91 Al 5.10582 6.71308 12.9315
92 Al 6.69142 3.28148 13.0037
93 Ni 6.92396 5.85234 9.3065
94 Ni 5.076 2.4339 9.22974
95 Ni 7.38219 1.05437 12.9155
96 Ni 9.43989 4.33106 13.0087
97 Al 9.23592 6.65369 1.89318
98 Al 6.53468 7.81314 3.28447
99 Al 6.46276 7.62858 0.379912
100 Al 8.92705 8.91012 4.08279
101 Al 5.49817 11.017 3.285
102 Al 8.01356 12.0227 7.00345
103 Al 5.45127 11.0875 0.268406
104 Al 7.82498 12.1405 4.14494
105 Al 8.95846 8.74412 6.99633
106 Al 7.67102 9.92792 1.77202
107 Al 5.35036 13.2817 5.60824
108 Al 6.83626 9.84353 5.45615
109 Ni 7.00204 12.3715 1.97091
110 Ni 5.06788 9.09129 1.80426
111 Ni 7.41264 7.52975 5.56626
112 Ni 9.40439 10.7121 5.42403
113 Al 9.41102 6.76124 9.23075
114 Al 6.56653 7.7123 10.7869
115 Al 6.41967 7.81724 7.95766
116 Al 8.98437 8.93576 11.6764
117 Al 5.39424 11.3244 10.6983
118 Al 7.85693 12.144 14.4437
119 Al 5.59498 11.1474 7.72754
120 Al 7.95299 12.2355 11.4983
121 Al 8.99327 8.80753 14.3458
122 Al 7.55746 9.99311 9.31709
123 Al 5.29192 13.262 12.867
124 Al 6.79384 10.0178 12.858
125 Ni 7.12249 12.3924 9.21049
126 Ni 5.08142 9.24003 9.3392
127 Ni 7.36181 7.58749 13.0628
128 Ni 9.35423 10.9202 12.92
ITEM: TIMESTEP
14000
ITEM: NUMBER OF ATOMS
128
ITEM: BOX BOUNDS xy xz yz pp pp pp
-6.0061182559220778e-02 9.7103144893664286e+00 -2.3437804338717345e-02
1.8753912492993408e-02 1.3327099868914221e+01 4.2685288889619297e-02
-6.2752802240445327e-02 1.4916230562052098e+01 1.4598556811482433e-01
ITEM: ATOMS id element xu yu zu
1 Al 4.40542 0.146103 1.71288
2 Al 1.89002 1.18969 3.14836
3 Al 1.57494 1.05781 0.26733
4 Al 4.08745 2.26879 4.10682
5 Al 0.659972 4.59377 3.28053
6 Al 3.15394 5.67128 6.91526
7 Al 0.613667 4.48051 0.249192
8 Al 3.03902 5.58937 4.1194
9 Al 4.38315 2.17092 6.97814
10 Al 2.81826 3.23829 1.67402
11 Al 0.459234 6.67739 5.55643
12 Al 2.02495 3.32105 5.59812
13 Ni 2.21326 5.76688 1.77748
14 Ni 0.333635 2.60044 1.76236
15 Ni 2.62233 0.857011 5.4389
16 Ni 4.54823 4.17858 5.49863
17 Al 4.35578 0.145636 9.25346
18 Al 1.65356 1.19903 10.7501
19 Al 1.73758 1.21264 7.73495
20 Al 4.0477 2.23257 11.4503
21 Al 0.683622 4.64903 10.7956
22 Al 3.15443 5.61345 14.4814
23 Al 0.719605 4.61327 7.94672
24 Al 3.09735 5.60224 11.669
25 Al 4.01734 2.39612 14.4463
26 Al 2.82855 3.44898 9.40497
27 Al 0.40545 6.70763 13.2641
28 Al 2.02741 3.32989 13.0405
29 Ni 2.20442 5.9235 9.26968
30 Ni 0.161244 2.53502 9.32037
31 Ni 2.59409 0.920092 13.0142
32 Ni 4.45469 4.2275 13.05
33 Al 4.51515 6.53098 1.84621
34 Al 1.98205 7.86921 3.06985
35 Al 1.66169 7.80106 0.341879
36 Al 4.17425 8.84251 4.15331
37 Al 0.67387 10.8884 3.26017
38 Al 3.09559 12.1333 6.93256
39 Al 0.581331 11.0768 0.39507
40 Al 3.02096 11.931 4.07055
41 Al 4.20038 8.84941 6.99912
42 Al 3.00393 9.97401 1.91158
43 Al 0.319612 13.1452 5.52918
44 Al 1.83848 9.89123 5.59766
45 Ni 1.98077 12.3418 1.77118
46 Ni 0.227562 9.08313 1.77668
47 Ni 2.68629 7.58096 5.50515
48 Ni 4.59627 10.8977 5.55798
49 Al 4.50371 6.76604 9.23088
50 Al 1.80766 7.83908 10.803
51 Al 1.79031 7.82671 7.87711
52 Al 4.13382 9.00627 11.5695
53 Al 0.649883 11.0612 10.7711
54 Al 2.94832 12.1303 14.4845
55 Al 0.515047 11.0779 7.97516
56 Al 3.11395 12.1732 11.4838
57 Al 4.07799 8.93209 14.5647
58 Al 2.88541 10.0552 9.29955
59 Al 0.332836 13.2854 12.8691
60 Al 1.89259 9.99258 13.0727
61 Ni 2.04988 12.3836 9.22407
62 Ni 0.248962 8.92966 9.30345
63 Ni 2.75378 7.69852 13.0007
64 Ni 4.65904 10.9168 13.1108
65 Al 9.26469 0.304094 1.73794
66 Al 6.64783 1.25561 3.26285
67 Al 6.54233 1.26523 0.272764
68 Al 9.06484 2.3482 4.01157
69 Al 5.46855 4.28285 3.23118
70 Al 7.95974 5.49886 7.07179
71 Al 5.45035 4.39874 0.369027
72 Al 8.02135 5.49552 4.04615
73 Al 9.03457 2.41299 6.9301
74 Al 7.69821 3.48707 1.70946
75 Al 5.37089 6.64675 5.51065
76 Al 6.80319 3.28529 5.55685
77 Ni 6.94775 5.69326 1.72236
78 Ni 4.97756 2.43738 1.73294
79 Ni 7.51683 0.969881 5.5751
80 Ni 9.43448 4.27529 5.55443
81 Al 9.23147 0.111663 9.33833
82 Al 6.54915 1.23505 10.8299
83 Al 6.7049 1.3705 7.84118
84 Al 8.98548 2.24721 11.4563
85 Al 5.46606 4.60623 10.7574
86 Al 7.96286 5.51019 14.5229
87 Al 5.44597 4.56714 7.678
88 Al 7.86661 5.64706 11.5693
89 Al 9.03971 2.32928 14.3822
90 Al 7.61872 3.5426 9.18089
91 Al 5.37924 6.68624 13.0514
92 Al 6.89649 3.40171 13.0463
93 Ni 6.84658 5.80824 9.28155
94 Ni 5.12702 2.53356 9.27238
95 Ni 7.60924 1.08061 12.999
96 Ni 9.39355 4.32025 13.0715
97 Al 9.31824 6.64385 1.85197
98 Al 6.60615 7.86548 3.21197
99 Al 6.53496 7.71243 0.321999
100 Al 9.10633 8.75475 4.12642
101 Al 5.51249 11.1977 3.34214
102 Al 7.89491 12.2999 7.06897
103 Al 5.48091 11.0837 0.307789
104 Al 7.94227 12.2388 4.00536
105 Al 9.02089 8.81267 7.00108
106 Al 7.65478 10.0828 1.84142
107 Al 5.26726 13.2263 5.4468
108 Al 6.93614 9.92523 5.55055
109 Ni 6.96845 12.5431 1.70907
110 Ni 5.18599 9.07865 1.81123
111 Ni 7.64329 7.42095 5.44728
112 Ni 9.25906 10.8904 5.62927
113 Al 9.17955 6.69522 9.30969
114 Al 6.55911 7.7916 10.7351
115 Al 6.6091 7.78317 7.78716
116 Al 8.96173 8.76011 11.4937
117 Al 5.51412 11.0871 10.7627
118 Al 7.9942 12.2981 14.514
119 Al 5.51303 11.187 7.7765
120 Al 7.88426 12.0687 11.5811
121 Al 9.15912 8.92047 14.456
122 Al 7.67117 9.99522 9.163
123 Al 5.23555 13.358 12.9888
124 Al 6.92359 9.9201 13.1923
125 Ni 6.97224 12.3606 9.28015
126 Ni 5.0995 9.07561 9.23385
127 Ni 7.575 7.58003 13.0063
128 Ni 9.29359 10.7134 13.0831
ITEM: TIMESTEP
14100
ITEM: NUMBER OF ATOMS
128
ITEM: BOX BOUNDS xy xz yz pp pp pp
-5.0376904022340380e-02 9.7518920065498804e+00 -2.1292425931037719e-02
-6.8711468067036346e-02 1.3206443154621432e+01 9.1801706202269115e-02
-2.9797196824825178e-02 1.4883274956636473e+01 -6.2136526737994448e-02
ITEM: ATOMS id element xu yu zu
1 Al 4.48912 0.0517378 1.89791
2 Al 1.68346 1.12152 3.36101
3 Al 1.75537 1.20072 0.446483
4 Al 4.0479 2.18256 4.12354
5 Al 0.727338 4.34823 3.19492
6 Al 3.04511 5.36754 6.91357
7 Al 0.537874 4.47707 0.260609
8 Al 3.10486 5.53092 3.99273
9 Al 4.09287 2.21087 7.0444
10 Al 2.86487 3.31822 1.79954
11 Al 0.388547 6.5281 5.63578
12 Al 2.05105 3.26881 5.3435
13 Ni 2.18003 5.81631 1.7465
14 Ni 0.321478 2.30253 1.84146
15 Ni 2.68754 0.920934 5.6206
16 Ni 4.55785 4.13029 5.53018
17 Al 4.44418 -0.0569863 9.45018
18 Al 1.82393 1.1625 10.7347
19 Al 1.65745 1.02493 7.87755
20 Al 4.27745 2.14924 11.5371
21 Al 0.734659 4.24925 10.7044
22 Al 3.18263 5.22235 14.4436
23 Al 0.636767 4.35948 7.69716
24 Al 3.08672 5.34987 11.5439
25 Al 4.35149 2.11826 14.404
26 Al 2.80458 3.32518 9.17764
27 Al 0.582769 6.52063 12.887
28 Al 2.15388 3.12687 12.975
29 Ni 2.07931 5.62656 9.20574
30 Ni 0.331395 2.41224 9.2843
31 Ni 2.72164 0.818792 13.0062
32 Ni 4.6341 4.15502 12.9349
33 Al 4.4455 6.72429 1.71396
34 Al 1.63485 7.68975 3.34393
35 Al 1.90273 7.89133 0.515668
36 Al 4.12085 8.6185 4.04556
37 Al 0.71412 11.0881 3.352
38 Al 3.13017 12.061 7.04246
39 Al 0.681271 10.958 0.281462
40 Al 3.12569 12.2536 4.16261
41 Al 4.26661 8.60913 6.94805
42 Al 2.80176 9.96168 1.8085
43 Al 0.358196 13.1665 5.66933
44 Al 2.14582 9.8919 5.63547
45 Ni 2.0994 12.3246 1.83687
46 Ni 0.352885 9.08926 1.89209
47 Ni 2.82074 7.33912 5.49727
48 Ni 4.45064 10.6366 5.567
49 Al 4.54342 6.60965 9.30374
50 Al 1.80426 7.75589 10.6008
51 Al 1.81902 7.65622 7.83881
52 Al 4.15521 8.5912 11.4408
53 Al 0.614471 11.0854 10.7179
54 Al 3.11556 12.1172 14.4823
55 Al 0.649287 11.2104 7.80147
56 Al 3.04123 12.003 11.6029
57 Al 4.42432 8.68637 14.3111
58 Al 2.89647 9.87073 9.14764
59 Al 0.538454 13.1679 13.1627
60 Al 2.16233 9.76539 13.0352
61 Ni 2.14865 12.3895 9.38214
62 Ni 0.324219 9.22384 9.22862
63 Ni 2.81752 7.40752 13.0353
64 Ni 4.49817 10.573 12.9193
65 Al 9.23968 -0.0172844 1.76996
66 Al 6.57091 1.05388 3.34798
67 Al 6.69322 1.04725 0.509815
68 Al 8.90221 2.23666 3.99681
69 Al 5.51756 4.31046 3.26638
70 Al 7.85811 5.40276 6.98186
71 Al 5.54887 4.42167 0.441307
72 Al 8.03761 5.46767 4.09775
73 Al 8.90677 2.21836 7.00718
74 Al 7.66266 3.38347 1.77301
75 Al 5.21846 6.5421 5.55319
76 Al 6.82255 3.28484 5.47302
77 Ni 7.04265 5.73557 1.70398
78 Ni 5.00167 2.40608 1.75925
79 Ni 7.45269 0.850362 5.53375
80 Ni 9.40123 4.05942 5.43727
81 Al 9.28058 0.0388456 9.28705
82 Al 6.66624 1.15901 10.7723
83 Al 6.3688 1.06023 7.64935
84 Al 9.04577 2.08218 11.5166
85 Al 5.63452 4.48844 10.6495
86 Al 7.95227 5.49827 14.3398
87 Al 5.62699 4.32423 7.73462
88 Al 7.84852 5.50559 11.6163
89 Al 8.95949 2.16905 14.4356
90 Al 7.62055 3.23075 9.23859
91 Al 5.38511 6.53234 13.0464
92 Al 6.9621 3.22257 12.9817
93 Ni 7.06233 5.74628 9.2451
94 Ni 5.01131 2.36045 9.28096
95 Ni 7.56315 0.729978 13.0176
96 Ni 9.37645 4.17998 12.9314
97 Al 9.35338 6.67517 1.67963
98 Al 6.61869 7.73177 3.34396
99 Al 6.69076 7.81027 0.496192
100 Al 9.01618 8.82 4.17106
101 Al 5.40295 11.0329 3.40116
102 Al 7.79821 12.0288 6.97768
103 Al 5.50311 11.0249 0.308823
104 Al 7.73185 12.0701 4.2515
105 Al 9.07532 8.84705 7.05548
106 Al 7.71284 9.96056 1.88094
107 Al 5.12552 13.1653 5.68398
108 Al 6.84364 9.80632 5.61078
109 Ni 6.89771 12.2703 1.79428
110 Ni 5.16994 9.12039 1.86104
111 Ni 7.54693 7.52453 5.61172
112 Ni 9.50281 10.8207 5.55763
113 Al 9.25931 6.63226 9.16278
114 Al 6.73242 7.78737 10.7436
115 Al 6.64206 7.66798 7.75929
116 Al 9.07904 8.83522 11.5576
117 Al 5.48612 10.8905 10.6771
118 Al 7.91815 12.0369 14.4516
119 Al 5.39987 11.0625 7.89482
120 Al 7.86821 12.1137 11.536
121 Al 9.18708 8.74956 14.3979
122 Al 7.7461 9.96386 9.37897
123 Al 5.35084 12.8834 12.9627
124 Al 6.97634 9.84098 12.9602
125 Ni 6.95641 12.3909 9.24963
126 Ni 5.21542 8.95047 9.25518
127 Ni 7.53209 7.46069 12.9599
128 Ni 9.47338 10.822 13.0313
ITEM: TIMESTEP
14200
ITEM: NUMBER OF ATOMS
128
ITEM: BOX BOUNDS xy xz yz pp pp pp
-6.4362520099368020e-02 9.6558125223506739e+00 -1.8323480994496787e-02
-1.6365273997723218e-01 1.3260407671070764e+01 -2.1232339010503101e-02
-7.6523839393702886e-03 1.4861130143751023e+01 -1.0311328219886283e-01
ITEM: ATOMS id element xu yu zu
1 Al 4.54103 -0.0305037 1.87796
2 Al 1.77621 1.20422 3.22864
3 Al 1.77933 1.10405 0.478023
4 Al 4.11011 2.12944 4.12587
5 Al 0.48241 4.36399 3.34944
6 Al 2.86262 5.44957 6.93354
7 Al 0.679368 4.42388 0.458427
8 Al 2.94538 5.29579 4.10306
9 Al 4.16373 2.14015 6.95776
10 Al 2.92563 3.27354 1.97578
11 Al 0.315935 6.46949 5.36965
12 Al 1.90612 3.12878 5.61064
13 Ni 1.97305 5.66553 1.87779
14 Ni 0.108062 2.38572 1.82058
15 Ni 2.65318 0.777927 5.44632
16 Ni 4.53414 4.12048 5.49693
17 Al 4.42514 0.0457584 9.06641
18 Al 1.66148 0.97805 10.6929
19 Al 1.80184 1.14711 7.9164
20 Al 4.13214 2.16427 11.4834
21 Al 0.647156 4.38538 10.632
22 Al 3.15864 5.42474 14.371
23 Al 0.554689 4.32806 7.77538
24 Al 3.15564 5.33936 11.4295
25 Al 4.10018 2.06999 14.6431
26 Al 2.76177 3.24441 9.40266
27 Al 0.262356 6.43957 12.7795
28 Al 2.08964 3.24459 12.8894
29 Ni 2.06919 5.73142 9.3072
30 Ni 0.248185 2.38613 9.30404
31 Ni 2.77085 0.750633 13.043
32 Ni 4.53254 4.11831 12.9941
33 Al 4.24601 6.61335 1.81607
34 Al 1.74717 7.6487 3.24343
35 Al 1.46266 7.56609 0.376601
36 Al 4.20777 8.80031 4.30329
37 Al 0.587091 11.0251 3.13105
38 Al 2.97038 12.1145 6.93268
39 Al 0.66909 11.142 0.28485
40 Al 2.88243 12.0076 4.1379
41 Al 4.06296 8.86033 6.98835
42 Al 2.66278 9.9603 1.70414
43 Al 0.406726 13.079 5.40587
44 Al 1.88173 9.75787 5.45531
45 Ni 2.19623 12.4602 1.87877
46 Ni 0.287572 8.99243 1.67903
47 Ni 2.57481 7.46255 5.58234
48 Ni 4.52293 10.8419 5.54883
49 Al 4.43314 6.84602 9.20015
50 Al 1.75583 7.73561 10.6876
51 Al 1.6583 7.79576 7.85698
52 Al 4.26278 8.80175 11.654
53 Al 0.611678 10.978 10.6508
54 Al 3.08903 12.0085 14.5403
55 Al 0.660607 10.8667 7.83667
56 Al 3.07058 12.0362 11.5505
57 Al 3.93564 8.68809 14.3645
58 Al 2.69212 9.86866 9.4775
59 Al 0.416855 13.0934 12.9157
60 Al 2.05596 9.7152 12.9066
61 Ni 2.17081 12.4257 9.23298
62 Ni 0.238987 9.00233 9.33293
63 Ni 2.62539 7.31602 12.883
64 Ni 4.48706 10.7922 13.0637
65 Al 9.26957 0.0213051 1.93639
66 Al 6.70099 0.933503 3.28025
67 Al 6.57477 0.920348 0.398565
68 Al 9.04706 2.11204 4.13821
69 Al 5.47035 4.43075 3.30282
70 Al 7.73418 5.44197 7.04104
71 Al 5.60182 4.48217 0.375896
72 Al 7.72052 5.44176 4.26757
73 Al 9.04779 2.10679 6.98404
74 Al 7.56137 3.30836 1.8641
75 Al 5.15941 6.48912 5.57222
76 Al 6.82963 3.20938 5.54168
77 Ni 6.95 5.85448 1.82884
78 Ni 5.29708 2.49369 1.8525
79 Ni 7.51936 0.694093 5.51015
80 Ni 9.24626 4.13711 5.62451
81 Al 9.28666 -0.0911561 9.2484
82 Al 6.52434 1.01912 10.7323
83 Al 6.70739 0.982804 7.84135
84 Al 9.01027 2.26743 11.5521
85 Al 5.5635 4.3256 10.709
86 Al 7.93562 5.33352 14.5294
87 Al 5.48329 4.36325 7.8395
88 Al 7.86717 5.35598 11.5687
89 Al 9.02673 1.901 14.3975
90 Al 7.74594 3.38515 9.44196
91 Al 5.2792 6.60859 12.7982
92 Al 6.92343 3.22892 12.9819
93 Ni 7.02302 5.66939 9.25699
94 Ni 5.12345 2.44587 9.22838
95 Ni 7.47624 0.724751 12.9978
96 Ni 9.35951 4.00263 13.0518
97 Al 9.16527 6.69984 1.90585
98 Al 6.63323 7.76826 3.24641
99 Al 6.50693 7.69873 0.218591
100 Al 8.98442 8.75245 3.98877
101 Al 5.53389 10.8385 3.24878
102 Al 7.89928 12.0057 6.97693
103 Al 5.58015 10.9276 0.519483
104 Al 7.87784 12.0211 4.14402
105 Al 8.89355 8.71123 6.96437
106 Al 7.65964 9.8394 1.72634
107 Al 5.16517 13.1081 5.40639
108 Al 6.75369 9.75205 5.39117
109 Ni 6.98939 12.3077 1.88861
110 Ni 5.03769 8.85706 1.77173
111 Ni 7.52945 7.4506 5.52266
112 Ni 9.37327 10.6948 5.47679
113 Al 9.25734 6.59458 9.21694
114 Al 6.51974 7.62392 10.7072
115 Al 6.56272 7.73295 7.81402
116 Al 8.9506 8.79629 11.5609
117 Al 5.44214 11.1165 10.7428
118 Al 7.7923 11.9802 14.4783
119 Al 5.40788 11.1024 7.89083
120 Al 7.83534 12.0811 11.5998
121 Al 8.8132 8.86861 14.3765
122 Al 7.68198 9.80139 9.20656
123 Al 5.13752 13.2902 12.9759
124 Al 6.73282 9.8125 12.916
125 Ni 6.86726 12.3074 9.35586
126 Ni 4.96073 9.11329 9.35816
127 Ni 7.60358 7.42171 12.9399
128 Ni 9.43538 10.7535 12.9305
ITEM: TIMESTEP
14300
ITEM: NUMBER OF ATOMS
128
ITEM: BOX BOUNDS xy xz yz pp pp pp
-1.0232558709238117e-01 9.6676125228141920e+00 2.3937560723861273e-02
-4.4308713394685569e-02 1.3218065193974263e+01 -8.9656447258362318e-02
-2.7681980190214617e-02 1.4881159740001864e+01 -2.6111732712822196e-02
ITEM: ATOMS id element xu yu zu
1 Al 4.28331 0.0299861 1.69097
2 Al 1.76635 1.01055 3.2874
3 Al 1.78464 1.11236 0.283771
4 Al 4.14249 2.09909 4.18866
5 Al 0.740379 4.40359 3.3935
6 Al 2.967 5.48014 7.04081
7 Al 0.704125 4.42941 0.565955
8 Al 3.0348 5.4863 4.07836
9 Al 4.14714 2.1854 7.04565
10 Al 2.75459 3.21797 1.68576
11 Al 0.479528 6.57177 5.59306
12 Al 2.03189 3.23225 5.60927
13 Ni 2.17059 5.75729 1.81048
14 Ni 0.378911 2.41633 1.85529
15 Ni 2.78428 0.793942 5.52875
16 Ni 4.53068 4.1478 5.55132
17 Al 4.32947 -0.0192307 9.44927
18 Al 1.86628 1.20849 10.5256
19 Al 1.75232 1.03927 7.79502
20 Al 4.16279 2.11721 11.587
21 Al 0.616819 4.33565 10.6145
22 Al 2.87645 5.35216 14.4066
23 Al 0.486827 4.43261 7.888
24 Al 2.83726 5.4941 11.6892
25 Al 4.18475 1.99908 14.4101
26 Al 2.83418 3.24453 9.09272
27 Al 0.282331 6.50435 13.1664
28 Al 1.79211 3.19133 13.0282
29 Ni 2.15256 5.6891 9.26448
30 Ni 0.319225 2.40006 9.24718
31 Ni 2.58907 0.911005 12.9651
32 Ni 4.41449 4.07288 13.0095
33 Al 4.44965 6.65816 1.89418
34 Al 1.64625 7.71245 3.23317
35 Al 1.77994 7.82922 0.547612
36 Al 4.05982 8.9337 4.09166
37 Al 0.665933 11.0404 3.42286
38 Al 3.1766 12.0506 7.00323
39 Al 0.537066 10.9526 0.346822
40 Al 3.08025 12.0443 4.1095
41 Al 4.06119 8.81276 6.95602
42 Al 2.68459 10.1245 1.90014
43 Al 0.397089 13.2344 5.53152
44 Al 1.97019 9.87785 5.45489
45 Ni 2.05435 12.322 1.73036
46 Ni 0.194053 9.05221 1.80094
47 Ni 2.61855 7.49247 5.55423
48 Ni 4.57177 10.692 5.44686
49 Al 4.48732 6.77673 9.46116
50 Al 1.64819 7.76605 10.6253
51 Al 1.67021 7.73334 7.83112
52 Al 4.05097 8.82618 11.4073
53 Al 0.669678 10.983 10.6881
54 Al 3.01049 12.1558 14.3647
55 Al 0.600297 10.9741 7.78381
56 Al 3.07265 12.1481 11.5597
57 Al 4.1231 8.84274 14.443
58 Al 2.89224 10.053 9.12368
59 Al 0.234466 13.1333 13.1115
60 Al 2.01846 9.99581 13.0725
61 Ni 2.04541 12.3544 9.19657
62 Ni 0.179901 9.04308 9.18865
63 Ni 2.62498 7.55209 13.0037
64 Ni 4.49847 10.7391 12.9034
65 Al 9.26684 0.0481338 1.72761
66 Al 6.72451 1.20549 3.2049
67 Al 6.57091 1.22664 0.357129
68 Al 9.16829 2.08338 4.1379
69 Al 5.40216 4.42378 3.36856
70 Al 7.91034 5.54211 7.09416
71 Al 5.42716 4.36335 0.382065
72 Al 7.987 5.40863 4.15476
73 Al 9.13414 2.17851 6.97115
74 Al 7.76007 3.39238 1.76987
75 Al 5.15562 6.58733 5.52987
76 Al 6.78547 3.30708 5.78483
77 Ni 6.82219 5.65044 1.8872
78 Ni 4.90168 2.32609 1.81738
79 Ni 7.6146 0.80637 5.5807
80 Ni 9.43856 4.1589 5.56874
81 Al 9.29193 0.177899 9.17307
82 Al 6.53759 1.00623 10.6069
83 Al 6.58513 1.07233 7.85529
84 Al 9.02758 2.14531 11.4258
85 Al 5.27083 4.30734 10.7394
86 Al 7.79311 5.46262 14.4944
87 Al 5.39373 4.53068 7.8818
88 Al 7.79211 5.3579 11.465
89 Al 8.92116 2.26535 14.4578
90 Al 7.54709 3.44762 9.04007
91 Al 5.1135 6.50928 13.1792
92 Al 6.71416 3.16828 12.9879
93 Ni 6.75476 5.80024 9.26927
94 Ni 5.13455 2.39555 9.3155
95 Ni 7.49772 0.869172 13.0059
96 Ni 9.26052 4.14752 12.9828
97 Al 9.27685 6.5723 1.83719
98 Al 6.54885 7.7119 3.324
99 Al 6.69401 7.80633 0.478672
100 Al 8.82627 8.67065 4.07259
101 Al 5.53149 11.0702 3.1491
102 Al 7.95651 12.1898 6.88297
103 Al 5.43766 11.2117 0.331097
104 Al 7.97169 12.1152 3.94151
105 Al 8.89582 8.74425 6.94968
106 Al 7.58791 9.95597 1.89235
107 Al 5.36453 13.082 5.55377
108 Al 6.74233 9.80155 5.71878
109 Ni 6.90686 12.4441 1.70498
110 Ni 5.07212 9.18767 1.74503
111 Ni 7.3946 7.37432 5.5777
112 Ni 9.31139 10.7717 5.56403
113 Al 9.07024 6.7247 9.4477
114 Al 6.4187 7.76869 10.8378
115 Al 6.5905 7.74833 7.82761
116 Al 9.02595 8.71134 11.5986
117 Al 5.46496 11.1135 10.7026
118 Al 7.73101 12.1165 14.5012
119 Al 5.56627 11.0704 7.79262
120 Al 7.9286 12.0827 11.4657
121 Al 8.90049 8.50543 14.4783
122 Al 7.68691 9.98949 9.25571
123 Al 5.34459 13.1161 12.9886
124 Al 6.83385 9.80559 13.0567
125 Ni 6.99187 12.4273 9.15
126 Ni 5.11493 9.03437 9.17568
127 Ni 7.27141 7.49833 13.0261
128 Ni 9.1854 10.7028 13.0031
ITEM: TIMESTEP
14400
ITEM: NUMBER OF ATOMS
128
ITEM: BOX BOUNDS xy xz yz pp pp pp
-3.3132770851569404e-02 9.7442267940806069e+00 4.3278754446323585e-02
-1.8091220166492228e-02 1.3334376620653693e+01 3.6809446526398781e-02
-4.1143672487639726e-02 1.4894621432299290e+01 1.1641718719479061e-01
ITEM: ATOMS id element xu yu zu
1 Al 4.39935 0.0152339 1.87193
2 Al 1.63402 1.25516 3.29644
3 Al 1.76635 1.10969 0.314481
4 Al 3.97542 2.23425 4.05278
5 Al 0.590675 4.60628 3.12268
6 Al 3.29171 5.45493 6.96512
7 Al 0.711384 4.51421 0.36048
8 Al 3.2443 5.59171 3.95096
9 Al 4.209 2.1722 6.90696
10 Al 2.88932 3.54809 1.82941
11 Al 0.339547 6.743 5.51975
12 Al 2.00833 3.39593 5.45794
13 Ni 2.09347 5.88748 1.81436
14 Ni 0.250779 2.52 1.75041
15 Ni 2.64239 0.903567 5.54983
16 Ni 4.6042 4.14916 5.47782
17 Al 4.55548 0.0311412 9.14853
18 Al 1.67265 1.17185 10.7145
19 Al 1.75312 1.20418 7.91995
20 Al 4.05926 2.21369 11.5265
21 Al 0.500039 4.66335 10.777
22 Al 3.08388 5.49126 14.5446
23 Al 0.718312 4.43573 7.74375
24 Al 3.11431 5.64594 11.4625
25 Al 4.16804 2.24969 14.4131
26 Al 2.7897 3.45193 9.46727
27 Al 0.409282 6.69044 13.0757
28 Al 1.98055 3.39421 12.9751
29 Ni 2.00039 5.88922 9.30524
30 Ni 0.341928 2.56156 9.28037
31 Ni 2.66102 0.779819 12.9654
32 Ni 4.55551 4.27492 13.0416
33 Al 4.44536 6.66349 1.72949
34 Al 1.70236 7.77814 3.27576
35 Al 1.60303 7.79946 0.350002
36 Al 4.174 8.77883 4.10623
37 Al 0.577952 11.0798 3.28724
38 Al 3.02549 12.186 7.03282
39 Al 0.685872 10.9819 0.359401
40 Al 3.01653 12.1039 4.03632
41 Al 4.30282 8.80854 6.99734
42 Al 2.91048 9.91572 1.72672
43 Al 0.458428 13.1941 5.53266
44 Al 2.18336 9.98454 5.67764
45 Ni 2.19748 12.365 1.82954
46 Ni 0.256287 9.05872 1.84377
47 Ni 2.80251 7.49422 5.54275
48 Ni 4.58335 10.8507 5.6265
49 Al 4.52516 6.69138 9.17938
50 Al 1.63719 7.73853 10.8083
51 Al 1.88902 7.72869 7.75566
52 Al 4.23672 8.82165 11.5973
53 Al 0.639116 11.0661 10.7121
54 Al 3.13809 12.1246 14.4208
55 Al 0.648369 11.1629 7.85022
56 Al 3.14229 12.0275 11.5057
57 Al 4.29055 8.89418 14.4323
58 Al 2.8217 9.97235 9.30327
59 Al 0.364514 13.2074 12.8479
60 Al 1.87739 9.73558 12.9591
61 Ni 2.23288 12.391 9.34686
62 Ni 0.370938 9.06861 9.33733
63 Ni 2.76259 7.49044 13.0287
64 Ni 4.5814 10.9374 13.0319
65 Al 9.24623 0.0876346 1.84234
66 Al 6.50706 1.18325 3.22233
67 Al 6.48796 1.13461 0.218406
68 Al 9.00649 2.2599 4.01339
69 Al 5.53928 4.39182 3.26756
70 Al 7.95425 5.42286 6.99119
71 Al 5.44924 4.48108 0.403258
72 Al 8.00994 5.55256 4.04568
73 Al 9.08523 2.22682 6.97453
74 Al 7.71053 3.37744 1.56858
75 Al 5.50825 6.59581 5.54098
76 Al 6.80383 3.4605 5.3998
77 Ni 7.04662 5.71039 1.75981
78 Ni 5.17136 2.38417 1.70163
79 Ni 7.50105 1.02572 5.53991
80 Ni 9.46007 4.20365 5.45127
81 Al 9.35033 0.053566 9.2745
82 Al 6.57666 1.25467 10.5538
83 Al 6.74566 1.18609 7.89974
84 Al 9.09664 2.25889 11.5522
85 Al 5.51934 4.48338 10.777
86 Al 7.85831 5.54216 14.3963
87 Al 5.64626 4.3632 7.90275
88 Al 7.96755 5.79314 11.6378
89 Al 9.07759 2.27014 14.4467
90 Al 7.62099 3.39461 9.42529
91 Al 5.31226 6.63632 12.9023
92 Al 6.74552 3.23965 13.0186
93 Ni 7.11655 5.81324 9.32579
94 Ni 4.9765 2.46337 9.16009
95 Ni 7.57934 0.932846 12.9869
96 Ni 9.37768 4.2862 12.9996
97 Al 9.28883 6.73656 1.75505
98 Al 6.76156 7.73011 3.23473
99 Al 6.60664 7.72313 0.335009
100 Al 9.10358 8.85244 4.14205
101 Al 5.41924 11.1036 3.22415
102 Al 7.9361 12.1159 7.00655
103 Al 5.55042 11.1437 0.35633
104 Al 7.88103 12.2942 4.18491
105 Al 9.07183 8.90324 7.14702
106 Al 7.70606 10.0042 1.81538
107 Al 5.16525 13.3028 5.54209
108 Al 6.86745 10.0406 5.42684
109 Ni 7.02072 12.3859 1.85791
110 Ni 5.31467 9.10341 1.90883
111 Ni 7.62581 7.64648 5.53718
112 Ni 9.46738 10.8804 5.49028
113 Al 9.38559 6.72043 9.12528
114 Al 6.52035 7.87377 10.6416
115 Al 6.69339 7.69653 7.80235
116 Al 9.01143 8.8062 11.5187
117 Al 5.48448 11.1689 10.8292
118 Al 8.09324 12.2721 14.494
119 Al 5.52004 11.0489 7.88105
120 Al 7.92738 12.1882 11.5787
121 Al 8.9652 8.95837 14.5179
122 Al 7.71366 9.93897 9.29912
123 Al 5.25011 13.3617 12.95
124 Al 6.92132 9.8657 12.965
125 Ni 7.03327 12.407 9.34617
126 Ni 5.10822 9.06002 9.32511
127 Ni 7.64664 7.58825 13.1692
128 Ni 9.51596 10.9345 13.0174
ITEM: TIMESTEP
14500
ITEM: NUMBER OF ATOMS
128
ITEM: BOX BOUNDS xy xz yz pp pp pp
-3.5311956398820406e-02 9.7414023910045113e+00 -6.8393091800362307e-03
-7.5065387484638535e-03 1.3274965442752208e+01 8.1923921529404267e-02
-1.9246142821032208e-02 1.4872723902632675e+01 6.7590690711338774e-02
ITEM: ATOMS id element xu yu zu
1 Al 4.47622 0.0994966 1.88938
2 Al 1.78043 1.2849 3.29458
3 Al 1.653 1.117 0.368114
4 Al 4.33814 2.17725 4.25381
5 Al 0.616452 4.35317 3.136
6 Al 3.09398 5.58851 6.82665
7 Al 0.656035 4.37582 0.341183
8 Al 2.98126 5.34063 4.03277
9 Al 4.10231 2.29519 6.96238
10 Al 2.74391 3.36995 1.76451
11 Al 0.41377 6.48442 5.49523
12 Al 1.88722 3.26361 5.52018
13 Ni 2.1696 5.606 1.79337
14 Ni 0.136527 2.3463 1.83823
15 Ni 2.7478 1.00198 5.506
16 Ni 4.64135 4.28905 5.46836
17 Al 4.34604 0.168647 9.38956
18 Al 1.66843 1.14969 10.8264
19 Al 1.63526 1.14434 7.7101
20 Al 4.255 2.21204 11.6608
21 Al 0.883579 4.43264 10.7114
22 Al 3.0566 5.50478 14.4138
23 Al 0.587207 4.45969 7.83238
24 Al 3.19558 5.45393 11.4841
25 Al 4.25859 2.36217 14.5014
26 Al 2.91531 3.28499 9.236
27 Al 0.524216 6.61602 12.8089
28 Al 2.08748 3.29648 12.9595
29 Ni 2.27292 5.74353 9.24108
30 Ni 0.224698 2.40682 9.2448
31 Ni 2.82548 1.04741 13.1019
32 Ni 4.76105 4.23384 12.9256
33 Al 4.28662 6.6382 1.77357
34 Al 1.87753 7.75594 3.21782
35 Al 1.74743 7.77241 0.407336
36 Al 4.2452 8.76241 4.1384
37 Al 0.702942 11.1041 3.35336
38 Al 3.02463 12.188 6.96289
39 Al 0.714087 11.2683 0.351022
40 Al 3.16043 12.1914 4.10202
41 Al 4.17886 8.84423 7.00675
42 Al 2.90729 10.0879 1.89827
43 Al 0.367716 13.2122 5.60265
44 Al 1.9548 9.77938 5.40801
45 Ni 2.20702 12.4723 1.93856
46 Ni 0.414459 9.13382 1.80362
47 Ni 2.6882 7.55302 5.55676
48 Ni 4.56039 10.79 5.53492
49 Al 4.44539 6.69824 9.24094
50 Al 1.86901 7.70984 10.6439
51 Al 1.83388 7.79501 7.85692
52 Al 4.30086 8.71807 11.5344
53 Al 0.68998 11.2653 10.7833
54 Al 3.2707 12.2076 14.5685
55 Al 0.68623 11.1417 7.75699
56 Al 3.12138 12.1739 11.5353
57 Al 4.27542 8.74633 14.3636
58 Al 2.78557 10.0232 9.3461
59 Al 0.503557 13.1778 13.075
60 Al 2.04815 10.0747 13.1255
61 Ni 2.0538 12.4192 9.21185
62 Ni 0.261418 9.15132 9.28627
63 Ni 2.72674 7.55185 12.9007
64 Ni 4.55394 10.7404 13.0118
65 Al 9.14373 0.00514832 1.84767
66 Al 6.60125 1.07921 3.2943
67 Al 6.50922 1.17594 0.358298
68 Al 8.98293 2.26597 4.09717
69 Al 5.49038 4.4348 3.31257
70 Al 7.89947 5.66264 6.97071
71 Al 5.49704 4.58162 0.391982
72 Al 7.9046 5.47278 4.03214
73 Al 8.90504 2.10932 7.03377
74 Al 7.60916 3.36164 1.80463
75 Al 5.20611 6.72857 5.51411
76 Al 6.7947 3.29468 5.57178
77 Ni 6.97255 5.90041 1.8408
78 Ni 5.11605 2.59174 1.79304
79 Ni 7.58096 0.777281 5.4803
80 Ni 9.31517 4.19083 5.59472
81 Al 9.13703 0.0732408 9.34489
82 Al 6.61483 1.08827 10.6366
83 Al 6.42876 1.255 7.75739
84 Al 8.9723 2.13904 11.5375
85 Al 5.64125 4.51873 10.6624
86 Al 8.01477 5.66096 14.4192
87 Al 5.52379 4.50826 7.74474
88 Al 8.03253 5.39195 11.4399
89 Al 9.00855 2.09334 14.4967
90 Al 7.62134 3.3748 9.13379
91 Al 5.27577 6.66214 13.0569
92 Al 7.01327 3.42518 13.0951
93 Ni 7.01396 5.78027 9.12098
94 Ni 5.19826 2.52311 9.38516
95 Ni 7.50421 0.824414 13.0571
96 Ni 9.51324 4.16882 12.9502
97 Al 9.40556 6.72296 1.83034
98 Al 6.55267 7.7709 3.31324
99 Al 6.61331 7.85084 0.264199
100 Al 9.03442 8.86629 4.06411
101 Al 5.50093 11.0815 3.391
102 Al 7.90463 12.1098 7.16375
103 Al 5.45759 10.9371 0.45011
104 Al 8.01717 11.9661 4.14165
105 Al 9.12826 8.74877 7.02447
106 Al 7.79042 9.98303 1.77216
107 Al 5.28318 13.2221 5.5722
108 Al 6.86084 9.78136 5.60381
109 Ni 6.94742 12.3505 1.90567
110 Ni 4.9838 9.0751 1.83747
111 Ni 7.62289 7.44366 5.50376
112 Ni 9.39898 10.855 5.61137
113 Al 9.3689 6.67205 9.38887
114 Al 6.66243 7.71967 10.5393
115 Al 6.62363 7.85155 7.79757
116 Al 9.08071 8.8831 11.4865
117 Al 5.42679 10.9886 10.712
118 Al 7.94023 12.1177 14.3995
119 Al 5.45507 11.0718 7.79898
120 Al 7.9376 12.1685 11.465
121 Al 9.19279 8.82542 14.3924
122 Al 7.70534 10.0447 9.24305
123 Al 5.29863 13.0724 13.1066
124 Al 7.02446 9.83826 13.0472
125 Ni 6.85337 12.3744 9.2834
126 Ni 5.11468 9.02908 9.28148
127 Ni 7.6581 7.4627 12.8641
128 Ni 9.46863 10.8621 13.0006
ITEM: TIMESTEP
14600
ITEM: NUMBER OF ATOMS
128
ITEM: BOX BOUNDS xy xz yz pp pp pp
-7.1032274213954250e-02 9.6468728944823052e+00 -2.3140723034859829e-02
-9.8862082763231163e-02 1.3224021195515132e+01 -3.2024478953107373e-02
-3.1416738799102006e-02 1.4884894498610741e+01 -7.4709100540503171e-02
ITEM: ATOMS id element xu yu zu
1 Al 4.34862 -0.0474123 1.7624
2 Al 1.82783 0.99763 3.21999
3 Al 1.8393 1.2882 0.318591
4 Al 4.10261 2.2176 4.14811
5 Al 0.881996 4.40826 3.4717
6 Al 2.96938 5.44761 7.02982
7 Al 0.780043 4.49157 0.322752
8 Al 3.07172 5.54151 4.09938
9 Al 4.23075 2.07431 6.92584
10 Al 2.72762 3.43887 1.76877
11 Al 0.244394 6.43925 5.67282
12 Al 2.13244 3.16389 5.6708
13 Ni 2.07341 5.76983 1.81271
14 Ni 0.337809 2.5565 1.83563
15 Ni 2.66586 0.746143 5.6656
16 Ni 4.46513 4.06458 5.654
17 Al 4.49153 -0.0300268 9.21804
18 Al 1.80903 1.17036 10.6348
19 Al 1.85389 1.11496 7.88688
20 Al 4.09414 2.18088 11.5537
21 Al 0.620447 4.48763 10.7291
22 Al 3.13141 5.55513 14.583
23 Al 0.600409 4.34263 7.76714
24 Al 3.01702 5.39855 11.5733
25 Al 4.23264 1.96116 14.5199
26 Al 2.8744 3.41472 9.30101
27 Al 0.430409 6.45536 12.9974
28 Al 1.9538 3.12202 12.9911
29 Ni 2.02546 5.70695 9.34784
30 Ni 0.137478 2.34664 9.3207
31 Ni 2.60368 0.836846 12.9276
32 Ni 4.40913 4.04977 13.0482
33 Al 4.36847 6.64641 1.89674
34 Al 1.63557 7.64562 3.31322
35 Al 1.7272 7.72833 0.39838
36 Al 3.92122 8.76277 4.00768
37 Al 0.613289 11.0466 3.22836
38 Al 3.00341 12.0754 7.20078
39 Al 0.605791 11.0022 0.321908
40 Al 3.10433 12.0015 3.99366
41 Al 4.14878 8.60625 6.92122
42 Al 2.71835 9.84087 1.71351
43 Al 0.317691 13.0429 5.46676
44 Al 1.90794 9.87313 5.71467
45 Ni 1.99293 12.337 1.67804
46 Ni 0.264471 8.96433 1.77607
47 Ni 2.60547 7.40557 5.54356
48 Ni 4.46712 10.7683 5.4831
49 Al 4.3309 6.64391 9.36255
50 Al 1.75025 7.7788 10.715
51 Al 1.63876 7.65199 7.70449
52 Al 4.13188 8.86289 11.5287
53 Al 0.639475 11.0039 10.7371
54 Al 2.79878 11.918 14.3943
55 Al 0.608684 11.0249 7.85125
56 Al 2.89917 12.0045 11.482
57 Al 4.05607 8.71634 14.3864
58 Al 2.86039 9.98016 9.19401
59 Al 0.328762 13.188 12.9879
60 Al 1.94848 9.86767 12.9267
61 Ni 2.10056 12.3833 9.38101
62 Ni 0.264691 8.94935 9.17628
63 Ni 2.66187 7.41253 13.0157
64 Ni 4.46918 10.8335 12.9964
65 Al 9.25236 0.0238295 1.79885
66 Al 6.60944 1.16769 3.35908
67 Al 6.77649 1.10316 0.428242
68 Al 9.03646 2.07882 4.06814
69 Al 5.37211 4.42269 3.30232
70 Al 7.75923 5.47364 7.02666
71 Al 5.5817 4.20372 0.381683
72 Al 7.76756 5.503 4.12765
73 Al 9.05808 2.04646 6.93126
74 Al 7.69768 3.30145 1.89813
75 Al 5.11825 6.48478 5.53926
76 Al 6.76115 3.13137 5.50973
77 Ni 6.98 5.70912 1.74128
78 Ni 5.16067 2.38651 1.84878
79 Ni 7.39358 0.817784 5.64419
80 Ni 9.40073 4.10909 5.47677
81 Al 9.22745 -0.00149814 9.27456
82 Al 6.55242 1.03503 10.7469
83 Al 6.66095 1.09993 7.9283
84 Al 9.03156 2.0725 11.5499
85 Al 5.39891 4.38388 10.623
86 Al 7.84029 5.37759 14.4115
87 Al 5.50872 4.39869 7.83351
88 Al 7.736 5.35504 11.6218
89 Al 9.05005 2.17438 14.4905
90 Al 7.65272 3.3912 9.26837
91 Al 5.31254 6.50402 13.0226
92 Al 6.68637 3.22042 12.9315
93 Ni 6.91548 5.77738 9.38008
94 Ni 5.10136 2.32877 9.19512
95 Ni 7.59446 0.852568 13.0649
96 Ni 9.2922 4.11967 13.0256
97 Al 9.2298 6.6301 1.72005
98 Al 6.48377 7.91486 3.29598
99 Al 6.63986 7.72232 0.357784
100 Al 8.98458 8.76074 4.01515
101 Al 5.40346 10.9214 3.28035
102 Al 7.9041 12.0278 6.95246
103 Al 5.42723 11.0655 0.295773
104 Al 7.8597 12.029 3.98283
105 Al 8.86944 8.77924 6.94742
106 Al 7.64341 9.98219 1.77505
107 Al 5.17495 13.2274 5.44129
108 Al 6.74632 9.80147 5.55428
109 Ni 6.88957 12.3147 1.69267
110 Ni 4.98608 9.04593 1.6701
111 Ni 7.38459 7.50487 5.51624
112 Ni 9.31123 10.6386 5.43496
113 Al 9.19554 6.59005 9.23345
114 Al 6.55499 7.88593 10.7473
115 Al 6.4871 7.69536 7.82745
116 Al 8.96879 8.75592 11.6181
117 Al 5.50848 11.0842 10.6549
118 Al 7.97382 12.0549 14.3728
119 Al 5.56011 11.0559 7.69926
120 Al 7.87775 12.0873 11.5488
121 Al 9.03739 8.67277 14.4735
122 Al 7.62557 9.87186 9.23309
123 Al 5.12352 13.2289 12.9732
124 Al 6.722 9.84748 13.0486
125 Ni 7.11339 12.3314 9.28254
126 Ni 5.13683 9.13222 9.22695
127 Ni 7.53942 7.5111 13.0726
128 Ni 9.32999 10.6381 13.0547
ITEM: TIMESTEP
14700
ITEM: NUMBER OF ATOMS
128
ITEM: BOX BOUNDS xy xz yz pp pp pp
-1.0837092253712660e-01 9.6504708487804312e+00 6.8257788315809493e-03
-1.0928160942644703e-01 1.3246292478040690e+01 -9.5731674844603154e-02
-4.5397996711625588e-02 1.4898875756523257e+01 -6.2857344678160607e-02
ITEM: ATOMS id element xu yu zu
1 Al 4.23628 0.0413453 1.80086
2 Al 1.73045 1.11588 3.25567
3 Al 1.73373 1.0006 0.286655
4 Al 4.29993 2.09203 4.09821
5 Al 0.621358 4.40168 3.2337
6 Al 3.05747 5.44311 6.98444
7 Al 0.593544 4.40266 0.449172
8 Al 2.88008 5.39502 4.14174
9 Al 4.15702 2.02936 6.93397
10 Al 2.67128 3.30297 1.84935
11 Al 0.47021 6.65496 5.47101
12 Al 2.05917 3.21563 5.46001
13 Ni 2.17706 5.72935 1.84326
14 Ni 0.317049 2.36472 1.68225
15 Ni 2.69721 0.855148 5.40983
16 Ni 4.56879 4.00255 5.54776
17 Al 4.33675 0.0851414 9.12125
18 Al 1.64844 1.05273 10.7161
19 Al 1.79179 1.03749 7.69406
20 Al 4.1481 1.92276 11.5116
21 Al 0.635448 4.45229 10.614
22 Al 2.75617 5.44975 14.461
23 Al 0.614691 4.66144 7.70723
24 Al 2.90341 5.40166 11.4977
25 Al 3.97707 2.26923 14.4431
26 Al 2.73659 3.22268 9.18298
27 Al 0.22963 6.61217 13.0446
28 Al 1.93128 3.22682 12.9186
29 Ni 2.10944 5.79227 9.24492
30 Ni 0.384312 2.50654 9.26494
31 Ni 2.61162 0.7387 13.0305
32 Ni 4.5056 4.15813 13.0144
33 Al 4.36557 6.61885 1.83178
34 Al 1.80775 7.78351 3.22856
35 Al 1.68521 7.7854 0.475281
36 Al 4.25476 8.61582 4.10852
37 Al 0.442532 10.9977 3.17937
38 Al 2.94535 12.034 6.90709
39 Al 0.625934 11.0915 0.347931
40 Al 2.95226 12.0591 4.15861
41 Al 4.08831 8.80701 7.04519
42 Al 2.82877 10.0089 1.79267
43 Al 0.432003 13.2752 5.50027
44 Al 1.95703 9.86933 5.3029
45 Ni 2.1107 12.3367 1.86267
46 Ni 0.0352643 8.95388 1.8327
47 Ni 2.79923 7.45481 5.58653
48 Ni 4.52597 10.7203 5.50212
49 Al 4.36618 6.54047 9.21854
50 Al 1.55422 7.72767 10.7912
51 Al 1.72387 7.7748 7.73116
52 Al 4.02654 8.80088 11.5978
53 Al 0.649026 11.0637 10.7769
54 Al 3.12547 12.0595 14.4877
55 Al 0.640835 10.8983 7.73987
56 Al 2.99882 12.1091 11.4487
57 Al 4.04688 8.80485 14.5155
58 Al 2.74684 9.92416 9.43444
59 Al 0.307117 13.1969 13.0436
60 Al 1.88412 9.8543 13.0051
61 Ni 2.09168 12.2688 9.12464
62 Ni 0.236166 9.02717 9.31424
63 Ni 2.5951 7.38623 13.0289
64 Ni 4.60746 10.7171 13.0018
65 Al 9.30269 -0.014187 1.79528
66 Al 6.60639 1.13938 3.24502
67 Al 6.5522 1.19875 0.240137
68 Al 8.97414 2.14836 3.97197
69 Al 5.53005 4.17765 3.38931
70 Al 7.78044 5.43118 7.16487
71 Al 5.40422 4.38107 0.319465
72 Al 7.93318 5.47084 4.2307
73 Al 8.9423 2.24786 7.14024
74 Al 7.68753 3.24656 1.70839
75 Al 5.13617 6.4476 5.57689
76 Al 6.90635 3.15731 5.57223
77 Ni 6.81073 5.59816 1.85619
78 Ni 5.08783 2.31733 1.76925
79 Ni 7.59869 0.89399 5.45357
80 Ni 9.32916 4.16697 5.64527
81 Al 9.14737 -0.0682062 9.20486
82 Al 6.64745 1.09854 10.6008
83 Al 6.50762 1.0261 7.83358
84 Al 9.01707 2.10284 11.5664
85 Al 5.43142 4.4561 10.8723
86 Al 7.8514 5.32392 14.5174
87 Al 5.28833 4.32984 7.87217
88 Al 7.8711 5.42122 11.4498
89 Al 8.90804 2.14538 14.4001
90 Al 7.57878 3.26545 9.37311
91 Al 5.00921 6.50082 12.8594
92 Al 6.70155 3.28716 13.0255
93 Ni 6.85421 5.65596 9.27238
94 Ni 5.07992 2.43168 9.33168
95 Ni 7.44725 0.808622 12.9247
96 Ni 9.21607 4.22667 13.0371
97 Al 9.06608 6.75473 1.852
98 Al 6.55281 7.51241 3.35655
99 Al 6.45444 7.58047 0.338714
100 Al 8.92011 8.78063 4.11113
101 Al 5.33309 11.1551 3.30687
102 Al 7.82035 12.1449 7.01852
103 Al 5.54767 11.188 0.438478
104 Al 7.95957 12.2244 4.06182
105 Al 8.94091 8.80645 6.94188
106 Al 7.49937 9.91773 1.93025
107 Al 5.49361 13.0548 5.59069
108 Al 6.81488 9.93303 5.39356
109 Ni 7.10856 12.4191 1.81451
110 Ni 5.14671 9.057 1.94543
111 Ni 7.53628 7.39334 5.61101
112 Ni 9.37386 10.815 5.56668
113 Al 9.14979 6.73115 9.24029
114 Al 6.39803 7.69014 10.7294
115 Al 6.55979 7.74866 7.79614
116 Al 8.76596 8.70008 11.6754
117 Al 5.46762 11.0055 10.7381
118 Al 7.82543 12.0878 14.4181
119 Al 5.36902 11.0551 7.94837
120 Al 7.79496 12.0992 11.4629
121 Al 8.71403 8.77929 14.5296
122 Al 7.51965 9.90988 9.33153
123 Al 5.30758 13.1213 12.9319
124 Al 6.76057 9.84405 12.7676
125 Ni 6.88583 12.4375 9.29161
126 Ni 4.96711 9.05472 9.34999
127 Ni 7.205 7.37423 13.0425
128 Ni 9.32042 10.7969 12.9446
ITEM: TIMESTEP
14800
ITEM: NUMBER OF ATOMS
128
ITEM: BOX BOUNDS xy xz yz pp pp pp
-9.3150896886197321e-02 9.7366256687274824e+00 6.5902885780064216e-02
-5.0321938533404165e-04 1.3208185733275442e+01 -5.3433936195105891e-02
-7.9211364809239626e-04 1.4854269873459726e+01 7.8143005977030083e-03
ITEM: ATOMS id element xu yu zu
1 Al 4.55912 -0.0841516 1.78917
2 Al 1.54067 1.18929 3.32941
3 Al 1.69904 1.19292 0.405676
4 Al 4.11486 2.20794 4.04513
5 Al 0.662362 4.39868 3.22341
6 Al 3.10302 5.48985 7.03538
7 Al 0.543758 4.35244 0.278352
8 Al 3.0075 5.63077 4.0375
9 Al 4.01142 2.23439 7.07492
10 Al 2.85966 3.43796 1.74221
11 Al 0.439617 6.57715 5.56961
12 Al 1.95816 3.2701 5.55363
13 Ni 2.03639 5.76599 1.75661
14 Ni 0.169061 2.48714 1.8742
15 Ni 2.5051 0.819367 5.57464
16 Ni 4.44577 4.2992 5.41815
17 Al 4.32849 0.00376289 9.39223
18 Al 1.68617 1.30349 10.7793
19 Al 1.74735 1.14252 7.92016
20 Al 4.08953 2.21319 11.427
21 Al 0.595625 4.461 10.7663
22 Al 2.92339 5.48102 14.4189
23 Al 0.652138 4.28557 7.95994
24 Al 3.17208 5.65109 11.6217
25 Al 4.21806 2.14409 14.4292
26 Al 2.83047 3.3886 9.4281
27 Al 0.334719 6.51249 12.9969
28 Al 2.01994 3.20017 13.0547
29 Ni 2.21608 5.65201 9.24604
30 Ni 0.145382 2.37334 9.276
31 Ni 2.65866 0.851032 12.9457
32 Ni 4.47853 4.13599 12.984
33 Al 4.40483 6.76381 1.73689
34 Al 1.78575 7.6841 3.30678
35 Al 1.74353 7.67582 0.32607
36 Al 4.19805 8.87839 4.13639
37 Al 0.833427 11.0271 3.41321
38 Al 3.11002 12.0456 7.11
39 Al 0.671071 11.0164 0.476872
40 Al 3.23129 12.1084 4.04085
41 Al 4.15314 8.81858 6.97265
42 Al 2.826 10.0367 1.98333
43 Al 0.467749 13.0453 5.57914
44 Al 1.96252 9.94892 5.71049
45 Ni 2.27731 12.3961 1.78366
46 Ni 0.438414 9.09664 1.93929
47 Ni 2.55362 7.47634 5.5018
48 Ni 4.69033 10.8886 5.52408
49 Al 4.38022 6.7198 9.24752
50 Al 1.81972 7.69786 10.614
51 Al 1.78899 7.66177 7.87281
52 Al 4.2742 8.78624 11.566
53 Al 0.534055 11.083 10.667
54 Al 3.12083 12.2619 14.4449
55 Al 0.616472 11.1986 7.73215
56 Al 2.9135 12.0098 11.5675
57 Al 4.04329 8.82199 14.4622
58 Al 2.76311 9.91875 9.14098
59 Al 0.417133 13.0179 12.903
60 Al 1.86125 9.8649 12.9182
61 Ni 2.14738 12.3429 9.31357
62 Ni 0.22576 9.07909 9.31725
63 Ni 2.5617 7.59982 12.9231
64 Ni 4.39758 10.743 12.9952
65 Al 9.18495 0.00197551 1.78537
66 Al 6.66191 1.127 3.30407
67 Al 6.53119 1.17641 0.346308
68 Al 8.94742 2.19697 4.09108
69 Al 5.40594 4.40645 3.16713
70 Al 8.05644 5.50689 6.93702
71 Al 5.44243 4.49693 0.372613
72 Al 7.95822 5.38008 3.96986
73 Al 9.13369 2.19003 6.79779
74 Al 7.57082 3.39976 1.79688
75 Al 5.27193 6.6421 5.58313
76 Al 6.82891 3.22589 5.42518
77 Ni 7.05001 5.92039 1.79365
78 Ni 5.16602 2.51742 1.82037
79 Ni 7.49335 0.782915 5.48987
80 Ni 9.43333 4.18227 5.44353
81 Al 9.04261 0.0780681 9.34024
82 Al 6.36471 1.12322 10.7247
83 Al 6.64917 1.14461 7.8791
84 Al 8.79884 2.15169 11.4575
85 Al 5.56115 4.42581 10.6522
86 Al 7.83202 5.36252 14.3417
87 Al 5.575 4.44684 7.66915
88 Al 7.81533 5.47418 11.5593
89 Al 8.96711 2.07285 14.4851
90 Al 7.82531 3.49505 9.09021
91 Al 5.31009 6.60205 13.2315
92 Al 6.69993 3.21622 13.0416
93 Ni 6.97402 5.80366 9.20752
94 Ni 5.04033 2.33715 9.19713
95 Ni 7.48877 0.837249 12.9767
96 Ni 9.43415 4.09177 12.9321
97 Al 9.43843 6.73857 1.86517
98 Al 6.71984 7.81189 3.23381
99 Al 6.70581 7.89669 0.460385
100 Al 9.08138 8.70035 4.18219
101 Al 5.62488 10.9294 3.33194
102 Al 7.89538 12.1454 6.99057
103 Al 5.56803 10.9816 0.405329
104 Al 7.98738 11.9498 4.1485
105 Al 9.10619 8.82605 7.03836
106 Al 7.95352 10.0125 1.77685
107 Al 5.30022 13.4108 5.45791
108 Al 6.86965 9.82517 5.53952
109 Ni 6.97925 12.3001 1.83316
110 Ni 5.09928 9.05249 1.88091
111 Ni 7.57007 7.46302 5.50866
112 Ni 9.46963 10.7363 5.61803
113 Al 9.31508 6.61942 9.34881
114 Al 6.58152 7.75313 10.8196
115 Al 6.78733 7.69084 7.84335
116 Al 9.1173 8.73688 11.6002
117 Al 5.50131 11.0005 10.7938
118 Al 7.87965 11.9817 14.4658
119 Al 5.53599 10.9286 7.82604
120 Al 7.77047 12.0556 11.5749
121 Al 9.03846 8.72386 14.4825
122 Al 7.59149 10.0411 9.34835
123 Al 5.28661 13.1722 13.0373
124 Al 6.81817 9.90618 13.0254
125 Ni 6.93211 12.3959 9.21622
126 Ni 5.18606 9.0216 9.27876
127 Ni 7.66246 7.5534 12.9416
128 Ni 9.28608 10.7446 12.9717
ITEM: TIMESTEP
14900
ITEM: NUMBER OF ATOMS
128
ITEM: BOX BOUNDS xy xz yz pp pp pp
-7.1424744880852487e-02 9.8283960325371726e+00 5.1993145248636810e-02
-3.7637965179300181e-03 1.3248718393473291e+01 7.3972320151369342e-02
-3.0207237136047560e-02 1.4883684996947693e+01 4.5086383662959091e-02
ITEM: ATOMS id element xu yu zu
1 Al 4.2156 0.131704 1.80733
2 Al 1.77091 1.30581 3.29476
3 Al 1.65399 1.05156 0.386045
4 Al 4.23597 2.34154 4.07206
5 Al 0.542311 4.55595 3.21126
6 Al 3.20084 5.55702 7.03616
7 Al 0.744787 4.56044 0.278887
8 Al 3.27097 5.5535 4.12116
9 Al 4.24503 2.1995 7.03008
10 Al 2.81313 3.35552 1.89797
11 Al 0.431108 6.67961 5.53469
12 Al 1.87244 3.25633 5.5556
13 Ni 2.25645 5.76334 1.88836
14 Ni 0.209487 2.40532 1.79311
15 Ni 2.78215 0.947382 5.57566
16 Ni 4.65408 4.18085 5.58238
17 Al 4.50169 0.206276 9.22074
18 Al 1.78014 1.14025 10.7035
19 Al 1.62056 1.25329 7.71952
20 Al 4.25022 2.2652 11.5717
21 Al 0.699247 4.3475 10.6816
22 Al 3.33117 5.47365 14.5695
23 Al 0.588487 4.41219 7.83886
24 Al 3.10198 5.37429 11.4962
25 Al 4.25707 2.15853 14.4293
26 Al 2.76124 3.3037 9.05476
27 Al 0.503933 6.5757 13.0125
28 Al 2.00724 3.35033 12.926
29 Ni 2.01577 5.84092 9.20181
30 Ni 0.209917 2.49255 9.22048
31 Ni 2.646 0.943847 13.0671
32 Ni 4.65913 4.19608 13.002
33 Al 4.58403 6.66122 1.77478
34 Al 1.73883 7.69709 3.32127
35 Al 1.89204 7.6992 0.351033
36 Al 4.23359 8.9377 4.06543
37 Al 0.659316 11.0206 3.28649
38 Al 2.87073 12.0795 7.00679
39 Al 0.581986 11.1482 0.361189
40 Al 3.05043 12.0729 4.17316
41 Al 4.20894 8.76892 7.06627
42 Al 2.77134 10.1057 1.67318
43 Al 0.493688 13.3168 5.55438
44 Al 2.02282 9.87534 5.61673
45 Ni 2.09215 12.3576 1.85818
46 Ni 0.288641 9.19044 1.63064
47 Ni 2.81994 7.45628 5.5612
48 Ni 4.5453 10.6439 5.6678
49 Al 4.56935 6.64883 9.21856
50 Al 1.77527 7.70465 10.7868
51 Al 1.85159 7.69685 7.81432
52 Al 4.34661 8.75177 11.4937
53 Al 0.932752 10.9421 10.8551
54 Al 3.20533 12.1249 14.4801
55 Al 0.660351 10.9402 7.69621
56 Al 3.24782 12.1855 11.603
57 Al 4.43389 8.58604 14.2728
58 Al 2.89586 10.0817 9.2487
59 Al 0.311247 13.3477 12.9976
60 Al 2.33137 9.83849 13.0655
61 Ni 2.1682 12.4587 9.34665
62 Ni 0.380251 8.99673 9.22524
63 Ni 2.8083 7.38858 13.0263
64 Ni 4.73092 10.7656 12.9646
65 Al 9.20259 0.0619768 1.85218
66 Al 6.5252 1.16725 3.39542
67 Al 6.52498 1.13835 0.433144
68 Al 9.12027 2.12191 4.15928
69 Al 5.53031 4.54507 3.28526
70 Al 7.91308 5.43695 6.91473
71 Al 5.60006 4.29197 0.262099
72 Al 8.04914 5.5825 3.99078
73 Al 8.89537 2.25226 7.08389
74 Al 7.69976 3.41651 1.94665
75 Al 5.44154 6.53901 5.55651
76 Al 6.9863 3.39179 5.50832
77 Ni 6.97886 5.78907 1.79519
78 Ni 5.06375 2.54608 1.80835
79 Ni 7.41306 0.987377 5.59166
80 Ni 9.3484 4.09917 5.5091
81 Al 9.38862 -0.00670277 9.22077
82 Al 6.61959 1.13679 10.727
83 Al 6.52969 1.07202 7.78488
84 Al 9.05937 2.26495 11.539
85 Al 5.55023 4.46269 10.7602
86 Al 8.04967 5.61093 14.483
87 Al 5.48095 4.48453 7.84009
88 Al 8.07908 5.45074 11.4984
89 Al 9.11312 2.3744 14.557
90 Al 7.63394 3.2041 9.36857
91 Al 5.3913 6.54016 12.6986
92 Al 6.94427 3.30023 12.9367
93 Ni 7.08157 5.72818 9.35414
94 Ni 5.12571 2.48641 9.26673
95 Ni 7.43533 0.884962 13.0554
96 Ni 9.5113 4.25876 13.0574
97 Al 9.47618 6.76613 1.70766
98 Al 6.62499 7.85378 3.1982
99 Al 6.72743 7.79384 0.383305
100 Al 9.03075 8.80996 4.04491
101 Al 5.43579 11.1597 3.2288
102 Al 8.0835 12.1967 7.09945
103 Al 5.59029 11.0304 0.369692
104 Al 7.89709 12.2163 4.21353
105 Al 9.15357 8.73242 6.99024
106 Al 7.75565 9.97334 1.81328
107 Al 5.27929 13.0912 5.55495
108 Al 6.9094 9.96906 5.62822
109 Ni 7.01645 12.3561 1.79125
110 Ni 4.97485 9.01093 1.69957
111 Ni 7.59658 7.56677 5.53751
112 Ni 9.43415 10.8988 5.49277
113 Al 9.34557 6.50146 9.2303
114 Al 6.73065 7.72898 10.7123
115 Al 6.69624 7.68649 7.79104
116 Al 9.11423 8.79817 11.5423
117 Al 5.59263 11.0186 10.6686
118 Al 8.04046 12.0891 14.4737
119 Al 5.49508 11.0539 7.78136
120 Al 8.0776 12.0734 11.5799
121 Al 9.12629 8.89645 14.3224
122 Al 7.79115 9.95207 9.18028
123 Al 5.3057 13.2042 13.0073
124 Al 6.90641 9.81516 13.0113
125 Ni 7.11899 12.3151 9.30925
126 Ni 5.13427 9.02285 9.22453
127 Ni 7.74705 7.42852 12.9621
128 Ni 9.67185 10.865 13.0006
ITEM: TIMESTEP
15000
ITEM: NUMBER OF ATOMS
128
ITEM: BOX BOUNDS xy xz yz pp pp pp
-1.3789838070172422e-02 9.7373977550003694e+00 6.9854209555585299e-03
1.0239238407618863e-02 1.3189152295595999e+01 8.5616673718324057e-02
-3.1322902467908698e-02 1.4884800662279554e+01 -4.7667928877937241e-04
ITEM: ATOMS id element xu yu zu
1 Al 4.41932 -0.0684167 1.85866
2 Al 1.66319 1.12019 3.29375
3 Al 1.78781 1.23091 0.324502
4 Al 4.16288 2.11991 3.96718
5 Al 0.687569 4.45537 3.39343
6 Al 3.08345 5.53076 6.98244
7 Al 0.679989 4.48541 0.462666
8 Al 3.05566 5.32668 4.04317
9 Al 4.16554 2.22914 6.99984
10 Al 2.8671 3.24745 1.89382
11 Al 0.445432 6.66213 5.45407
12 Al 2.05482 3.15272 5.51566
13 Ni 2.10542 5.787 1.71976
14 Ni 0.345171 2.49467 1.8938
15 Ni 2.58059 0.840621 5.53073
16 Ni 4.60198 4.2394 5.60022
17 Al 4.59842 0.0650951 9.24486
18 Al 1.81384 1.05056 10.7359
19 Al 1.84056 1.07009 7.90859
20 Al 4.26796 2.16864 11.6736
21 Al 0.65527 4.46203 10.6116
22 Al 3.1039 5.52498 14.3932
23 Al 0.723457 4.40973 7.87315
24 Al 3.15552 5.42069 11.5952
25 Al 4.18475 2.20285 14.5202
26 Al 2.89661 3.30136 9.40372
27 Al 0.48834 6.63939 12.9251
28 Al 1.98069 3.31512 13.1034
29 Ni 2.14968 5.78034 9.28755
30 Ni 0.36648 2.49908 9.23594
31 Ni 2.82548 0.859171 12.9966
32 Ni 4.61145 4.11345 13.0422
33 Al 4.47776 6.60152 1.83404
34 Al 1.81257 7.62794 3.2523
35 Al 1.71549 7.66876 0.312595
36 Al 4.2069 8.74817 4.04734
37 Al 0.55569 10.988 3.0828
38 Al 3.16859 12.0474 7.0276
39 Al 0.691378 10.9992 0.329999
40 Al 3.00291 11.9745 4.03445
41 Al 4.22209 8.99881 6.82868
42 Al 2.89645 9.99616 1.70781
43 Al 0.331676 13.0917 5.52503
44 Al 2.05573 9.88619 5.35862
45 Ni 2.101 12.3905 1.71323
46 Ni 0.109483 8.9038 1.91464
47 Ni 2.64653 7.45845 5.51827
48 Ni 4.56054 10.8504 5.38238
49 Al 4.51884 6.72821 9.29812
50 Al 1.80148 7.70342 10.6855
51 Al 1.7663 7.7655 7.71459
52 Al 4.21437 8.8739 11.5333
53 Al 0.687863 11.0946 10.762
54 Al 3.15166 12.1504 14.485
55 Al 0.604481 10.9762 7.68037
56 Al 3.12742 12.0112 11.4952
57 Al 4.16305 8.89951 14.4808
58 Al 2.91248 9.86218 9.20618
59 Al 0.595153 13.1386 13.0388
60 Al 2.08821 9.83689 13.0081
61 Ni 2.11881 12.209 9.16865
62 Ni 0.304764 9.17403 9.28102
63 Ni 2.84326 7.50508 12.987
64 Ni 4.56701 10.8099 13.0236
65 Al 9.24138 0.192339 1.76304
66 Al 6.53809 1.06978 3.36438
67 Al 6.58531 1.19141 0.316479
68 Al 8.98224 2.27083 4.1668
69 Al 5.50805 4.429 3.33967
70 Al 7.91564 5.58668 6.9321
71 Al 5.39576 4.43805 0.42408
72 Al 7.85496 5.48113 4.2404
73 Al 9.20117 2.10183 6.98676
74 Al 7.70652 3.39536 1.76861
75 Al 5.10142 6.5735 5.47829
76 Al 6.91368 3.16044 5.65448
77 Ni 6.97092 5.63655 1.89604
78 Ni 5.01718 2.31243 1.8458
79 Ni 7.57618 0.782795 5.5017
80 Ni 9.4465 4.23233 5.61811
81 Al 9.30864 0.200546 9.34336
82 Al 6.63057 1.15304 10.7857
83 Al 6.68798 1.3105 7.73061
84 Al 9.08821 2.30839 11.4975
85 Al 5.51621 4.38869 10.7218
86 Al 8.05336 5.51943 14.4479
87 Al 5.56098 4.3708 7.82291
88 Al 8.00009 5.60303 11.4811
89 Al 9.21119 2.27269 14.4173
90 Al 7.81072 3.40863 9.3209
91 Al 5.33436 6.52699 13.152
92 Al 6.90351 3.26973 12.9464
93 Ni 7.09957 5.81301 9.19909
94 Ni 5.08279 2.42736 9.34301
95 Ni 7.7479 0.867179 12.9214
96 Ni 9.46614 4.15316 12.9475
97 Al 9.21554 6.52349 1.88102
98 Al 6.55713 7.66255 3.29049
99 Al 6.49783 7.64738 0.402095
100 Al 8.93933 8.79668 4.16802
101 Al 5.62325 10.9459 3.1761
102 Al 7.80122 11.9771 7.04268
103 Al 5.47864 11.1252 0.385426
104 Al 7.97734 11.9812 4.03281
105 Al 8.91732 8.83121 6.99906
106 Al 7.71102 9.96628 1.68469
107 Al 5.28115 13.2367 5.55876
108 Al 6.75098 9.83544 5.44844
109 Ni 6.95324 12.3859 1.76177
110 Ni 5.34717 9.04356 1.86802
111 Ni 7.50812 7.51146 5.58417
112 Ni 9.44714 10.6737 5.56164
113 Al 9.26143 6.73519 9.27822
114 Al 6.59238 7.69727 10.7107
115 Al 6.45648 7.83497 7.6948
116 Al 9.0787 8.78063 11.5776
117 Al 5.57992 11.0991 10.7844
118 Al 8.03968 12.1409 14.5026
119 Al 5.56488 11.0143 7.74997
120 Al 8.11563 12.1848 11.5283
121 Al 9.0742 8.78552 14.4528
122 Al 7.75416 9.97469 9.26577
123 Al 5.33597 13.1834 13.0171
124 Al 6.94496 9.98831 12.9911
125 Ni 7.14932 12.271 9.29899
126 Ni 5.20177 9.10339 9.36004
127 Ni 7.49007 7.55787 13.0244
128 Ni 9.41719 10.7417 13.0102
