ITEM: TIMESTEP
0
ITEM: NUMBER OF ATOMS
128
ITEM: BOX BOUNDS xy xz yz pp pp pp
-4.0244898839565462e-16 1.1581784319823878e+01 -2.0790882131804088e-16
-3.0901716430321603e-16 1.1581784319823878e+01 -1.9454016707761374e-16
0.0000000000000000e+00 1.1581784319823878e+01 -3.0901716430321603e-16
ITEM: ATOMS id element xu yu zu
1 Al 1.447 1.447 1.447
2 Ni -0.00071892 -0.00071892 -0.00071892
3 Al 1.447 1.447 4.34245
4 Ni -0.00071892 -0.00071892 2.89473
5 Al 1.447 1.447 7.2379
6 Ni -0.00071892 -0.00071892 5.79017
7 Al 1.447 1.447 10.1333
8 Ni -0.00071892 -0.00071892 8.68562
9 Al 1.447 4.34245 1.447
10 Ni -0.00071892 2.89473 -0.00071892
11 Al 1.447 4.34245 4.34245
12 Ni -0.00071892 2.89473 2.89473
13 Al 1.447 4.34245 7.2379
14 Ni -0.00071892 2.89473 5.79017
15 Al 1.447 4.34245 10.1333
16 Ni -0.00071892 2.89473 8.68562
17 Al 1.447 7.2379 1.447
18 Ni -0.00071892 5.79017 -0.00071892
19 Al 1.447 7.2379 4.34245
20 Ni -0.00071892 5.79017 2.89473
21 Al 1.447 7.2379 7.2379
22 Ni -0.00071892 5.79017 5.79017
23 Al 1.447 7.2379 10.1333
24 Ni -0.00071892 5.79017 8.68562
25 Al 1.447 10.1333 1.447
26 Ni -0.00071892 8.68562 -0.00071892
27 Al 1.447 10.1333 4.34245
28 Ni -0.00071892 8.68562 2.89473
29 Al 1.447 10.1333 7.2379
30 Ni -0.00071892 8.68562 5.79017
31 Al 1.447 10.1333 10.1333
32 Ni -0.00071892 8.68562 8.68562
33 Al 4.34245 1.447 1.447
34 Ni 2.89473 -0.00071892 -0.00071892
35 Al 4.34245 1.447 4.34245
36 Ni 2.89473 -0.00071892 2.89473
37 Al 4.34245 1.447 7.2379
38 Ni 2.89473 -0.00071892 5.79017
39 Al 4.34245 1.447 10.1333
40 Ni 2.89473 -0.00071892 8.68562
41 Al 4.34245 4.34245 1.447
42 Ni 2.89473 2.89473 -0.00071892
43 Al 4.34245 4.34245 4.34245
44 Ni 2.89473 2.89473 2.89473
45 Al 4.34245 4.34245 7.2379
46 Ni 2.89473 2.89473 5.79017
47 Al 4.34245 4.34245 10.1333
48 Ni 2.89473 2.89473 8.68562
49 Al 4.34245 7.2379 1.447
50 Ni 2.89473 5.79017 -0.00071892
51 Al 4.34245 7.2379 4.34245
52 Ni 2.89473 5.79017 2.89473
53 Al 4.34245 7.2379 7.2379
54 Ni 2.89473 5.79017 5.79017
55 Al 4.34245 7.2379 10.1333
56 Ni 2.89473 5.79017 8.68562
57 Al 4.34245 10.1333 1.447
58 Ni 2.89473 8.68562 -0.00071892
59 Al 4.34245 10.1333 4.34245
60 Ni 2.89473 8.68562 2.89473
61 Al 4.34245 10.1333 7.2379
62 Ni 2.89473 8.68562 5.79017
63 Al 4.34245 10.1333 10.1333
64 Ni 2.89473 8.68562 8.68562
65 Al 7.2379 1.447 1.447
66 Ni 5.79017 -0.00071892 -0.00071892
67 Al 7.2379 1.447 4.34245
68 Ni 5.79017 -0.00071892 2.89473
69 Al 7.2379 1.447 7.2379
70 Ni 5.79017 -0.00071892 5.79017
71 Al 7.2379 1.447 10.1333
72 Ni 5.79017 -0.00071892 8.68562
73 Al 7.2379 4.34245 1.447
74 Ni 5.79017 2.89473 -0.00071892
75 Al 7.2379 4.34245 4.34245
76 Ni 5.79017 2.89473 2.89473
77 Al 7.2379 4.34245 7.2379
78 Ni 5.79017 2.89473 5.79017
79 Al 7.2379 4.34245 10.1333
80 Ni 5.79017 2.89473 8.68562
81 Al 7.2379 7.2379 1.447
82 Ni 5.79017 5.79017 -0.00071892
83 Al 7.2379 7.2379 4.34245
84 Ni 5.79017 5.79017 2.89473
85 Al 7.2379 7.2379 7.2379
86 Ni 5.79017 5.79017 5.79017
87 Al 7.2379 7.2379 10.1333
88 Ni 5.79017 5.79017 8.68562
89 Al 7.2379 10.1333 1.447
90 Ni 5.79017 8.68562 -0.00071892
91 Al 7.2379 10.1333 4.34245
92 Ni 5.79017 8.68562 2.89473
93 Al 7.2379 10.1333 7.2379
94 Ni 5.79017 8.68562 5.79017
95 Al 7.2379 10.1333 10.1333
96 Ni 5.79017 8.68562 8.68562
97 Al 10.1333 1.447 1.447
98 Ni 8.68562 -0.00071892 -0.00071892
99 Al 10.1333 1.447 4.34245
100 Ni 8.68562 -0.00071892 2.89473
101 Al 10.1333 1.447 7.2379
102 Ni 8.68562 -0.00071892 5.79017
103 Al 10.1333 1.447 10.1333
104 Ni 8.68562 -0.00071892 8.68562
105 Al 10.1333 4.34245 1.447
106 Ni 8.68562 2.89473 -0.00071892
107 Al 10.1333 4.34245 4.34245
108 Ni 8.68562 2.89473 2.89473
109 Al 10.1333 4.34245 7.2379
110 Ni 8.68562 2.89473 5.79017
111 Al 10.1333 4.34245 10.1333
112 Ni 8.68562 2.89473 8.68562
113 Al 10.1333 7.2379 1.447
114 Ni 8.68562 5.79017 -0.00071892
115 Al 10.1333 7.2379 4.34245
116 Ni 8.68562 5.79017 2.89473
117 Al 10.1333 7.2379 7.2379
118 Ni 8.68562 5.79017 5.79017
119 Al 10.1333 7.2379 10.1333
120 Ni 8.68562 5.79017 8.68562
121 Al 10.1333 10.1333 1.447
122 Ni 8.68562 8.68562 -0.00071892
123 Al 10.1333 10.1333 4.34245
124 Ni 8.68562 8.68562 2.89473
125 Al 10.1333 10.1333 7.2379
126 Ni 8.68562 8.68562 5.79017
127 Al 10.1333 10.1333 10.1333
128 Ni 8.68562 8.68562 8.68562
ITEM: TIMESTEP
100
ITEM: NUMBER OF ATOMS
128
ITEM: BOX BOUNDS xy xz yz pp pp pp
-4.3041266116363712e-02 1.1632127574721766e+01 1.4351627052948328e-02
-4.0667296983139485e-02 1.1614722794575863e+01 -7.0496382714328914e-03
-2.2784925170141967e-02 1.1604569244994035e+01 -7.7288222311642863e-03
ITEM: ATOMS id element xu yu zu
1 Al 1.496 1.37423 1.46315
2 Ni -0.0103915 -0.154208 0.00639315
3 Al 1.38241 1.45426 4.27325
4 Ni -0.0398726 -0.116595 2.90563
5 Al 1.37309 1.36173 7.14803
6 Ni -0.135334 -0.0580915 5.77217
7 Al 1.3926 1.35444 10.2301
8 Ni -0.114524 -0.0191938 8.6513
9 Al 1.45272 4.38059 1.50377
10 Ni 0.0622242 2.93959 0.0497619
11 Al 1.42243 4.3853 4.41331
12 Ni -0.0534305 2.95544 2.90505
13 Al 1.38461 4.33277 7.24546
14 Ni -0.0339425 2.86372 5.82562
15 Al 1.45569 4.31186 10.1829
16 Ni 0.0487944 2.80186 8.73505
17 Al 1.41468 7.20005 1.51171
18 Ni 0.0310988 5.80651 -0.00501635
19 Al 1.4887 7.34034 4.36194
20 Ni -0.030309 5.90896 2.98697
21 Al 1.48872 7.24658 7.24723
22 Ni -0.0832918 5.81589 5.88373
23 Al 1.4927 7.22527 10.1905
24 Ni -0.0134761 5.77113 8.71857
25 Al 1.43732 10.0231 1.46837
26 Ni -0.0282082 8.63405 -0.0886122
27 Al 1.33975 10.1288 4.42461
28 Ni -0.116709 8.61636 2.94862
29 Al 1.45024 10.099 7.3155
30 Ni -0.0678714 8.65477 5.85552
31 Al 1.36543 10.0432 10.1021
32 Ni -0.0892816 8.60651 8.69685
33 Al 4.31083 1.48263 1.45074
34 Ni 2.82831 -0.106498 -0.0517974
35 Al 4.30058 1.41261 4.3404
36 Ni 2.85545 -0.15816 2.91574
37 Al 4.26017 1.40289 7.22942
38 Ni 2.80438 -0.145859 5.71636
39 Al 4.26987 1.35684 10.1969
40 Ni 2.85002 -0.0536143 8.73379
41 Al 4.34904 4.43954 1.46066
42 Ni 2.86754 2.98801 0.141986
43 Al 4.39321 4.35171 4.29845
44 Ni 2.89636 2.94628 2.95526
45 Al 4.30903 4.34148 7.24215
46 Ni 2.83916 2.88544 5.742
47 Al 4.23982 4.25586 10.1551
48 Ni 2.84204 2.84874 8.63386
49 Al 4.40465 7.29285 1.44273
50 Ni 2.85475 5.82764 0.0472906
51 Al 4.40926 7.34115 4.3986
52 Ni 2.93711 5.86997 2.96295
53 Al 4.40315 7.28292 7.23654
54 Ni 2.96421 5.79401 5.76182
55 Al 4.34833 7.20732 10.1679
56 Ni 2.8865 5.82184 8.67546
57 Al 4.34732 10.2161 1.35863
58 Ni 2.96091 8.72626 -0.0637135
59 Al 4.42562 10.1511 4.25814
60 Ni 3.02143 8.6636 2.84174
61 Al 4.45748 10.2082 7.13769
62 Ni 2.89788 8.73927 5.83581
63 Al 4.32072 10.1366 10.121
64 Ni 2.96843 8.75332 8.686
65 Al 7.2577 1.47813 1.39917
66 Ni 5.78985 0.0241385 -0.0239336
67 Al 7.25744 1.44997 4.30941
68 Ni 5.78734 -0.000784161 2.8112
69 Al 7.24426 1.4371 7.28383
70 Ni 5.82189 0.0284621 5.73254
71 Al 7.21542 1.48912 10.2423
72 Ni 5.77965 0.056848 8.73224
73 Al 7.29896 4.38442 1.44095
74 Ni 5.67455 2.89308 -0.0163039
75 Al 7.24215 4.31932 4.38815
76 Ni 5.80443 2.83807 2.87347
77 Al 7.19095 4.23294 7.27494
78 Ni 5.74372 2.81113 5.77374
79 Al 7.18585 4.3027 10.1912
80 Ni 5.75872 2.8721 8.69057
81 Al 7.2051 7.217 1.41049
82 Ni 5.79601 5.72544 -0.107176
83 Al 7.26004 7.23981 4.30421
84 Ni 5.85976 5.80686 2.90035
85 Al 7.24585 7.21555 7.20311
86 Ni 5.78015 5.79039 5.79531
87 Al 7.24042 7.21384 10.0809
88 Ni 5.76807 5.75568 8.71198
89 Al 7.29666 10.2082 1.32419
90 Ni 5.80284 8.71225 -0.0791773
91 Al 7.32868 10.1938 4.23094
92 Ni 5.86283 8.7035 2.81825
93 Al 7.28294 10.2385 7.2843
94 Ni 5.85339 8.77049 5.74445
95 Al 7.24779 10.1849 10.1194
96 Ni 5.79199 8.71554 8.65119
97 Al 10.3275 1.4061 1.40333
98 Ni 8.78979 -0.0322588 -0.0318741
99 Al 10.1155 1.38791 4.29276
100 Ni 8.75597 -0.0564548 2.74649
101 Al 10.0928 1.46272 7.23978
102 Ni 8.69115 0.0209541 5.75033
103 Al 10.2272 1.44294 10.2086
104 Ni 8.74448 -0.0287418 8.79218
105 Al 10.2167 4.38986 1.37557
106 Ni 8.77192 2.86965 0.00125249
107 Al 10.197 4.33642 4.3146
108 Ni 8.72979 2.89781 2.86055
109 Al 10.091 4.37292 7.23369
110 Ni 8.76702 2.90506 5.774
111 Al 10.1401 4.31407 10.0779
112 Ni 8.6923 2.86425 8.78334
113 Al 10.1237 7.25381 1.39745
114 Ni 8.70069 5.74616 -0.00382559
115 Al 10.1323 7.23605 4.31774
116 Ni 8.66487 5.78838 2.90912
117 Al 10.0447 7.31706 7.1752
118 Ni 8.70214 5.72561 5.80334
119 Al 10.1269 7.16063 10.1052
120 Ni 8.60426 5.75733 8.68438
121 Al 10.1989 10.0978 1.37247
122 Ni 8.72565 8.60481 -0.0754436
123 Al 10.1178 10.1202 4.34292
124 Ni 8.69447 8.68343 2.82855
125 Al 10.1294 10.1326 7.28753
126 Ni 8.6063 8.80021 5.81823
127 Al 10.1509 10.1079 10.1299
128 Ni 8.59333 8.65322 8.62722
ITEM: TIMESTEP
200
ITEM: NUMBER OF ATOMS
128
ITEM: BOX BOUNDS xy xz yz pp pp pp
-3.3684551011188474e-02 1.1634441959635843e+01 2.9738980770404665e-02
-1.5543606795871679e-02 1.1594966435788534e+01 -1.0765891969618937e-02
1.9668083180484075e-02 1.1562116236643421e+01 -2.3614908312182175e-03
ITEM: ATOMS id element xu yu zu
1 Al 1.3977 1.39844 1.45448
2 Ni -0.0234873 0.0516467 -0.00642853
3 Al 1.42564 1.37606 4.33562
4 Ni -0.0795803 -0.0296915 2.86294
5 Al 1.35062 1.53052 7.20572
6 Ni 0.0252913 -0.0080337 5.79001
7 Al 1.43684 1.40917 10.1722
8 Ni 0.114951 -0.0702341 8.74052
9 Al 1.41924 4.32478 1.35996
10 Ni -0.0281132 2.89722 0.0390848
11 Al 1.49655 4.27762 4.36505
12 Ni 0.0632377 2.82253 2.9248
13 Al 1.44918 4.36769 7.18102
14 Ni -0.0150342 2.91812 5.73691
15 Al 1.52198 4.42389 10.0728
16 Ni -0.00140336 3.02449 8.66196
17 Al 1.43297 7.14141 1.47635
18 Ni -0.0162096 5.8587 -0.0276677
19 Al 1.39878 7.26174 4.26958
20 Ni -0.0566789 5.75832 2.88017
21 Al 1.42345 7.30126 7.1799
22 Ni 0.0068178 5.7313 5.73675
23 Al 1.41939 7.24786 10.1117
24 Ni 0.0201064 5.78171 8.63385
25 Al 1.45725 10.0454 1.40817
26 Ni -0.040348 8.68017 0.0305823
27 Al 1.3831 10.1734 4.43604
28 Ni 0.018299 8.6854 2.87973
29 Al 1.52299 10.1113 7.22228
30 Ni -0.0922034 8.73839 5.74019
31 Al 1.4491 10.0344 10.1211
32 Ni -0.0112427 8.76657 8.60506
33 Al 4.30519 1.45067 1.50062
34 Ni 2.88211 0.020227 0.15881
35 Al 4.36289 1.44008 4.32437
36 Ni 2.79299 -0.0363872 2.86854
37 Al 4.36692 1.43344 7.17345
38 Ni 2.9264 0.0742257 5.88576
39 Al 4.29002 1.34173 10.1778
40 Ni 2.85689 0.0284046 8.64567
41 Al 4.19967 4.27113 1.4115
42 Ni 2.77671 2.77743 -0.00836101
43 Al 4.30552 4.37429 4.35718
44 Ni 2.76005 2.76032 2.8336
45 Al 4.37309 4.291 7.18896
46 Ni 2.88757 2.78156 5.79684
47 Al 4.39281 4.26027 10.1503
48 Ni 2.88454 2.92357 8.6767
49 Al 4.33782 7.3105 1.52551
50 Ni 3.00003 5.79481 -0.107287
51 Al 4.36281 7.29869 4.39752
52 Ni 2.85576 5.81624 2.86314
53 Al 4.44573 7.24579 7.24877
54 Ni 2.80492 5.8502 5.81344
55 Al 4.41309 7.23224 10.103
56 Ni 2.97048 5.71678 8.60442
57 Al 4.3372 10.1427 1.53633
58 Ni 2.87349 8.60542 -0.0677456
59 Al 4.44158 10.1868 4.33082
60 Ni 2.82087 8.70442 3.00912
61 Al 4.42292 10.117 7.21945
62 Ni 2.94406 8.65935 5.77776
63 Al 4.24501 10.0933 10.2066
64 Ni 2.80845 8.65468 8.62535
65 Al 7.21695 1.47487 1.42456
66 Ni 5.73964 -0.016194 0.0580057
67 Al 7.23315 1.46062 4.34157
68 Ni 5.87622 0.0201963 2.89981
69 Al 7.19754 1.46556 7.24315
70 Ni 5.78283 -0.0197127 5.81367
71 Al 7.226 1.50608 10.136
72 Ni 5.73852 -0.0139688 8.71602
73 Al 7.32513 4.42844 1.46882
74 Ni 5.83259 2.85568 0.0299965
75 Al 7.25849 4.40058 4.30502
76 Ni 5.71133 2.88198 2.91297
77 Al 7.25155 4.18623 7.27293
78 Ni 5.88077 2.91977 5.72178
79 Al 7.17039 4.33411 10.0752
80 Ni 5.70826 2.82845 8.7115
81 Al 7.24601 7.23755 1.47335
82 Ni 5.806 5.78461 0.14582
83 Al 7.23041 7.21623 4.39054
84 Ni 5.65897 5.67511 2.89152
85 Al 7.31531 7.28599 7.31451
86 Ni 5.86766 5.73716 5.78304
87 Al 7.31891 7.18495 10.0362
88 Ni 5.82624 5.69005 8.56002
89 Al 7.29388 10.2018 1.46945
90 Ni 5.8601 8.6624 0.0578031
91 Al 7.34898 10.104 4.37564
92 Ni 5.79853 8.68716 2.96625
93 Al 7.31936 10.198 7.32149
94 Ni 5.78828 8.69416 5.86637
95 Al 7.25442 10.2446 10.1426
96 Ni 5.86218 8.80157 8.77115
97 Al 10.2183 1.40493 1.42059
98 Ni 8.69008 0.0018826 0.0276251
99 Al 10.1795 1.4362 4.35178
100 Ni 8.6922 0.0323452 2.98083
101 Al 10.1669 1.44478 7.18833
102 Ni 8.72979 -0.0408982 5.80898
103 Al 10.202 1.49955 10.0822
104 Ni 8.65316 0.093031 8.62884
105 Al 10.1909 4.36211 1.41661
106 Ni 8.74093 2.94654 -0.00531274
107 Al 10.124 4.3105 4.35857
108 Ni 8.74482 2.90679 2.89456
109 Al 10.0989 4.3887 7.1297
110 Ni 8.69051 2.8119 5.81263
111 Al 10.1959 4.3324 10.0561
112 Ni 8.82216 2.85548 8.62885
113 Al 10.1133 7.33347 1.47495
114 Ni 8.69036 5.70209 -0.0562757
115 Al 10.2067 7.23203 4.28975
116 Ni 8.75883 5.79805 2.88771
117 Al 10.0812 7.34843 7.20459
118 Ni 8.62881 5.78983 5.87739
119 Al 10.1247 7.2462 10.1184
120 Ni 8.75679 5.64532 8.7311
121 Al 10.1858 10.2171 1.39563
122 Ni 8.70541 8.81316 0.0143398
123 Al 10.1751 10.1574 4.33091
124 Ni 8.65024 8.62065 2.9756
125 Al 10.1476 10.1844 7.30332
126 Ni 8.7128 8.68928 5.85959
127 Al 10.1817 10.2421 10.1414
128 Ni 8.7748 8.83259 8.79008
ITEM: TIMESTEP
300
ITEM: NUMBER OF ATOMS
128
ITEM: BOX BOUNDS xy xz yz pp pp pp
-4.7560091771331692e-02 1.1652232943930052e+01 1.8040513373154730e-02
-3.4184795249338151e-02 1.1629791949847741e+01 4.8480189616847648e-03
6.2071080406775891e-03 1.1575577211783230e+01 1.3822834774516950e-02
ITEM: ATOMS id element xu yu zu
1 Al 1.47211 1.5188 1.43537
2 Ni -0.161179 -0.0811656 0.0672692
3 Al 1.44128 1.48675 4.28623
4 Ni -0.00501572 0.0570362 2.97665
5 Al 1.49657 1.44486 7.16376
6 Ni -0.02992 0.0108795 5.74464
7 Al 1.49636 1.42318 10.2312
8 Ni -0.120044 0.00455205 8.54639
9 Al 1.39542 4.22227 1.34729
10 Ni -0.0998488 2.78819 -0.0988065
11 Al 1.36205 4.25448 4.36072
12 Ni -0.173014 2.92628 2.78735
13 Al 1.44628 4.38238 7.26764
14 Ni 0.0175927 2.83135 5.83115
15 Al 1.47357 4.43582 10.0924
16 Ni -0.100822 2.72551 8.63328
17 Al 1.39528 7.35925 1.51045
18 Ni -0.0716172 5.68264 0.00845169
19 Al 1.40758 7.22779 4.20133
20 Ni 0.0444454 5.77434 2.76517
21 Al 1.48316 7.28804 7.24357
22 Ni -0.0224968 5.85229 5.80253
23 Al 1.38261 7.38473 10.2756
24 Ni -0.147667 5.73139 8.72725
25 Al 1.43811 10.3203 1.39344
26 Ni -0.00480291 8.84023 0.00771965
27 Al 1.34028 10.141 4.32432
28 Ni -0.0706225 8.78175 2.92164
29 Al 1.37564 10.1004 7.25179
30 Ni 0.0917246 8.64345 5.7971
31 Al 1.44373 10.1496 10.0634
32 Ni 0.0340208 8.73097 8.79759
33 Al 4.29191 1.32176 1.44827
34 Ni 2.97305 -0.033232 -0.198432
35 Al 4.40165 1.42588 4.32912
36 Ni 2.92792 0.0330794 2.90505
37 Al 4.37381 1.3653 7.18182
38 Ni 2.85865 -0.103128 5.72087
39 Al 4.40138 1.47391 10.1205
40 Ni 2.96433 -0.112104 8.74296
41 Al 4.33479 4.30013 1.40532
42 Ni 3.02684 2.96487 -0.0429307
43 Al 4.44392 4.38 4.3336
44 Ni 3.05352 2.92773 2.88684
45 Al 4.44705 4.37884 7.36968
46 Ni 2.83338 2.98687 5.75925
47 Al 4.33855 4.50694 10.1214
48 Ni 2.92562 2.94856 8.74708
49 Al 4.37502 7.19626 1.43836
50 Ni 2.67547 5.8264 0.137543
51 Al 4.27923 7.2494 4.25712
52 Ni 2.85106 5.69513 2.87792
53 Al 4.36538 7.23374 7.17477
54 Ni 2.94932 5.69078 5.73022
55 Al 4.32096 7.36881 10.1792
56 Ni 2.76734 5.87666 8.78173
57 Al 4.31185 10.1744 1.52368
58 Ni 2.90276 8.79701 0.077934
59 Al 4.36682 9.98848 4.39657
60 Ni 2.91994 8.68158 2.79016
61 Al 4.34616 10.0642 7.21293
62 Ni 2.81441 8.67049 5.81183
63 Al 4.44661 10.2274 10.2127
64 Ni 2.95646 8.66113 8.75807
65 Al 7.10215 1.34529 1.48914
66 Ni 5.87684 -0.0499266 0.0908758
67 Al 7.2262 1.45549 4.39345
68 Ni 5.65272 -0.209764 2.99846
69 Al 7.24241 1.46619 7.22711
70 Ni 5.70375 -0.0854435 5.80392
71 Al 7.21502 1.35198 10.0868
72 Ni 5.79334 -0.0899067 8.60596
73 Al 7.3128 4.38871 1.37959
74 Ni 5.83603 2.9189 -0.0547054
75 Al 7.21514 4.47579 4.37254
76 Ni 5.89493 2.92736 2.96506
77 Al 7.31636 4.43204 7.21177
78 Ni 5.69386 2.88455 5.85754
79 Al 7.35062 4.40056 10.0746
80 Ni 5.9356 3.02878 8.67009
81 Al 7.24292 7.23253 1.46543
82 Ni 5.82737 5.80693 -0.0915471
83 Al 7.30609 7.29173 4.36371
84 Ni 5.91839 5.87098 2.89772
85 Al 7.2343 7.26405 7.12641
86 Ni 5.67663 5.79833 5.79625
87 Al 7.29053 7.26369 10.1106
88 Ni 5.89179 5.89914 8.83874
89 Al 7.21015 10.1344 1.49944
90 Ni 5.71583 8.75134 0.0275791
91 Al 7.3152 10.0755 4.34053
92 Ni 5.73982 8.64669 2.92376
93 Al 7.25332 10.1643 7.27459
94 Ni 5.77722 8.60198 5.71692
95 Al 7.34533 10.1215 10.1399
96 Ni 5.79849 8.58553 8.58168
97 Al 10.2024 1.31347 1.4639
98 Ni 8.67563 -0.0114803 0.0728898
99 Al 10.1439 1.44738 4.39155
100 Ni 8.65052 -0.0997546 2.94213
101 Al 10.0654 1.39248 7.20417
102 Ni 8.66973 0.0056605 5.83134
103 Al 10.1629 1.38651 10.1073
104 Ni 8.76628 -0.184359 8.70488
105 Al 10.0825 4.29638 1.43318
106 Ni 8.59528 2.72739 -0.000261245
107 Al 10.1812 4.36419 4.44785
108 Ni 8.67104 2.92268 3.01226
109 Al 10.1188 4.29105 7.31169
110 Ni 8.73046 2.96542 5.7764
111 Al 10.0835 4.32099 10.1337
112 Ni 8.57819 2.84796 8.66674
113 Al 10.2972 7.2939 1.56558
114 Ni 8.73718 5.96424 0.0679542
115 Al 10.2629 7.33043 4.27429
116 Ni 8.6969 5.79795 2.8773
117 Al 10.1984 7.36952 7.20582
118 Ni 8.89292 5.85111 5.7
119 Al 10.1635 7.27589 10.2081
120 Ni 8.66757 6.0578 8.6347
121 Al 10.161 10.2067 1.37338
122 Ni 8.71177 8.60733 0.0784549
123 Al 10.1974 10.2326 4.3997
124 Ni 8.79469 8.69729 2.88788
125 Al 10.0741 10.023 7.27019
126 Ni 8.79714 8.66146 5.72722
127 Al 10.2205 10.1451 10.1009
128 Ni 8.67037 8.63946 8.5931
ITEM: TIMESTEP
400
ITEM: NUMBER OF ATOMS
128
ITEM: BOX BOUNDS xy xz yz pp pp pp
-3.4910798783410968e-02 1.1650698839430808e+01 1.7557249049441132e-02
-3.9875137108556835e-02 1.1632565364147105e+01 1.6446471774073948e-02
1.1914957989107577e-03 1.1580592824024995e+01 1.0905907214646517e-02
ITEM: ATOMS id element xu yu zu
1 Al 1.47861 1.52574 1.48307
2 Ni 0.00763638 0.0777057 -0.034252
3 Al 1.4533 1.46893 4.37793
4 Ni 0.0389455 0.0266282 2.86395
5 Al 1.41862 1.46002 7.22063
6 Ni 0.034414 0.068026 5.7784
7 Al 1.52333 1.45364 10.2173
8 Ni -0.106516 -0.0924224 8.79057
9 Al 1.45498 4.30069 1.41403
10 Ni -0.158367 2.76008 0.11127
11 Al 1.42674 4.25013 4.39813
12 Ni 0.0938947 2.72512 2.94513
13 Al 1.45715 4.33543 7.35347
14 Ni -0.123457 2.9047 5.82041
15 Al 1.49023 4.31041 10.2479
16 Ni -0.132506 2.87405 8.76808
17 Al 1.45595 7.24482 1.39799
18 Ni -0.050344 5.70993 0.0107934
19 Al 1.32662 7.20376 4.22808
20 Ni -0.0945847 5.70268 2.93765
21 Al 1.44145 7.29077 7.20341
22 Ni 0.0500915 5.63882 5.78418
23 Al 1.44574 7.35762 10.1874
24 Ni 0.108141 5.85427 8.8287
25 Al 1.46679 10.2718 1.3716
26 Ni -0.0340968 8.77322 0.0247563
27 Al 1.40521 10.197 4.35744
28 Ni 0.144514 8.61618 2.83612
29 Al 1.33608 10.1154 7.1891
30 Ni 2.71895e-05 8.69636 5.74907
31 Al 1.45567 10.1624 10.1054
32 Ni -0.0394676 8.77124 8.59676
33 Al 4.31492 1.33451 1.48063
34 Ni 2.94147 0.0571081 0.138003
35 Al 4.40488 1.42711 4.36997
36 Ni 2.89838 0.0769936 2.89631
37 Al 4.57813 1.45533 7.18155
38 Ni 2.91048 0.0727691 5.87904
39 Al 4.2888 1.45488 10.2114
40 Ni 2.91637 0.0336185 8.61901
41 Al 4.29078 4.24041 1.39436
42 Ni 2.90584 2.76748 0.0399746
43 Al 4.32268 4.39563 4.40316
44 Ni 2.89065 2.87617 2.8358
45 Al 4.39965 4.44868 7.24772
46 Ni 2.89661 2.92036 5.9006
47 Al 4.41273 4.34269 10.1243
48 Ni 2.82272 2.81719 8.68837
49 Al 4.31073 7.28698 1.38623
50 Ni 3.00861 5.54948 -0.0835279
51 Al 4.33037 7.26573 4.25753
52 Ni 2.86587 5.83804 2.79071
53 Al 4.3353 7.31573 7.16647
54 Ni 2.70959 5.83628 5.85765
55 Al 4.36818 7.32787 10.1303
56 Ni 2.85888 5.58895 8.83972
57 Al 4.36259 10.1699 1.49492
58 Ni 2.81985 8.69302 -0.0617152
59 Al 4.38164 10.1635 4.2858
60 Ni 2.84121 8.68102 2.92815
61 Al 4.32395 10.185 7.19116
62 Ni 2.90413 8.69127 5.76125
63 Al 4.26272 10.2053 10.1593
64 Ni 2.714 8.77724 8.67016
65 Al 7.17391 1.32342 1.24807
66 Ni 5.72081 -0.114558 -0.213341
67 Al 7.29923 1.49282 4.41826
68 Ni 5.90716 0.240869 2.8829
69 Al 7.30736 1.48469 7.23446
70 Ni 5.79887 -0.0356626 5.75853
71 Al 7.22738 1.45309 10.0436
72 Ni 5.83224 -0.12169 8.58481
73 Al 7.35632 4.37005 1.46424
74 Ni 5.91592 2.91823 -0.0165721
75 Al 7.24415 4.39367 4.29892
76 Ni 5.7409 2.92291 2.94357
77 Al 7.27112 4.36692 7.33523
78 Ni 5.8717 3.08969 5.87061
79 Al 7.20499 4.37336 10.0448
80 Ni 5.71175 2.91103 8.66865
81 Al 7.42024 7.18528 1.52589
82 Ni 5.93323 5.90197 0.154648
83 Al 7.27283 7.24643 4.37835
84 Ni 5.79554 5.81334 2.91717
85 Al 7.25081 7.27841 7.33168
86 Ni 5.85539 5.87367 5.75004
87 Al 7.32487 7.12394 10.033
88 Ni 5.68495 5.79541 8.53607
89 Al 7.21261 10.1792 1.47044
90 Ni 5.84299 8.66387 0.0591107
91 Al 7.18549 10.0838 4.25193
92 Ni 5.74426 8.73145 2.83784
93 Al 7.25628 10.1169 7.16935
94 Ni 5.69452 8.67527 5.77489
95 Al 7.29382 10.1135 10.0402
96 Ni 5.78155 8.69065 8.65341
97 Al 10.1705 1.27945 1.47024
98 Ni 8.60939 -0.17141 -0.00743558
99 Al 10.1705 1.40313 4.40503
100 Ni 8.71451 0.00293872 2.92712
101 Al 10.1448 1.32346 7.28353
102 Ni 8.73071 -0.215635 5.66736
103 Al 10.067 1.35413 10.1657
104 Ni 8.52681 -0.0802687 8.48435
105 Al 10.167 4.28339 1.56063
106 Ni 8.70688 2.97706 -0.062461
107 Al 10.0872 4.24834 4.485
108 Ni 8.694 2.85409 2.86786
109 Al 10.1948 4.22727 7.30884
110 Ni 8.67371 2.84677 5.86601
111 Al 10.213 4.32098 10.2156
112 Ni 8.73604 2.96229 8.6796
113 Al 10.2664 7.27886 1.53805
114 Ni 8.75162 5.73039 -0.0578991
115 Al 10.1834 7.29685 4.36632
116 Ni 8.8127 5.7991 2.91564
117 Al 10.1281 7.24813 7.21877
118 Ni 8.67315 5.73856 5.85496
119 Al 10.1123 7.3202 10.1732
120 Ni 8.86798 5.60916 8.74406
121 Al 10.2543 10.2721 1.35223
122 Ni 8.82201 8.90427 0.0193837
123 Al 10.2943 10.1634 4.317
124 Ni 8.79013 8.76083 2.9679
125 Al 10.0449 10.0977 7.23727
126 Ni 8.79348 8.73492 5.74229
127 Al 10.1688 10.1894 10.0177
128 Ni 8.78022 8.77444 8.62154
ITEM: TIMESTEP
500
ITEM: NUMBER OF ATOMS
128
ITEM: BOX BOUNDS xy xz yz pp pp pp
-1.1654290172904218e-02 1.1616337958079599e+01 2.3522555499700552e-02
-3.4255485978958333e-02 1.1617460066781243e+01 -6.2320741689149666e-04
-2.3247576948728366e-03 1.1584109077518780e+01 1.4202609783932349e-03
ITEM: ATOMS id element xu yu zu
1 Al 1.48274 1.42338 1.47449
2 Ni -0.0897487 -0.172331 0.0799908
3 Al 1.28781 1.39569 4.169
4 Ni -0.0527592 -0.134792 2.90494
5 Al 1.5174 1.37385 7.06943
6 Ni -0.103056 -0.0706267 5.69346
7 Al 1.57114 1.41291 10.2542
8 Ni 0.057767 0.0763895 8.61622
9 Al 1.53701 4.32437 1.46049
10 Ni 0.156491 2.9598 -0.0853251
11 Al 1.41817 4.39824 4.38036
12 Ni -0.129239 3.01817 2.85151
13 Al 1.48359 4.29564 7.18281
14 Ni 0.039055 2.80846 5.66792
15 Al 1.53336 4.48077 10.1106
16 Ni 0.0646854 2.86009 8.6411
17 Al 1.41814 7.32624 1.62
18 Ni 0.0526027 5.88397 0.0155908
19 Al 1.38856 7.36496 4.34972
20 Ni 0.0628089 5.87291 2.84903
21 Al 1.4642 7.21577 7.21925
22 Ni -0.0416745 5.91223 5.73384
23 Al 1.48303 7.22672 10.0612
24 Ni -0.10696 5.64454 8.53226
25 Al 1.43864 10.0935 1.4593
26 Ni 0.0726829 8.55712 -0.00502616
27 Al 1.35025 10.1269 4.3568
28 Ni -0.1216 8.72833 2.98398
29 Al 1.48286 10.0466 7.27464
30 Ni -0.0487373 8.79231 5.816
31 Al 1.45865 10.0331 10.1857
32 Ni 0.0243239 8.70454 8.73383
33 Al 4.24476 1.3418 1.50214
34 Ni 2.87214 -0.143279 -0.0938712
35 Al 4.31642 1.27192 4.21395
36 Ni 2.89026 -0.133155 2.84077
37 Al 4.42164 1.41288 7.2159
38 Ni 2.88599 -0.0155195 5.74354
39 Al 4.26446 1.39783 10.3112
40 Ni 2.8078 -0.010574 8.72809
41 Al 4.21508 4.34528 1.37616
42 Ni 2.87273 2.96058 0.0274301
43 Al 4.46229 4.25905 4.40443
44 Ni 2.8475 2.82415 2.92025
45 Al 4.50361 4.34745 7.25997
46 Ni 2.81122 2.80948 5.651
47 Al 4.25626 4.38053 10.0863
48 Ni 2.96096 2.95011 8.75928
49 Al 4.29691 7.382 1.54886
50 Ni 2.83038 6.00152 0.0858979
51 Al 4.44664 7.26412 4.39731
52 Ni 2.92656 5.73252 3.00155
53 Al 4.50763 7.32018 7.19113
54 Ni 2.99698 5.66663 5.79018
55 Al 4.33295 7.19162 10.1624
56 Ni 2.94485 5.85434 8.47727
57 Al 4.41475 10.18 1.38989
58 Ni 2.9372 8.69248 -0.0367498
59 Al 4.37629 10.0383 4.26942
60 Ni 2.95776 8.72246 2.95545
61 Al 4.48733 10.1897 7.16897
62 Ni 2.89459 8.71045 5.87197
63 Al 4.36747 10.1257 10.1353
64 Ni 2.98169 8.67517 8.6508
65 Al 7.18116 1.39142 1.52206
66 Ni 5.88128 0.0693714 0.213616
67 Al 7.27575 1.32916 4.423
68 Ni 5.73991 -0.232111 2.92817
69 Al 7.22645 1.41299 7.35858
70 Ni 5.78915 -0.0115748 5.78427
71 Al 7.24375 1.48586 10.2031
72 Ni 5.71464 0.042054 8.79154
73 Al 7.2333 4.34608 1.48439
74 Ni 5.72254 2.84602 -0.0312796
75 Al 7.27503 4.2923 4.40544
76 Ni 5.84518 2.90928 2.89853
77 Al 7.24867 4.29003 7.28622
78 Ni 5.77025 2.72835 5.66586
79 Al 7.26917 4.33343 10.0769
80 Ni 5.89281 2.86396 8.69278
81 Al 7.11012 7.11843 1.41459
82 Ni 5.69432 5.69537 -0.14718
83 Al 7.2559 7.14856 4.36609
84 Ni 5.75268 5.81147 2.89762
85 Al 7.15232 7.26598 7.31646
86 Ni 5.79309 5.69189 5.84359
87 Al 7.23337 7.22395 10.1381
88 Ni 5.86601 5.77648 8.75288
89 Al 7.31051 10.1427 1.43067
90 Ni 5.72764 8.76973 -0.0886001
91 Al 7.28455 10.0895 4.34199
92 Ni 5.84972 8.66492 2.96527
93 Al 7.45115 10.177 7.37995
94 Ni 5.85902 8.7478 5.74873
95 Al 7.30457 10.3001 10.142
96 Ni 5.83168 8.71756 8.70814
97 Al 10.2974 1.4423 1.3862
98 Ni 8.77528 0.104239 -0.0206603
99 Al 10.0976 1.36636 4.35071
100 Ni 8.66439 -0.0037875 2.83681
101 Al 10.1782 1.48068 7.21139
102 Ni 8.66809 0.179639 5.99262
103 Al 10.2718 1.4037 10.1445
104 Ni 8.89133 -0.0115185 8.85471
105 Al 10.161 4.40679 1.34353
106 Ni 8.6597 2.85067 0.0280713
107 Al 10.1811 4.37433 4.36201
108 Ni 8.80999 2.94848 2.90547
109 Al 10.0803 4.27353 7.2027
110 Ni 8.75942 2.96678 5.72636
111 Al 10.0202 4.33265 10.0526
112 Ni 8.74352 2.78357 8.6747
113 Al 10.1027 7.20169 1.46216
114 Ni 8.60948 5.79986 -0.00276766
115 Al 10.0792 7.30345 4.32051
116 Ni 8.65131 5.79507 2.86006
117 Al 10.08 7.38449 7.21141
118 Ni 8.7358 5.84736 5.73084
119 Al 10.1557 7.24753 10.0892
120 Ni 8.61876 5.98348 8.673
121 Al 10.0885 10.1657 1.38355
122 Ni 8.61157 8.57761 -0.0183692
123 Al 9.97213 10.1103 4.41239
124 Ni 8.64199 8.60039 2.79932
125 Al 10.1239 10.1824 7.38227
126 Ni 8.7154 8.69718 5.81755
127 Al 10.1784 10.0693 10.1511
128 Ni 8.72539 8.70116 8.79074
ITEM: TIMESTEP
600
ITEM: NUMBER OF ATOMS
128
ITEM: BOX BOUNDS xy xz yz pp pp pp
-4.0309950436313552e-02 1.1633860847992025e+01 1.2427960951623232e-02
-6.4285360120011958e-02 1.1672135169361690e+01 -6.6138321980632742e-04
-4.6544656025352182e-02 1.1628328975849268e+01 2.6065489417800892e-02
ITEM: ATOMS id element xu yu zu
1 Al 1.45235 1.30632 1.46625
2 Ni 0.0224254 -0.0322684 -0.113779
3 Al 1.39246 1.3621 4.26385
4 Ni -0.135763 -0.146555 2.73082
5 Al 1.31296 1.42471 7.23045
6 Ni 0.00213149 -0.0153185 5.88137
7 Al 1.43868 1.40797 10.28
8 Ni -0.0844784 -0.176459 8.8076
9 Al 1.56297 4.32492 1.44767
10 Ni 0.00243088 3.10138 0.0570715
11 Al 1.47545 4.39076 4.28271
12 Ni 0.0924919 2.94657 2.86016
13 Al 1.38184 4.43441 7.08665
14 Ni -0.0134923 2.91251 5.77688
15 Al 1.49549 4.3098 10.2325
16 Ni 0.0371204 3.10446 8.64962
17 Al 1.30087 7.20153 1.44264
18 Ni 0.0375328 5.83815 -0.0924434
19 Al 1.43475 7.24896 4.40502
20 Ni -0.116243 5.90894 2.98979
21 Al 1.50033 7.28301 7.27876
22 Ni -0.120504 5.7863 5.80428
23 Al 1.48215 7.25731 10.1671
24 Ni 0.108026 5.97286 8.72599
25 Al 1.39444 10.057 1.48163
26 Ni -0.0413634 8.79325 -0.163734
27 Al 1.33362 10.1111 4.30907
28 Ni -0.108783 8.67342 2.857
29 Al 1.46408 10.1378 7.27765
30 Ni -0.0595918 8.64912 5.78482
31 Al 1.47634 10.0756 10.1903
32 Ni -0.0959185 8.69419 8.61158
33 Al 4.3213 1.33437 1.39941
34 Ni 2.79035 -0.058785 0.133733
35 Al 4.3252 1.35094 4.28624
36 Ni 2.87068 -0.106896 2.9426
37 Al 4.34701 1.34262 7.26124
38 Ni 2.84069 -0.109757 5.75972
39 Al 4.23093 1.42783 10.2691
40 Ni 2.92428 -0.0193622 8.72957
41 Al 4.23425 4.35088 1.39502
42 Ni 2.82641 2.90232 -0.0297047
43 Al 4.39714 4.35151 4.38192
44 Ni 2.8689 2.83076 2.77099
45 Al 4.30523 4.32811 7.15979
46 Ni 2.89637 2.82343 5.73129
47 Al 4.28473 4.32753 10.1857
48 Ni 2.74716 2.8813 8.63479
49 Al 4.30441 7.35346 1.47238
50 Ni 2.92347 5.67422 -0.0527339
51 Al 4.5483 7.39845 4.42833
52 Ni 2.89431 5.96523 2.81809
53 Al 4.49789 7.27611 7.22652
54 Ni 2.94109 5.86807 5.78601
55 Al 4.35858 7.12826 10.2058
56 Ni 2.93743 5.74144 8.69373
57 Al 4.37244 10.2151 1.45078
58 Ni 2.86709 8.66288 -0.0231841
59 Al 4.51455 10.2462 4.27051
60 Ni 2.94262 8.66101 2.94421
61 Al 4.39676 10.1869 7.19608
62 Ni 2.93288 8.76952 5.74251
63 Al 4.28604 10.0809 10.2305
64 Ni 2.85021 8.741 8.65039
65 Al 7.21275 1.36246 1.29353
66 Ni 5.64916 -0.172435 -0.198146
67 Al 7.2975 1.38453 4.34426
68 Ni 5.84239 0.0375782 2.7426
69 Al 7.28887 1.40589 7.32207
70 Ni 5.87076 0.0427157 5.82368
71 Al 7.25343 1.46218 10.2272
72 Ni 5.8228 -0.000116851 8.70815
73 Al 7.22232 4.4403 1.49446
74 Ni 5.68869 2.8784 0.033212
75 Al 7.27586 4.27365 4.45532
76 Ni 5.70417 2.82051 2.85106
77 Al 7.13833 4.21585 7.31858
78 Ni 5.83284 2.87987 5.87318
79 Al 7.15597 4.37623 10.1779
80 Ni 5.73634 2.82851 8.68721
81 Al 7.23623 7.22016 1.41345
82 Ni 5.84643 5.75305 -0.000540095
83 Al 7.25737 7.2895 4.35009
84 Ni 5.80961 5.75981 3.00263
85 Al 7.16591 7.13742 7.37411
86 Ni 5.8273 5.78467 5.77022
87 Al 7.22203 7.15669 10.0378
88 Ni 5.76357 5.67712 8.56953
89 Al 7.2605 10.2808 1.39286
90 Ni 5.86231 8.68232 -0.002038
91 Al 7.33081 10.23 4.33504
92 Ni 5.78375 8.73698 2.85705
93 Al 7.41197 10.2221 7.33661
94 Ni 5.86182 8.83284 5.94829
95 Al 7.26367 10.248 10.1378
96 Ni 5.82725 8.87292 8.69776
97 Al 10.2967 1.51977 1.41235
98 Ni 8.76669 -0.068143 0.00131026
99 Al 10.2968 1.37069 4.27301
100 Ni 8.74321 -0.157651 2.80031
101 Al 10.0783 1.45742 7.2498
102 Ni 8.80016 -0.148894 5.65562
103 Al 10.1593 1.3827 10.1568
104 Ni 8.70923 0.0719354 8.71352
105 Al 10.2172 4.41844 1.42606
106 Ni 8.84101 2.97979 -0.0881602
107 Al 10.1061 4.31307 4.28892
108 Ni 8.59015 2.9511 2.81453
109 Al 10.137 4.31188 7.2295
110 Ni 8.73409 2.7214 5.70007
111 Al 10.1799 4.42499 10.0865
112 Ni 8.71288 2.93032 8.83267
113 Al 10.1449 7.19517 1.35294
114 Ni 8.71031 5.78046 -0.070102
115 Al 10.0669 7.29221 4.34899
116 Ni 8.621 5.8468 2.85496
117 Al 10.0196 7.34367 7.21466
118 Ni 8.63082 5.7384 5.86492
119 Al 10.1729 7.39258 10.0201
120 Ni 8.76332 5.54762 8.72996
121 Al 10.126 10.1599 1.33791
122 Ni 8.70874 8.63849 -0.0789563
123 Al 10.1683 10.0656 4.43307
124 Ni 8.65844 8.69785 2.91055
125 Al 10.1613 10.225 7.34647
126 Ni 8.64379 8.85363 5.85356
127 Al 10.0864 10.2186 10.1373
128 Ni 8.58136 8.74262 8.72281
ITEM: TIMESTEP
700
ITEM: NUMBER OF ATOMS
128
ITEM: BOX BOUNDS xy xz yz pp pp pp
-5.4235076073467781e-03 1.1624773637177761e+01 2.2066402106161326e-04
-1.5722133164682184e-02 1.1641712239922322e+01 3.7345145725463567e-02
8.7448570254498037e-03 1.1573039462798473e+01 4.4205786933755396e-02
ITEM: ATOMS id element xu yu zu
1 Al 1.519 1.39991 1.46291
2 Ni -0.064196 0.00645314 0.0191437
3 Al 1.49142 1.49046 4.35146
4 Ni 0.196957 0.129561 2.95196
5 Al 1.32689 1.51335 7.21765
6 Ni -0.0413932 0.0181067 5.74136
7 Al 1.48644 1.44408 10.1952
8 Ni 0.0355605 0.0831514 8.61389
9 Al 1.5124 4.28165 1.4474
10 Ni -0.0447287 2.71419 0.0645797
11 Al 1.40588 4.34326 4.32884
12 Ni -0.0438547 2.87596 2.98452
13 Al 1.39503 4.38789 7.21431
14 Ni -0.00297956 2.89417 5.82101
15 Al 1.50469 4.25309 10.2744
16 Ni -0.00615993 2.80125 8.72641
17 Al 1.48418 7.18696 1.45528
18 Ni -0.131484 5.81494 0.142286
19 Al 1.48191 7.23094 4.34873
20 Ni -0.0234307 5.68281 2.89983
21 Al 1.43571 7.26827 7.33554
22 Ni 0.122676 5.77261 5.74982
23 Al 1.41664 7.20753 10.0977
24 Ni -0.0223941 5.68354 8.73438
25 Al 1.42815 10.2414 1.45552
26 Ni -0.0139371 8.5317 0.0876723
27 Al 1.49917 10.0967 4.26703
28 Ni 0.0909511 8.70945 2.8689
29 Al 1.43946 10.1768 7.18671
30 Ni -0.0237267 8.7825 5.81133
31 Al 1.47397 10.1728 10.1731
32 Ni 0.0261201 8.71855 8.68872
33 Al 4.41506 1.42409 1.44011
34 Ni 2.98118 0.0383477 -0.125364
35 Al 4.3395 1.45586 4.30281
36 Ni 2.87122 0.119125 2.86409
37 Al 4.4208 1.3669 7.22806
38 Ni 2.92379 0.0943129 5.85242
39 Al 4.38592 1.45231 10.1114
40 Ni 2.80749 -0.00684562 8.57137
41 Al 4.3062 4.31103 1.41263
42 Ni 2.90954 2.87801 0.111527
43 Al 4.40975 4.43054 4.42666
44 Ni 2.92133 2.98001 3.08148
45 Al 4.38975 4.47103 7.26557
46 Ni 2.82906 2.95643 5.867
47 Al 4.38228 4.3566 10.1981
48 Ni 2.97272 2.86778 8.72253
49 Al 4.30238 7.3067 1.49003
50 Ni 2.97584 5.85712 0.0360062
51 Al 4.42278 7.34314 4.29813
52 Ni 2.93116 5.66969 2.9482
53 Al 4.34792 7.1618 7.21577
54 Ni 2.87496 5.84558 5.80317
55 Al 4.31067 7.25705 10.1218
56 Ni 2.89169 5.85582 8.78604
57 Al 4.32104 10.1411 1.45465
58 Ni 2.85861 8.80428 -0.0723605
59 Al 4.37444 10.1729 4.25145
60 Ni 2.82714 8.78103 2.77823
61 Al 4.28016 10.0497 7.22012
62 Ni 2.85667 8.6473 5.81325
63 Al 4.4183 10.1938 10.2081
64 Ni 2.86808 8.83456 8.76794
65 Al 7.18387 1.33431 1.39686
66 Ni 5.85477 0.0914689 0.0515037
67 Al 7.25491 1.52844 4.37746
68 Ni 5.76249 -0.0274512 2.9602
69 Al 7.27772 1.38429 7.20269
70 Ni 5.73698 -0.0111103 5.69097
71 Al 7.29431 1.4513 10.0149
72 Ni 5.82262 0.0655486 8.66625
73 Al 7.22122 4.43877 1.46626
74 Ni 5.81783 2.83725 -0.0750455
75 Al 7.25653 4.40607 4.37351
76 Ni 5.90423 2.91236 2.87872
77 Al 7.10074 4.36448 7.27266
78 Ni 5.81351 2.94593 5.75367
79 Al 7.2798 4.37541 9.9763
80 Ni 5.7862 2.95076 8.66695
81 Al 7.39543 7.28107 1.43041
82 Ni 5.83102 5.83658 0.0426996
83 Al 7.24009 7.35536 4.26076
84 Ni 5.86776 5.89193 2.8467
85 Al 7.20422 7.27304 7.15472
86 Ni 5.77339 5.79567 5.84078
87 Al 7.29846 7.28097 10.0706
88 Ni 5.73027 5.86002 8.73985
89 Al 7.27806 10.2902 1.46776
90 Ni 5.84116 8.69261 -0.0329429
91 Al 7.37566 10.241 4.36447
92 Ni 5.82747 8.70502 2.79445
93 Al 7.2584 10.096 7.21604
94 Ni 5.69372 8.70011 5.67428
95 Al 7.25639 10.1126 9.99355
96 Ni 5.81079 8.61232 8.62138
97 Al 10.1213 1.31378 1.39937
98 Ni 8.62252 -0.0735015 -0.172879
99 Al 10.2527 1.51966 4.40607
100 Ni 8.65818 0.0353623 2.91467
101 Al 10.0374 1.42028 7.19571
102 Ni 8.69069 0.0975184 5.79076
103 Al 10.0315 1.37252 10.178
104 Ni 8.71655 -0.0287805 8.69807
105 Al 10.1018 4.27621 1.40889
106 Ni 8.62186 2.85981 0.0721792
107 Al 10.1361 4.32954 4.34671
108 Ni 8.77265 2.74375 2.89484
109 Al 10.1569 4.37271 7.25391
110 Ni 8.69297 2.98544 5.8582
111 Al 10.0916 4.33144 10.0867
112 Ni 8.87483 2.87239 8.6506
113 Al 10.1203 7.12481 1.52187
114 Ni 8.62532 5.70468 -0.00440225
115 Al 10.2219 7.29831 4.39683
116 Ni 8.77844 5.79896 3.09067
117 Al 10.1696 7.23316 7.24976
118 Ni 8.72082 5.75011 5.77651
119 Al 10.1904 7.36378 10.0828
120 Ni 8.64 5.93765 8.69466
121 Al 10.1483 10.1385 1.4773
122 Ni 8.73567 8.77242 -0.0676851
123 Al 10.1675 10.2325 4.37392
124 Ni 8.80375 8.75051 2.92121
125 Al 10.1319 10.2109 7.23651
126 Ni 8.8093 8.68086 5.71357
127 Al 10.2145 10.1924 10.0503
128 Ni 8.81987 8.746 8.58268
ITEM: TIMESTEP
800
ITEM: NUMBER OF ATOMS
128
ITEM: BOX BOUNDS xy xz yz pp pp pp
-6.8759138672420228e-02 1.1689956395920269e+01 2.6463613857891394e-02
-5.6859026179731487e-02 1.1652790163537880e+01 1.2949323566071314e-02
-2.6281048957091713e-02 1.1608065368781016e+01 1.4146817534267886e-02
ITEM: ATOMS id element xu yu zu
1 Al 1.38078 1.38597 1.37427
2 Ni -0.0603769 0.0107256 0.0188176
3 Al 1.42624 1.3827 4.23933
4 Ni -0.209901 -0.0606625 2.88851
5 Al 1.39811 1.43745 7.28586
6 Ni 0.039248 0.0197346 5.84686
7 Al 1.42362 1.46646 10.1526
8 Ni -0.0424596 -0.0603034 8.66758
9 Al 1.43452 4.22174 1.38209
10 Ni -0.101147 2.88789 -0.136299
11 Al 1.38758 4.31471 4.23575
12 Ni -0.113214 2.8484 2.81486
13 Al 1.39511 4.36033 7.16813
14 Ni -0.013962 2.87802 5.85022
15 Al 1.49876 4.35689 10.2293
16 Ni -0.0119135 2.97369 8.67078
17 Al 1.36028 7.4207 1.33883
18 Ni -0.0304429 5.63856 -0.0813235
19 Al 1.35969 7.24135 4.29934
20 Ni -0.0496079 5.67385 2.80313
21 Al 1.36232 7.25561 7.26631
22 Ni -0.0759718 5.78964 5.84387
23 Al 1.43924 7.36687 10.1703
24 Ni -0.0966883 5.88233 8.69789
25 Al 1.44503 10.3178 1.5004
26 Ni -0.068074 8.96423 -0.0225155
27 Al 1.45677 10.191 4.21155
28 Ni -0.0612201 8.87042 2.86069
29 Al 1.45746 10.2137 7.27551
30 Ni 0.114529 8.67985 5.67471
31 Al 1.47204 10.2425 10.151
32 Ni -0.0364011 8.71683 8.80481
33 Al 4.42404 1.35237 1.39468
34 Ni 2.85105 -0.0670392 -0.015642
35 Al 4.34242 1.32215 4.34142
36 Ni 2.98124 -0.124419 2.94332
37 Al 4.39127 1.50645 7.32034
38 Ni 2.92244 -0.128665 5.74726
39 Al 4.46993 1.40328 10.1544
40 Ni 3.01457 -0.0383786 8.78059
41 Al 4.29962 4.34708 1.30207
42 Ni 2.99568 2.83549 -0.152626
43 Al 4.27462 4.36118 4.30725
44 Ni 2.98784 2.80594 2.68002
45 Al 4.51141 4.50538 7.20298
46 Ni 2.99721 2.92433 5.69024
47 Al 4.37177 4.46521 10.1695
48 Ni 2.89876 3.00389 8.82688
49 Al 4.33291 7.2003 1.34958
50 Ni 2.70728 5.72952 0.0449824
51 Al 4.28572 7.26336 4.32047
52 Ni 2.75973 5.76161 2.71761
53 Al 4.30275 7.13671 7.24639
54 Ni 2.84813 5.69356 5.79462
55 Al 4.33453 7.23046 10.0911
56 Ni 2.82463 5.79834 8.73206
57 Al 4.34904 10.1257 1.50062
58 Ni 2.90625 8.67565 0.0495728
59 Al 4.41251 10.0882 4.36491
60 Ni 2.85389 8.73399 2.87581
61 Al 4.23922 10.0587 7.27418
62 Ni 2.8398 8.73779 5.78461
63 Al 4.3252 10.1478 10.296
64 Ni 2.83706 8.55343 8.66821
65 Al 7.15116 1.26157 1.45514
66 Ni 5.84581 -0.119825 -0.0398152
67 Al 7.20923 1.41726 4.376
68 Ni 5.77327 -0.15426 2.89985
69 Al 7.29637 1.36218 7.18179
70 Ni 5.82196 -0.101815 5.85738
71 Al 7.31509 1.21317 10.0654
72 Ni 5.81749 -0.125787 8.61549
73 Al 7.25152 4.30142 1.31659
74 Ni 5.82563 2.86691 0.109258
75 Al 7.2893 4.48219 4.40426
76 Ni 5.77846 2.97117 3.03888
77 Al 7.24814 4.56145 7.18868
78 Ni 5.81653 2.95445 5.87168
79 Al 7.32594 4.41501 10.0716
80 Ni 5.83747 2.94389 8.67437
81 Al 7.24607 7.26689 1.46677
82 Ni 5.88478 5.76963 -0.0740028
83 Al 7.21483 7.25953 4.28315
84 Ni 5.76005 5.78287 2.91305
85 Al 7.27142 7.36721 7.28075
86 Ni 5.69259 5.86563 5.70983
87 Al 7.28041 7.35432 10.1411
88 Ni 6.00082 5.93269 8.72127
89 Al 7.24407 10.2042 1.51738
90 Ni 5.77459 8.79615 -0.0139224
91 Al 7.21529 10.1136 4.36081
92 Ni 5.63871 8.63284 2.97968
93 Al 7.25142 10.1427 7.24874
94 Ni 5.79825 8.58505 5.83308
95 Al 7.36165 10.1495 10.1183
96 Ni 5.80749 8.78234 8.68524
97 Al 10.0971 1.41718 1.42806
98 Ni 8.71745 -0.0454105 0.171495
99 Al 10.2157 1.51581 4.40619
100 Ni 8.67255 -0.184053 3.01026
101 Al 10.1318 1.3669 7.25865
102 Ni 8.65919 -0.175996 5.84445
103 Al 10.0936 1.28856 10.1301
104 Ni 8.76057 -0.153105 8.55975
105 Al 10.1435 4.35168 1.40343
106 Ni 8.71888 2.70425 -0.143099
107 Al 10.1978 4.41067 4.32072
108 Ni 8.64022 3.01453 3.03729
109 Al 10.2452 4.27248 7.27144
110 Ni 8.71593 2.84113 5.81232
111 Al 10.141 4.31254 10.1094
112 Ni 8.46975 2.88979 8.66818
113 Al 10.3522 7.27752 1.40386
114 Ni 8.78556 5.95524 0.0636569
115 Al 10.225 7.30493 4.24202
116 Ni 8.68903 5.82217 2.67369
117 Al 10.2755 7.34562 7.31388
118 Ni 8.87139 5.94665 5.71945
119 Al 10.2806 7.27602 10.1922
120 Ni 8.89213 5.86857 8.64592
121 Al 10.1713 10.1884 1.49741
122 Ni 8.69321 8.67219 0.126058
123 Al 10.167 10.2177 4.45298
124 Ni 8.70913 8.65682 2.90627
125 Al 10.2184 10.1155 7.14511
126 Ni 8.75562 8.6671 5.73497
127 Al 10.1464 10.1814 10.1129
128 Ni 8.81808 8.70047 8.73907
ITEM: TIMESTEP
900
ITEM: NUMBER OF ATOMS
128
ITEM: BOX BOUNDS xy xz yz pp pp pp
-4.0338511584323181e-02 1.1644551124205694e+01 3.9102424144768090e-02
-2.7938736913649391e-02 1.1593933143007899e+01 -1.6674131347297186e-02
2.8196520055248975e-02 1.1553587799768673e+01 -1.5789913729616627e-02
ITEM: ATOMS id element xu yu zu
1 Al 1.36158 1.45918 1.44109
2 Ni -0.0822642 0.0245478 -0.0486863
3 Al 1.38886 1.39845 4.36485
4 Ni 0.00451308 0.0261431 2.87224
5 Al 1.27282 1.35339 7.27368
6 Ni -0.0362136 -0.0234225 5.84381
7 Al 1.39594 1.52446 10.1212
8 Ni -0.0142399 -0.0426567 8.68953
9 Al 1.4571 4.40307 1.45372
10 Ni -0.0620206 2.80675 0.0665907
11 Al 1.4621 4.40858 4.34035
12 Ni 0.0555783 2.8554 2.99004
13 Al 1.42587 4.35901 7.19238
14 Ni -0.0154549 2.89628 5.72783
15 Al 1.49665 4.32796 10.1939
16 Ni -0.0450212 2.8328 8.56426
17 Al 1.44783 7.28688 1.39113
18 Ni -0.123914 5.83298 0.0529206
19 Al 1.40603 7.33551 4.41132
20 Ni -0.0420166 5.742 2.88174
21 Al 1.39839 7.23467 7.27837
22 Ni 0.0119265 5.72471 5.66343
23 Al 1.45768 7.31146 10.0128
24 Ni 0.0192879 5.7482 8.66874
25 Al 1.54515 10.1729 1.52411
26 Ni 0.0546221 8.67017 0.0434424
27 Al 1.4896 10.1808 4.26504
28 Ni 0.082711 8.60501 2.90074
29 Al 1.51648 10.1774 7.2456
30 Ni -0.0982412 8.67594 5.82274
31 Al 1.38941 10.2458 10.1538
32 Ni 0.0311254 8.7427 8.63786
33 Al 4.38098 1.49045 1.40586
34 Ni 2.92063 0.0212572 0.00764376
35 Al 4.31747 1.37507 4.34135
36 Ni 2.88404 0.0239907 2.8723
37 Al 4.49113 1.50434 7.27166
38 Ni 2.83375 0.0601084 5.84904
39 Al 4.33165 1.42996 10.1233
40 Ni 2.82849 0.00247259 8.62596
41 Al 4.30755 4.33754 1.41373
42 Ni 2.83515 2.85455 0.161077
43 Al 4.30527 4.28157 4.35206
44 Ni 2.82433 2.81712 3.04259
45 Al 4.38374 4.42903 7.06116
46 Ni 2.80652 2.83162 5.86625
47 Al 4.24033 4.25342 10.0714
48 Ni 2.91007 2.72444 8.60757
49 Al 4.29977 7.30402 1.42827
50 Ni 2.99747 5.78962 -0.046241
51 Al 4.43281 7.21321 4.35354
52 Ni 2.91174 5.74153 2.95031
53 Al 4.35739 7.18195 7.21857
54 Ni 2.88963 5.83384 5.79562
55 Al 4.35889 7.21366 10.0398
56 Ni 2.92654 5.78475 8.66238
57 Al 4.33693 10.1074 1.39043
58 Ni 2.83024 8.65082 -0.0297683
59 Al 4.28213 10.0675 4.24905
60 Ni 2.89898 8.68758 2.94476
61 Al 4.33261 10.1693 7.17343
62 Ni 2.90268 8.62911 5.83261
63 Al 4.35523 10.1432 10.0857
64 Ni 2.89779 8.75231 8.71586
65 Al 7.17244 1.36603 1.4215
66 Ni 5.70099 -0.0649913 0.0393056
67 Al 7.22582 1.39537 4.43953
68 Ni 5.85277 0.0993351 2.9706
69 Al 7.33147 1.42378 7.22766
70 Ni 5.80856 -0.0689826 5.78129
71 Al 7.26391 1.40258 10.0949
72 Ni 5.80133 -0.0378507 8.77116
73 Al 7.26096 4.38029 1.42009
74 Ni 5.8204 2.95774 -0.0712984
75 Al 7.22442 4.26743 4.34649
76 Ni 5.84265 2.87031 2.75651
77 Al 7.24002 4.32558 7.33846
78 Ni 5.7882 2.89555 5.75475
79 Al 7.16858 4.41785 10.056
80 Ni 5.79914 2.87617 8.68057
81 Al 7.39058 7.15905 1.54178
82 Ni 5.76078 5.81166 0.12693
83 Al 7.23941 7.18943 4.44163
84 Ni 5.75115 5.80224 2.9196
85 Al 7.18721 7.29357 7.29776
86 Ni 5.90015 5.69623 5.88576
87 Al 7.25271 7.22273 10.139
88 Ni 5.65387 5.61255 8.60599
89 Al 7.2273 10.1921 1.48088
90 Ni 5.82892 8.5648 0.043637
91 Al 7.19384 10.0908 4.3345
92 Ni 5.87754 8.61226 2.87576
93 Al 7.27385 10.2211 7.22263
94 Ni 5.8167 8.74923 5.8287
95 Al 7.2281 10.1484 10.1073
96 Ni 5.84607 8.56335 8.76079
97 Al 10.1072 1.40421 1.38095
98 Ni 8.55779 0.0479619 -0.00189059
99 Al 10.1344 1.44697 4.29129
100 Ni 8.66011 0.0556108 2.84118
101 Al 10.193 1.44159 7.22597
102 Ni 8.76661 0.0218081 5.78855
103 Al 10.1004 1.39543 10.1133
104 Ni 8.60185 0.0753833 8.72803
105 Al 10.1578 4.39568 1.52973
106 Ni 8.74295 3.00266 0.0699874
107 Al 10.2402 4.21024 4.3152
108 Ni 8.74208 2.88986 2.88983
109 Al 10.2719 4.34815 7.2105
110 Ni 8.66133 2.87992 5.74256
111 Al 10.2345 4.35709 10.1053
112 Ni 8.94536 2.87808 8.6456
113 Al 10.1181 7.34757 1.39277
114 Ni 8.75035 5.69422 -0.038348
115 Al 10.1218 7.22445 4.39909
116 Ni 8.8264 5.77624 3.0504
117 Al 10.1911 7.19896 7.3427
118 Ni 8.64835 5.67662 5.88254
119 Al 10.1795 7.21383 9.99389
120 Ni 8.63429 5.75001 8.71832
121 Al 10.2271 10.166 1.45907
122 Ni 8.76797 8.81733 -0.0481101
123 Al 10.1043 10.1443 4.36638
124 Ni 8.72952 8.68704 2.91655
125 Al 10.1249 10.2114 7.16906
126 Ni 8.80918 8.68681 5.83728
127 Al 10.1242 10.1462 10.0704
128 Ni 8.70626 8.79062 8.6806
ITEM: TIMESTEP
1000
ITEM: NUMBER OF ATOMS
128
ITEM: BOX BOUNDS xy xz yz pp pp pp
-5.7009281940922661e-02 1.1652968794815743e+01 -5.3723512772331982e-03
-4.4793837887918464e-02 1.1640386808488916e+01 1.9547544328163875e-02
-2.2245344224414154e-02 1.1604029664048340e+01 1.3808650777129968e-02
ITEM: ATOMS id element xu yu zu
1 Al 1.42343 1.40985 1.41626
2 Ni 0.0171587 -0.147189 0.0597666
3 Al 1.40783 1.36229 4.28024
4 Ni 0.0385886 -0.180178 2.86759
5 Al 1.3296 1.27297 7.24931
6 Ni -0.145533 -0.103131 5.69883
7 Al 1.39441 1.34704 10.2137
8 Ni -0.104827 0.0205179 8.72152
9 Al 1.44788 4.41707 1.5386
10 Ni 0.103893 2.98564 0.0545452
11 Al 1.41236 4.3904 4.39194
12 Ni -0.058144 2.95013 2.86775
13 Al 1.34797 4.3054 7.22949
14 Ni -0.0708499 2.87536 5.83767
15 Al 1.42751 4.39753 10.1498
16 Ni -0.00137335 2.85752 8.80193
17 Al 1.33208 7.3115 1.47758
18 Ni 0.0893273 5.76433 -0.00296346
19 Al 1.483 7.32828 4.43695
20 Ni -0.0399286 5.89951 3.06751
21 Al 1.48219 7.3186 7.28573
22 Ni -0.00576368 5.90775 5.96258
23 Al 1.52235 7.29764 10.1407
24 Ni -0.0548516 5.79729 8.67052
25 Al 1.43084 10.0518 1.39416
26 Ni -0.127361 8.54171 -0.0704532
27 Al 1.44713 10.1049 4.29722
28 Ni -0.104931 8.71296 2.81783
29 Al 1.41106 10.2018 7.29818
30 Ni -0.126818 8.72223 5.86183
31 Al 1.31069 10.1077 10.1417
32 Ni -0.0753924 8.60425 8.71751
33 Al 4.33796 1.51952 1.41503
34 Ni 2.83845 -0.144664 -0.0176143
35 Al 4.36564 1.45372 4.23532
36 Ni 2.82692 -0.24304 2.91007
37 Al 4.24477 1.48289 7.27616
38 Ni 2.90786 -0.246968 5.71686
39 Al 4.23828 1.48566 10.1837
40 Ni 2.82035 -0.0758094 8.72492
41 Al 4.37938 4.41198 1.5029
42 Ni 2.8076 2.97626 -0.12068
43 Al 4.316 4.37196 4.44309
44 Ni 2.91514 3.02228 2.91566
45 Al 4.36259 4.37659 7.27743
46 Ni 2.91508 2.86221 5.66747
47 Al 4.24573 4.44178 10.2053
48 Ni 2.67664 2.85205 8.77168
49 Al 4.37777 7.28979 1.43184
50 Ni 2.81168 5.77924 0.121856
51 Al 4.4456 7.32954 4.37877
52 Ni 3.03671 5.80151 3.00556
53 Al 4.28237 7.20295 7.27337
54 Ni 2.97909 5.77421 5.82461
55 Al 4.31919 7.30924 10.176
56 Ni 2.85755 5.78373 8.63544
57 Al 4.29152 10.1825 1.28893
58 Ni 2.98805 8.71855 0.0215738
59 Al 4.30803 10.1372 4.2298
60 Ni 2.83427 8.76975 2.82139
61 Al 4.40844 10.2847 7.15974
62 Ni 3.00635 8.8097 5.79364
63 Al 4.40229 10.2782 10.0574
64 Ni 2.90707 8.68036 8.63053
65 Al 7.30429 1.38597 1.46482
66 Ni 5.81733 0.0793468 -0.0584603
67 Al 7.29169 1.37295 4.33696
68 Ni 5.74442 -0.0682916 2.73781
69 Al 7.27382 1.36767 7.26991
70 Ni 5.85218 0.104236 5.69715
71 Al 7.30853 1.33044 10.2185
72 Ni 5.8112 0.113712 8.72698
73 Al 7.27148 4.30659 1.40667
74 Ni 5.64041 2.89377 0.0932481
75 Al 7.34443 4.23324 4.45149
76 Ni 5.77147 2.88472 2.96698
77 Al 7.13358 4.36729 7.31177
78 Ni 5.80993 2.75545 5.79846
79 Al 7.24089 4.33523 10.2027
80 Ni 5.69681 2.81351 8.70798
81 Al 7.21922 7.2623 1.36898
82 Ni 5.77739 5.70421 -0.134017
83 Al 7.24476 7.29162 4.3506
84 Ni 5.94219 5.81554 2.89944
85 Al 7.17987 7.20128 7.17986
86 Ni 5.78723 5.81212 5.72847
87 Al 7.15367 7.34407 10.0257
88 Ni 5.81107 5.88195 8.75064
89 Al 7.18758 10.2614 1.38899
90 Ni 5.81143 8.75175 -0.014509
91 Al 7.12799 10.2217 4.20696
92 Ni 5.89816 8.78953 2.87394
93 Al 7.29899 10.259 7.20776
94 Ni 5.89862 8.79894 5.70072
95 Al 7.28646 10.238 10.1132
96 Ni 5.7758 8.77273 8.58873
97 Al 10.2628 1.3434 1.37404
98 Ni 8.79686 -0.124241 -0.0662942
99 Al 10.1363 1.42284 4.31565
100 Ni 8.76763 -0.0703716 2.78292
101 Al 10.2359 1.45863 7.27886
102 Ni 8.61512 0.0672764 5.81373
103 Al 10.2308 1.49187 10.2035
104 Ni 8.75582 -0.0740872 8.74051
105 Al 10.15 4.44547 1.50684
106 Ni 8.8133 2.7872 -0.0100824
107 Al 10.2514 4.28432 4.30394
108 Ni 8.80687 2.84491 2.82796
109 Al 10.2013 4.30749 7.31077
110 Ni 8.83792 2.83398 5.84257
111 Al 10.2318 4.426 10.1965
112 Ni 8.54099 2.85174 8.71855
113 Al 10.0594 7.30541 1.36695
114 Ni 8.73343 5.77588 0.0132576
115 Al 10.0718 7.27677 4.43795
116 Ni 8.6427 5.85809 2.80139
117 Al 10.2464 7.27105 7.34028
118 Ni 8.65934 5.84738 5.70925
119 Al 10.1744 7.15398 10.0928
120 Ni 8.76638 5.76042 8.64312
121 Al 10.1567 10.1221 1.37368
122 Ni 8.6615 8.53954 -0.077116
123 Al 10.0853 10.0984 4.29452
124 Ni 8.73208 8.76653 2.87468
125 Al 10.0959 10.2266 7.16836
126 Ni 8.56719 8.79494 5.79344
127 Al 10.1445 10.1381 10.165
128 Ni 8.64918 8.50887 8.66797
ITEM: TIMESTEP
1100
ITEM: NUMBER OF ATOMS
128
ITEM: BOX BOUNDS xy xz yz pp pp pp
-2.7135553519152231e-02 1.1612335990395843e+01 -1.2143848705080038e-02
-2.9039113437979935e-02 1.1634930549308930e+01 1.5559965757875091e-02
-2.0171526974047005e-02 1.1601955846797976e+01 2.4107116047072046e-02
ITEM: ATOMS id element xu yu zu
1 Al 1.26871 1.39741 1.37643
2 Ni -0.0802184 0.00970554 -0.0931899
3 Al 1.40958 1.39964 4.2793
4 Ni -0.117782 0.00713113 2.78169
5 Al 1.43442 1.47673 7.3965
6 Ni 0.131521 0.0457307 5.99108
7 Al 1.45202 1.42125 10.113
8 Ni 0.0928511 -0.189578 8.70841
9 Al 1.42321 4.32407 1.33746
10 Ni -0.112283 2.90217 -0.113079
11 Al 1.41801 4.28698 4.32274
12 Ni 0.00377815 2.94851 2.96564
13 Al 1.38839 4.45611 7.21648
14 Ni 0.000227109 2.86798 5.7634
15 Al 1.52242 4.26087 10.1652
16 Ni 0.0724136 3.01017 8.60321
17 Al 1.30381 7.2937 1.36048
18 Ni -0.121167 5.81333 -0.069257
19 Al 1.4553 7.17319 4.32327
20 Ni -0.0123298 5.69182 2.818
21 Al 1.45644 7.27986 7.2087
22 Ni -0.116928 5.77124 5.63856
23 Al 1.42613 7.22162 10.0947
24 Ni -0.00488421 5.82074 8.6446
25 Al 1.44725 10.0434 1.44444
26 Ni 0.0500277 8.80023 -0.0508974
27 Al 1.63386 10.2335 4.27509
28 Ni 0.0554714 8.68137 2.97263
29 Al 1.48844 10.1842 7.26917
30 Ni -0.0326946 8.62915 5.73555
31 Al 1.44803 10.0779 10.1022
32 Ni 0.0106455 8.7039 8.67604
33 Al 4.46912 1.39276 1.40089
34 Ni 2.7776 -0.000716946 0.013133
35 Al 4.45441 1.60591 4.32881
36 Ni 2.80802 0.00250232 2.82396
37 Al 4.35843 1.39906 7.2673
38 Ni 2.77151 0.114586 5.84899
39 Al 4.33136 1.44587 10.1934
40 Ni 2.87403 0.0624174 8.73405
41 Al 4.3399 4.27009 1.51126
42 Ni 2.94366 2.84449 0.140335
43 Al 4.16271 4.37558 4.39204
44 Ni 2.84003 2.76817 2.83927
45 Al 4.31191 4.32958 7.2342
46 Ni 2.87469 2.90313 5.79586
47 Al 4.36995 4.38007 10.2988
48 Ni 3.10522 2.93541 8.67149
49 Al 4.34493 7.2477 1.41363
50 Ni 2.98226 5.84949 -0.138003
51 Al 4.39754 7.22926 4.42869
52 Ni 2.78414 5.81239 2.76999
53 Al 4.31699 7.15219 7.31908
54 Ni 2.86833 5.84091 5.76938
55 Al 4.40101 7.21827 10.1237
56 Ni 2.96694 5.86673 8.62745
57 Al 4.21655 10.0801 1.45308
58 Ni 2.86276 8.621 -0.0767611
59 Al 4.23979 10.2558 4.43604
60 Ni 2.96935 8.69587 2.92723
61 Al 4.25064 10.1473 7.30646
62 Ni 2.81994 8.68466 5.76498
63 Al 4.3491 10.1921 10.1946
64 Ni 2.91323 8.68295 8.67731
65 Al 7.331 1.46655 1.45425
66 Ni 5.7221 -0.151717 -0.0105348
67 Al 7.27321 1.36928 4.38459
68 Ni 5.89096 0.044796 2.97558
69 Al 7.23908 1.36603 7.23101
70 Ni 5.76291 -0.0649886 5.89897
71 Al 7.28522 1.36373 10.1207
72 Ni 5.73571 -0.128732 8.7185
73 Al 7.23496 4.41402 1.48093
74 Ni 5.833 2.80766 -0.115039
75 Al 7.25215 4.33054 4.37587
76 Ni 5.75124 2.80669 2.7404
77 Al 7.24058 4.23881 7.23341
78 Ni 5.77639 2.99266 5.72051
79 Al 7.23747 4.39124 10.2191
80 Ni 5.89187 2.94193 8.64104
81 Al 7.28065 7.28625 1.39042
82 Ni 5.80034 5.79083 0.0791682
83 Al 7.18505 7.31025 4.42974
84 Ni 5.68462 5.72317 2.85092
85 Al 7.27541 7.23234 7.26883
86 Ni 5.87903 5.78914 5.79451
87 Al 7.22622 7.35901 10.0782
88 Ni 5.84266 5.68217 8.57871
89 Al 7.11059 10.2682 1.53331
90 Ni 5.74091 8.68492 -0.0604628
91 Al 7.16566 10.124 4.3546
92 Ni 5.76217 8.71135 2.84715
93 Al 7.30111 10.1234 7.20435
94 Ni 5.7649 8.7523 5.83091
95 Al 7.25528 10.2997 10.2496
96 Ni 5.80111 8.71209 8.8352
97 Al 10.1103 1.48341 1.49424
98 Ni 8.7394 0.0963034 0.0826262
99 Al 10.0885 1.43155 4.44129
100 Ni 8.72943 -0.00955396 2.90505
101 Al 10.2461 1.46479 7.30981
102 Ni 8.81179 -0.0757743 5.81784
103 Al 10.2059 1.55185 10.1004
104 Ni 8.67271 0.0116643 8.63281
105 Al 10.0658 4.32697 1.44643
106 Ni 8.66972 2.92322 -0.0290397
107 Al 10.1342 4.26067 4.26577
108 Ni 8.69806 2.97209 2.95444
109 Al 10.2013 4.33434 7.21823
110 Ni 8.63408 2.84263 5.69353
111 Al 10.2197 4.50439 10.1187
112 Ni 8.85869 2.94528 8.67845
113 Al 10.0783 7.33875 1.3192
114 Ni 8.61843 5.73078 0.0625324
115 Al 10.023 7.22837 4.36681
116 Ni 8.72326 5.72316 2.91614
117 Al 10.2733 7.25662 7.33277
118 Ni 8.65735 5.77836 5.86879
119 Al 10.134 7.33585 10.1059
120 Ni 8.64163 5.75387 8.71579
121 Al 10.1474 10.0876 1.47844
122 Ni 8.70301 8.81343 -0.00308655
123 Al 10.2342 10.095 4.34826
124 Ni 8.6282 8.63196 2.82986
125 Al 10.1522 10.162 7.20259
126 Ni 8.72812 8.68596 5.81329
127 Al 10.1124 10.3525 10.3063
128 Ni 8.6567 8.88402 8.76368
ITEM: TIMESTEP
1200
ITEM: NUMBER OF ATOMS
128
ITEM: BOX BOUNDS xy xz yz pp pp pp
-3.1683009032331247e-02 1.1623749143649313e+01 3.3141188672242659e-02
-3.7711668514723184e-02 1.1608696694439267e+01 -2.2859373879155390e-02
-2.3197936398627661e-02 1.1604982256222549e+01 -1.0799293899338867e-02
ITEM: ATOMS id element xu yu zu
1 Al 1.43844 1.43452 1.3665
2 Ni 0.00626988 0.078514 -0.0196672
3 Al 1.49442 1.46354 4.40326
4 Ni 0.0792015 0.0832271 2.9413
5 Al 1.46218 1.37516 7.25469
6 Ni -0.129928 -0.0431168 5.6929
7 Al 1.41668 1.39641 10.0492
8 Ni 0.0284911 0.166448 8.60745
9 Al 1.44425 4.26332 1.36453
10 Ni -0.00538066 2.83973 -0.0845739
11 Al 1.45298 4.27085 4.3289
12 Ni -0.0796636 2.81143 2.74162
13 Al 1.43344 4.34638 7.392
14 Ni 0.0554076 3.01562 5.84702
15 Al 1.31235 4.2667 10.2026
16 Ni -0.146528 2.84028 8.75378
17 Al 1.49991 7.27587 1.43304
18 Ni -0.0472394 5.77834 -0.0127696
19 Al 1.50744 7.16981 4.23667
20 Ni 0.0241254 5.71691 2.80122
21 Al 1.48017 7.14939 7.34239
22 Ni 0.14109 5.77725 5.89936
23 Al 1.38397 7.23763 10.2432
24 Ni -0.104819 5.7278 8.81321
25 Al 1.48706 10.2128 1.32996
26 Ni -0.0652467 8.64917 0.0801481
27 Al 1.64678 10.1874 4.3856
28 Ni -0.0494055 8.85899 2.70379
29 Al 1.43208 10.1769 7.28098
30 Ni 0.0110544 8.64379 5.84478
31 Al 1.44345 10.2189 10.1128
32 Ni 0.0913353 8.75138 8.71094
33 Al 4.43908 1.51353 1.4885
34 Ni 3.11048 0.0651481 -0.101947
35 Al 4.39508 1.46338 4.35355
36 Ni 2.87872 0.050191 2.85942
37 Al 4.32547 1.34632 7.26894
38 Ni 2.97828 -0.0776808 5.90283
39 Al 4.34011 1.36059 10.0952
40 Ni 2.91996 -0.030916 8.62465
41 Al 4.44002 4.21539 1.35248
42 Ni 2.89579 2.88702 -0.316163
43 Al 4.34885 4.28824 4.36683
44 Ni 2.88818 2.93074 2.8857
45 Al 4.36577 4.29388 7.31958
46 Ni 2.97397 2.87284 5.80462
47 Al 4.34297 4.31875 10.1974
48 Ni 2.83042 2.88559 8.72678
49 Al 4.36951 7.2877 1.40427
50 Ni 2.86841 5.70574 0.0218042
51 Al 4.22544 7.09976 4.28479
52 Ni 2.94844 5.54512 2.8613
53 Al 4.23455 7.09765 7.32979
54 Ni 2.85497 5.75501 5.73601
55 Al 4.29865 7.23122 10.1817
56 Ni 2.8834 5.7227 8.82758
57 Al 4.37411 10.1205 1.54336
58 Ni 2.79977 8.78901 0.0126639
59 Al 4.23175 9.99158 4.49107
60 Ni 2.64002 8.92586 2.846
61 Al 4.31985 10.034 7.31505
62 Ni 2.87443 8.53072 5.75167
63 Al 4.47061 10.0509 10.2315
64 Ni 2.82137 8.65535 8.79213
65 Al 7.22649 1.34003 1.4757
66 Ni 5.84097 0.0407458 -0.0508482
67 Al 7.22721 1.43282 4.31054
68 Ni 5.70698 -0.130524 2.95742
69 Al 7.15384 1.38017 7.19176
70 Ni 5.76057 -0.112127 5.7004
71 Al 7.21607 1.35601 10.1274
72 Ni 5.84989 0.0581944 8.63628
73 Al 7.28646 4.4147 1.45017
74 Ni 5.87229 2.88621 0.0529971
75 Al 7.33777 4.38834 4.3467
76 Ni 5.82785 2.84615 3.01071
77 Al 7.21221 4.40075 7.18822
78 Ni 5.80875 2.84307 5.8037
79 Al 7.22543 4.27237 10.0778
80 Ni 5.75145 2.85279 8.7389
81 Al 7.34382 7.24445 1.45162
82 Ni 5.77218 5.86365 -0.0565219
83 Al 7.21729 7.31528 4.44187
84 Ni 5.70559 5.85797 2.83372
85 Al 7.25464 7.27 7.21909
86 Ni 5.76635 5.79069 5.81549
87 Al 7.20339 7.24937 10.1255
88 Ni 5.81066 5.92842 8.75491
89 Al 7.2759 10.1241 1.56928
90 Ni 5.8129 8.72261 0.128958
91 Al 7.26998 10.1531 4.40181
92 Ni 5.772 8.65406 2.9684
93 Al 7.34461 10.1826 7.19413
94 Ni 5.80025 8.62549 5.67626
95 Al 7.18391 10.0951 10.1259
96 Ni 5.77708 8.73587 8.58467
97 Al 10.0359 1.33024 1.42862
98 Ni 8.54174 -0.119351 -0.138164
99 Al 10.0731 1.55959 4.39347
100 Ni 8.60835 0.00108229 3.00033
101 Al 10.2112 1.51341 7.18338
102 Ni 8.65174 0.0358864 5.80436
103 Al 10.069 1.3903 10.1115
104 Ni 8.69997 -0.0861294 8.7071
105 Al 10.0555 4.25011 1.42701
106 Ni 8.61208 2.78948 0.00566757
107 Al 10.1732 4.33731 4.22866
108 Ni 8.66155 2.74617 2.88071
109 Al 10.1775 4.37777 7.26371
110 Ni 8.75981 2.90968 5.83936
111 Al 10.0703 4.23067 10.1732
112 Ni 8.58919 2.77063 8.52971
113 Al 10.121 7.24691 1.40065
114 Ni 8.75474 5.74369 -0.0947493
115 Al 10.3208 7.28595 4.3125
116 Ni 8.76162 5.82371 2.83901
117 Al 10.2912 7.20648 7.24622
118 Ni 8.7052 5.87682 5.64729
119 Al 10.1303 7.15724 10.1919
120 Ni 8.73465 5.91543 8.69056
121 Al 10.1589 10.2081 1.42871
122 Ni 8.80438 8.80531 -0.0445379
123 Al 10.2786 10.1975 4.31894
124 Ni 8.80446 8.68778 2.98642
125 Al 10.1327 10.1804 7.21895
126 Ni 8.75123 8.69248 5.76235
127 Al 10.2473 10.1807 10.3282
128 Ni 8.74851 8.62797 8.68229
ITEM: TIMESTEP
1300
ITEM: NUMBER OF ATOMS
128
ITEM: BOX BOUNDS xy xz yz pp pp pp
-6.1165808741780382e-02 1.1638805370157495e+01 4.7491210427210813e-03
-8.9958008430895298e-02 1.1630858005903329e+01 -8.8938794508950716e-03
-4.1819849625977845e-02 1.1623604169449886e+01 -4.0884322351455900e-02
ITEM: ATOMS id element xu yu zu
1 Al 1.29115 1.29746 1.52575
2 Ni -0.135933 -0.0787327 -0.0804443
3 Al 1.3925 1.38361 4.40259
4 Ni -0.144997 -0.130669 2.78848
5 Al 1.4588 1.2787 7.36096
6 Ni 0.0130438 0.0300053 5.92073
7 Al 1.45713 1.40526 10.17
8 Ni -0.19046 -0.190658 8.72762
9 Al 1.46942 4.2914 1.48846
10 Ni -0.0572698 2.80504 0.0283317
11 Al 1.46474 4.3839 4.3674
12 Ni 0.00905691 2.86654 2.98125
13 Al 1.37511 4.30063 7.27557
14 Ni -0.201235 2.72551 5.79727
15 Al 1.42717 4.18792 10.2231
16 Ni 0.0567802 2.76811 8.66975
17 Al 1.47522 7.28469 1.31552
18 Ni 0.00647609 5.6491 -0.0276786
19 Al 1.46271 7.22171 4.42375
20 Ni -0.0522372 5.75173 2.93488
21 Al 1.38027 7.13039 7.32028
22 Ni -0.13438 5.78696 5.73939
23 Al 1.3854 7.27689 10.2458
24 Ni -0.00275791 5.78964 8.70158
25 Al 1.51965 10.0468 1.48098
26 Ni 0.0194476 8.92267 -0.163074
27 Al 1.50673 10.143 4.27042
28 Ni 0.0252035 8.60185 2.93672
29 Al 1.40423 10.1548 7.33432
30 Ni -0.00617757 8.70443 5.85695
31 Al 1.38512 10.1715 10.1071
32 Ni -0.0854155 8.60534 8.71993
33 Al 4.36468 1.40506 1.4769
34 Ni 2.72534 -0.126828 -0.0777189
35 Al 4.40709 1.45648 4.39595
36 Ni 2.87613 -0.127518 2.94163
37 Al 4.27034 1.374 7.25308
38 Ni 2.77163 -0.0703575 5.65934
39 Al 4.28197 1.30805 10.12
40 Ni 2.85792 -0.0835483 8.73444
41 Al 4.40017 4.3718 1.31381
42 Ni 2.99658 2.86205 0.182642
43 Al 4.28577 4.35859 4.2229
44 Ni 3.00445 2.82635 2.93701
45 Al 4.29981 4.40077 7.19715
46 Ni 2.82574 2.96886 5.83565
47 Al 4.28022 4.26972 10.085
48 Ni 2.93023 2.86523 8.65936
49 Al 4.48234 7.20566 1.36847
50 Ni 2.85018 5.76786 -0.0496234
51 Al 4.26965 7.18308 4.38137
52 Ni 2.7117 5.9902 2.93331
53 Al 4.19619 7.32203 7.22388
54 Ni 2.80486 5.87334 5.89132
55 Al 4.34485 7.1638 10.1581
56 Ni 2.80004 5.84632 8.76384
57 Al 4.45272 10.2142 1.41736
58 Ni 2.96199 8.70738 -0.0335014
59 Al 4.34541 10.0697 4.38976
60 Ni 2.95553 8.56235 2.81447
61 Al 4.25344 10.2144 7.21601
62 Ni 2.80235 8.88795 5.77888
63 Al 4.33256 10.0305 10.1805
64 Ni 2.92397 8.77492 8.68605
65 Al 7.29244 1.36113 1.36551
66 Ni 5.73076 -0.107387 -0.102578
67 Al 7.23164 1.43926 4.21588
68 Ni 5.86161 0.0757468 2.83236
69 Al 7.23126 1.43638 7.2322
70 Ni 5.79625 -0.0176054 5.8212
71 Al 7.20579 1.34821 10.1649
72 Ni 5.72338 -0.230264 8.61821
73 Al 7.34453 4.3551 1.38744
74 Ni 5.766 2.86992 -0.0945074
75 Al 7.30927 4.30716 4.33783
76 Ni 5.79469 2.95077 2.76957
77 Al 7.25205 4.36398 7.14842
78 Ni 5.77932 2.98413 5.85345
79 Al 7.18651 4.28887 10.2041
80 Ni 5.81392 2.86209 8.58412
81 Al 7.25697 7.19644 1.46551
82 Ni 5.85716 5.83155 0.0423913
83 Al 7.28703 7.34525 4.51588
84 Ni 5.90801 5.74683 2.94579
85 Al 7.21355 7.21071 7.2373
86 Ni 5.73232 5.85856 5.74776
87 Al 7.28232 7.16519 10.1344
88 Ni 5.74466 5.77909 8.70358
89 Al 7.35595 10.0726 1.37374
90 Ni 5.76605 8.75084 -0.0866282
91 Al 7.20956 10.134 4.33466
92 Ni 5.82485 8.72408 2.6907
93 Al 7.25797 10.1805 7.15475
94 Ni 5.77155 8.69003 5.81399
95 Al 7.14914 10.0906 10.1566
96 Ni 5.81924 8.61211 8.71646
97 Al 10.0898 1.42008 1.48513
98 Ni 8.78548 0.00503292 -0.0393606
99 Al 10.0618 1.41413 4.31981
100 Ni 8.72911 -0.114502 2.81576
101 Al 10.1293 1.40216 7.24297
102 Ni 8.70342 -0.221347 5.67405
103 Al 10.183 1.30839 10.0972
104 Ni 8.58055 -0.0770349 8.57906
105 Al 10.2 4.31997 1.45568
106 Ni 8.68644 2.91414 -0.0283728
107 Al 10.151 4.31143 4.31976
108 Ni 8.741 2.96026 2.87513
109 Al 10.3061 4.18452 7.37182
110 Ni 8.62108 2.89958 5.73843
111 Al 10.2548 4.16573 10.1976
112 Ni 8.63138 3.00027 8.87097
113 Al 10.3234 7.23099 1.35157
114 Ni 8.65805 5.9157 0.0814125
115 Al 10.2142 7.2866 4.30466
116 Ni 8.78362 5.7504 2.85433
117 Al 10.1532 7.15223 7.23292
118 Ni 8.78901 5.68318 5.85137
119 Al 10.1709 7.03028 10.2809
120 Ni 8.69144 5.66703 8.78175
121 Al 10.2993 9.99298 1.32533
122 Ni 8.6132 8.73163 -0.0921908
123 Al 10.2243 10.1729 4.31357
124 Ni 8.72939 8.71363 2.75512
125 Al 10.1538 10.0749 7.18519
126 Ni 8.71822 8.61386 5.76059
127 Al 10.0111 10.0376 10.2487
128 Ni 8.60076 8.72773 8.58505
ITEM: TIMESTEP
1400
ITEM: NUMBER OF ATOMS
128
ITEM: BOX BOUNDS xy xz yz pp pp pp
-3.7597295693691198e-02 1.1622864841431328e+01 -2.7745522269960528e-02
2.0005332466253023e-03 1.1597142081531873e+01 3.1228748183707414e-02
2.0362370654116724e-02 1.1561421949169794e+01 1.7358294954605644e-02
ITEM: ATOMS id element xu yu zu
1 Al 1.31499 1.46472 1.47591
2 Ni 0.00372883 -0.066439 0.0362904
3 Al 1.46117 1.35634 4.40906
4 Ni -0.00986939 -0.0294447 2.90166
5 Al 1.4107 1.43736 7.14886
6 Ni -0.132793 -0.11771 5.73548
7 Al 1.50717 1.50046 10.0279
8 Ni 0.15777 0.111477 8.64997
9 Al 1.391 4.43975 1.4112
10 Ni 0.0884381 3.03953 -0.0272939
11 Al 1.4419 4.37277 4.31658
12 Ni -0.0890933 2.87332 2.90009
13 Al 1.45286 4.31089 7.19285
14 Ni 0.0514116 2.9339 5.75125
15 Al 1.48723 4.38217 10.0063
16 Ni -0.0126204 2.98795 8.68579
17 Al 1.52548 7.28507 1.51725
18 Ni 0.0516384 5.91629 -0.0263025
19 Al 1.52293 7.23247 4.33434
20 Ni -0.0119692 5.91045 2.91485
21 Al 1.38503 7.12413 7.20864
22 Ni -0.0180856 5.80302 5.8718
23 Al 1.47314 7.20002 10.0232
24 Ni 0.0113809 5.72963 8.64713
25 Al 1.33211 10.0722 1.50835
26 Ni -0.0404179 8.44998 -0.0146043
27 Al 1.40275 10.1202 4.46575
28 Ni -0.138062 8.70349 2.88255
29 Al 1.57972 10.219 7.26441
30 Ni -0.266 8.6821 5.77232
31 Al 1.46415 10.151 10.1896
32 Ni -0.0504584 8.80945 8.65033
33 Al 4.37571 1.55515 1.51106
34 Ni 2.9884 0.0542287 0.088991
35 Al 4.25271 1.40759 4.25343
36 Ni 2.82151 0.0834349 2.77791
37 Al 4.38067 1.47988 7.21237
38 Ni 2.97825 0.0740182 5.84473
39 Al 4.27329 1.51097 10.1002
40 Ni 2.92185 0.0913558 8.65172
41 Al 4.2513 4.24625 1.44715
42 Ni 2.74891 2.88088 -0.00406609
43 Al 4.4273 4.31832 4.30616
44 Ni 2.69036 2.87238 2.92478
45 Al 4.31825 4.28582 7.17476
46 Ni 2.93134 2.72936 5.68313
47 Al 4.29876 4.37638 10.1194
48 Ni 2.82469 2.79397 8.62572
49 Al 4.27648 7.28993 1.48198
50 Ni 2.90604 5.8845 -0.00257674
51 Al 4.32518 7.23368 4.43209
52 Ni 2.95081 5.78047 3.03194
53 Al 4.4546 7.29554 7.1725
54 Ni 2.87182 5.786 5.72074
55 Al 4.41243 7.27899 10.054
56 Ni 2.97133 5.72133 8.512
57 Al 4.36507 10.0778 1.31128
58 Ni 2.7821 8.59978 -0.105636
59 Al 4.29029 10.2414 4.285
60 Ni 2.85132 8.86988 3.06888
61 Al 4.31589 10.2708 7.18629
62 Ni 3.01875 8.58564 5.84144
63 Al 4.3846 10.1752 10.1074
64 Ni 2.91046 8.66206 8.62469
65 Al 7.32134 1.46092 1.49263
66 Ni 5.84934 0.123402 0.0530824
67 Al 7.25903 1.40182 4.28758
68 Ni 5.87404 0.0312513 2.91991
69 Al 7.21496 1.45514 7.27958
70 Ni 5.85309 -0.0198999 5.70673
71 Al 7.30711 1.66859 10.1822
72 Ni 5.84526 0.217762 8.7938
73 Al 7.25279 4.33458 1.43904
74 Ni 5.7225 2.90626 0.0807085
75 Al 7.26528 4.23388 4.2938
76 Ni 5.7887 2.82739 2.97763
77 Al 7.2622 4.15885 7.22445
78 Ni 5.81458 2.81135 5.7145
79 Al 7.35301 4.2711 10.0967
80 Ni 5.60636 2.9168 8.83959
81 Al 7.12441 7.14624 1.38921
82 Ni 5.66296 5.72395 0.0116864
83 Al 7.21642 7.17514 4.39675
84 Ni 5.62373 5.84129 2.8265
85 Al 7.25098 7.23975 7.22772
86 Ni 5.93175 5.64674 5.9376
87 Al 7.29245 7.14735 10.1111
88 Ni 5.78195 5.67831 8.64218
89 Al 7.28014 10.0105 1.40706
90 Ni 5.78183 8.66157 0.0115386
91 Al 7.25824 10.1317 4.42093
92 Ni 5.77731 8.68234 3.04199
93 Al 7.20213 10.2214 7.35498
94 Ni 5.83942 8.78497 5.7442
95 Al 7.20198 10.2078 10.1488
96 Ni 5.80163 8.8262 8.76759
97 Al 10.1696 1.4705 1.42479
98 Ni 8.68062 0.116531 0.0257481
99 Al 10.1682 1.42113 4.30491
100 Ni 8.71216 0.069028 2.88605
101 Al 10.2548 1.45583 7.18262
102 Ni 8.68774 0.111069 5.92234
103 Al 10.3329 1.47113 10.1634
104 Ni 8.72341 0.0975729 8.77225
105 Al 10.1513 4.40637 1.49791
106 Ni 8.81733 2.94133 -0.0114753
107 Al 10.0412 4.34218 4.3441
108 Ni 8.69807 2.87974 2.89438
109 Al 10.2156 4.29165 7.23425
110 Ni 8.76534 2.85072 5.80473
111 Al 10.2488 4.36451 10.0644
112 Ni 8.89417 2.7799 8.61152
113 Al 10.1135 7.20456 1.479
114 Ni 8.78055 5.65598 -0.0870682
115 Al 10.1697 7.20624 4.32864
116 Ni 8.67119 5.77095 2.84602
117 Al 10.0953 7.2279 7.17989
118 Ni 8.5711 5.8349 5.78691
119 Al 10.1306 7.25749 10.1477
120 Ni 8.73044 5.77844 8.64082
121 Al 10.0435 10.1555 1.3354
122 Ni 8.7394 8.58947 0.0632054
123 Al 9.92091 10.1352 4.33101
124 Ni 8.61562 8.64693 2.92219
125 Al 10.1101 10.1576 7.27812
126 Ni 8.60205 8.78168 5.94081
127 Al 10.2115 10.1985 10.1623
128 Ni 8.6925 8.77136 8.86356
ITEM: TIMESTEP
1500
ITEM: NUMBER OF ATOMS
128
ITEM: BOX BOUNDS xy xz yz pp pp pp
-7.0212160124102710e-02 1.1662246411133241e+01 -5.5676318403875651e-04
-6.8709546070693683e-02 1.1695742466713932e+01 1.0806694369283609e-02
-4.0827283362021127e-02 1.1622611603185931e+01 4.5248600819354431e-02
ITEM: ATOMS id element xu yu zu
1 Al 1.43361 1.43159 1.37532
2 Ni -0.0677562 -0.0779701 -0.035109
3 Al 1.44104 1.44673 4.30288
4 Ni -0.0724406 -0.0994452 2.86608
5 Al 1.39277 1.4133 7.17396
6 Ni -0.0838376 -0.0115574 5.82615
7 Al 1.50599 1.46581 10.0367
8 Ni -0.0891884 -0.167702 8.72583
9 Al 1.3216 4.31974 1.37176
10 Ni -0.0879414 2.82419 -0.00625576
11 Al 1.49322 4.41617 4.2838
12 Ni -0.0290327 2.97382 2.84743
13 Al 1.33352 4.42853 7.23943
14 Ni -0.120268 2.89767 5.75289
15 Al 1.26213 4.37205 10.0446
16 Ni 0.0732024 2.81593 8.64498
17 Al 1.2913 7.23374 1.40904
18 Ni -0.0613536 5.74706 0.0445235
19 Al 1.428 7.2552 4.30945
20 Ni -0.116938 5.81566 2.92112
21 Al 1.4409 7.24931 7.19387
22 Ni -0.0412501 5.90914 5.71808
23 Al 1.40725 7.28818 10.2653
24 Ni -0.0428867 5.89523 8.48384
25 Al 1.25622 10.1818 1.51868
26 Ni -0.0649102 8.90777 -0.0038702
27 Al 1.31866 10.1515 4.22276
28 Ni -0.0255812 8.65406 2.93376
29 Al 1.49832 10.3678 7.24277
30 Ni -0.0158488 8.81586 5.85202
31 Al 1.45028 10.1288 10.1495
32 Ni -0.05039 8.64546 8.76422
33 Al 4.3754 1.41557 1.39847
34 Ni 2.73554 -0.190523 -0.0741612
35 Al 4.25997 1.41676 4.29181
36 Ni 2.83504 -0.185275 3.05466
37 Al 4.27285 1.41656 7.27327
38 Ni 2.94683 -0.153038 5.80017
39 Al 4.28004 1.54816 10.0817
40 Ni 2.84904 -0.0949961 8.69888
41 Al 4.369 4.25852 1.42111
42 Ni 2.84513 3.0093 -0.0558878
43 Al 4.39811 4.38458 4.30228
44 Ni 2.96013 2.85228 2.85279
45 Al 4.34411 4.30838 7.35675
46 Ni 2.79819 2.91828 5.77748
47 Al 4.42729 4.45835 10.197
48 Ni 2.85804 3.00799 8.74062
49 Al 4.23143 7.20071 1.47812
50 Ni 2.74038 5.81677 0.0232832
51 Al 4.22193 7.39585 4.26202
52 Ni 2.85795 5.83407 2.83528
53 Al 4.40023 7.32874 7.24235
54 Ni 2.99919 5.77902 5.84468
55 Al 4.29792 7.31655 10.1907
56 Ni 2.79809 5.84479 8.68959
57 Al 4.22964 10.1195 1.3699
58 Ni 2.99229 8.7619 0.00580757
59 Al 4.42991 10.2184 4.29618
60 Ni 2.76101 8.62659 2.81283
61 Al 4.2958 10.2659 7.2521
62 Ni 2.92827 8.80956 5.80105
63 Al 4.35313 10.2315 10.1818
64 Ni 2.94535 8.76161 8.70533
65 Al 7.31753 1.43333 1.41653
66 Ni 5.63499 -0.102614 0.0170888
67 Al 7.30344 1.42424 4.27294
68 Ni 5.73153 -0.0863603 2.82594
69 Al 7.32271 1.32716 7.22799
70 Ni 5.82064 -0.00299837 5.8746
71 Al 7.27674 1.49007 10.2327
72 Ni 5.75139 -0.152543 8.82709
73 Al 7.30966 4.38555 1.40735
74 Ni 5.8076 2.87915 -0.060812
75 Al 7.21323 4.23316 4.36193
76 Ni 5.81525 2.92962 2.78415
77 Al 7.19845 4.32545 7.2495
78 Ni 5.80449 2.84249 5.76187
79 Al 7.33142 4.38159 10.2407
80 Ni 5.99145 2.79852 8.64721
81 Al 7.13595 7.28048 1.36424
82 Ni 5.81085 5.8048 -0.0429858
83 Al 7.24133 7.25881 4.22292
84 Ni 5.92569 5.7075 2.8843
85 Al 7.28206 7.19883 7.11776
86 Ni 5.75869 5.78671 5.74145
87 Al 7.25008 7.28958 10.118
88 Ni 5.83063 5.80998 8.72576
89 Al 7.21656 10.2357 1.26902
90 Ni 5.74822 8.69426 -0.00674573
91 Al 7.22592 10.2026 4.33368
92 Ni 5.81653 8.71954 2.79658
93 Al 7.22998 10.1918 7.30912
94 Ni 5.81839 8.77862 5.98267
95 Al 7.23216 10.2447 10.1056
96 Ni 5.80293 8.75462 8.76715
97 Al 10.2703 1.41479 1.45439
98 Ni 8.80767 -0.119755 -0.00975258
99 Al 10.2399 1.35231 4.24245
100 Ni 8.7232 -0.0571927 2.7937
101 Al 10.1859 1.46024 7.27501
102 Ni 8.75801 -0.108677 5.73814
103 Al 10.1993 1.51051 10.2032
104 Ni 8.83078 -0.0995474 8.76117
105 Al 10.1163 4.40651 1.41689
106 Ni 8.69024 2.88368 -0.0160447
107 Al 10.0454 4.30511 4.3262
108 Ni 8.79185 2.91967 2.84093
109 Al 10.2476 4.35494 7.24987
110 Ni 8.75452 2.89777 5.84079
111 Al 10.1937 4.47524 10.0497
112 Ni 8.66495 2.94768 8.75224
113 Al 10.1805 7.30533 1.43132
114 Ni 8.62625 5.88329 0.0134192
115 Al 10.2195 7.24535 4.30921
116 Ni 8.68661 5.78876 2.95757
117 Al 10.18 7.29453 7.12536
118 Ni 8.70067 5.82166 5.84682
119 Al 10.1936 7.40578 10.3067
120 Ni 8.65394 5.87074 8.73076
121 Al 10.0666 10.1299 1.38302
122 Ni 8.60365 8.69249 -0.0785526
123 Al 10.1394 10.1685 4.35961
124 Ni 8.75405 8.75323 2.85033
125 Al 10.1895 10.1752 7.22441
126 Ni 8.674 8.76683 5.72921
127 Al 10.2884 10.2509 10.1105
128 Ni 8.685 8.69323 8.6529
ITEM: TIMESTEP
1600
ITEM: NUMBER OF ATOMS
128
ITEM: BOX BOUNDS xy xz yz pp pp pp
-2.9218875667414219e-02 1.1603872070239250e+01 2.7359860720599063e-02
-2.9118466650754914e-02 1.1582655629960794e+01 -3.4490985972662432e-02
1.2126004469258156e-02 1.1569658315354648e+01 -2.8247156513840476e-02
ITEM: ATOMS id element xu yu zu
1 Al 1.4556 1.58624 1.44668
2 Ni -0.0558824 -0.00028162 -0.0405115
3 Al 1.52252 1.55653 4.39938
4 Ni 0.0383453 0.132917 2.92808
5 Al 1.43901 1.46387 7.26296
6 Ni 0.0472964 -0.014196 5.8512
7 Al 1.40791 1.48953 10.0464
8 Ni -0.08318 0.0803872 8.63069
9 Al 1.39008 4.29492 1.42319
10 Ni -0.00897049 2.88433 0.0393727
11 Al 1.45676 4.32844 4.46324
12 Ni -0.04508 2.73812 2.98856
13 Al 1.38246 4.35386 7.41454
14 Ni 0.0498204 2.79215 5.93919
15 Al 1.34044 4.25511 10.1283
16 Ni -0.140228 2.94254 8.72108
17 Al 1.43784 7.09445 1.49702
18 Ni -0.0721309 5.76937 0.0306156
19 Al 1.45329 7.19978 4.23156
20 Ni 0.0550594 5.73028 2.88113
21 Al 1.35551 7.06483 7.31806
22 Ni 0.0113645 5.70347 5.88809
23 Al 1.39734 7.15727 10.2086
24 Ni -0.0293802 5.63666 8.90037
25 Al 1.40274 10.1509 1.4208
26 Ni -0.00718461 8.55648 0.0193291
27 Al 1.44433 10.251 4.14645
28 Ni 0.151126 8.70941 2.87769
29 Al 1.52916 10.2756 7.1569
30 Ni 0.00613791 8.56386 5.70915
31 Al 1.37006 10.1428 10.1118
32 Ni -0.0937827 8.68466 8.63922
33 Al 4.47844 1.46207 1.46315
34 Ni 3.01304 0.066328 -0.00262788
35 Al 4.28201 1.43563 4.38546
36 Ni 2.94315 0.228163 2.86221
37 Al 4.29118 1.35091 7.24075
38 Ni 2.85341 0.122215 5.81094
39 Al 4.29076 1.45856 10.0224
40 Ni 2.87919 -0.0165794 8.72494
41 Al 4.40521 4.28984 1.5206
42 Ni 2.93335 2.78053 0.0201347
43 Al 4.40582 4.3559 4.39936
44 Ni 2.92643 2.93176 2.89577
45 Al 4.34891 4.38244 7.33211
46 Ni 3.04809 2.92508 5.88287
47 Al 4.37883 4.2888 10.2012
48 Ni 2.85713 2.82945 8.69654
49 Al 4.31866 7.22954 1.45147
50 Ni 3.00483 5.74292 -0.0104162
51 Al 4.20516 7.17997 4.26804
52 Ni 2.8758 5.75401 2.85525
53 Al 4.32544 7.25634 7.17099
54 Ni 2.80511 5.7874 5.72544
55 Al 4.34586 7.20294 10.1972
56 Ni 2.889 5.74128 8.79763
57 Al 4.37279 10.1171 1.36986
58 Ni 2.78554 8.57845 -0.0241964
59 Al 4.31103 10.2064 4.33202
60 Ni 3.04673 8.65593 2.86958
61 Al 4.23036 10.0936 7.23959
62 Ni 2.88139 8.60417 5.86909
63 Al 4.31683 10.0407 10.1273
64 Ni 2.76571 8.63257 8.77662
65 Al 7.23515 1.50347 1.44962
66 Ni 5.82784 -0.0747585 -0.108246
67 Al 7.20503 1.52558 4.40854
68 Ni 5.76304 0.081981 2.96753
69 Al 7.19916 1.49966 7.19596
70 Ni 5.73596 -0.0738567 5.72095
71 Al 7.19417 1.4618 9.99888
72 Ni 5.80988 -0.0152997 8.49251
73 Al 7.27608 4.33274 1.44471
74 Ni 5.82009 2.80982 -0.107452
75 Al 7.11163 4.36011 4.32857
76 Ni 5.78315 2.82349 2.92109
77 Al 7.20138 4.4245 7.30052
78 Ni 5.82844 2.9864 5.90576
79 Al 7.27612 4.33284 10.1464
80 Ni 5.66952 2.98621 8.71708
81 Al 7.2896 7.29353 1.45076
82 Ni 5.98633 5.81655 0.0557465
83 Al 7.28613 7.19123 4.26546
84 Ni 5.82378 5.87266 2.86744
85 Al 7.27197 7.27098 7.17163
86 Ni 5.81086 5.82942 5.84671
87 Al 7.26304 7.33222 10.238
88 Ni 5.7179 5.87102 8.65781
89 Al 7.25552 10.2764 1.39341
90 Ni 5.8185 8.75811 0.00751377
91 Al 7.23037 10.1926 4.32385
92 Ni 5.75408 8.66514 2.93989
93 Al 7.12498 10.0442 7.13848
94 Ni 5.6827 8.65441 5.63567
95 Al 7.20163 10.0568 10.036
96 Ni 5.75622 8.62896 8.61421
97 Al 10.1363 1.41143 1.45807
98 Ni 8.71068 -0.0540174 -0.0443885
99 Al 10.125 1.39316 4.33944
100 Ni 8.73721 -0.0488126 2.99516
101 Al 9.99629 1.46193 7.24773
102 Ni 8.67015 -0.062949 5.73692
103 Al 9.99547 1.3817 10.1101
104 Ni 8.5628 -0.152153 8.55782
105 Al 10.0911 4.25674 1.48645
106 Ni 8.62859 2.74881 -0.0610969
107 Al 10.0422 4.23783 4.29616
108 Ni 8.54902 2.7978 2.90709
109 Al 10.1275 4.30472 7.16748
110 Ni 8.61579 2.90195 5.76277
111 Al 10.0108 4.33335 10.1594
112 Ni 8.65418 2.89599 8.66655
113 Al 10.2075 7.27102 1.52371
114 Ni 8.79569 5.78196 -0.00786866
115 Al 10.2199 7.17527 4.26873
116 Ni 8.81075 5.76242 2.8964
117 Al 10.1344 7.19713 7.1533
118 Ni 8.78805 5.76323 5.69714
119 Al 10.0761 7.28672 10.1586
120 Ni 8.73303 5.74399 8.66396
121 Al 10.1793 10.1568 1.47947
122 Ni 8.84336 8.74403 0.211957
123 Al 10.2186 10.1156 4.41502
124 Ni 8.68841 8.77402 2.98311
125 Al 10.1567 10.1605 7.19988
126 Ni 8.74729 8.7114 5.8046
127 Al 10.1986 10.1127 10.0568
128 Ni 8.70324 8.69969 8.62026
ITEM: TIMESTEP
1700
ITEM: NUMBER OF ATOMS
128
ITEM: BOX BOUNDS xy xz yz pp pp pp
-4.6678253692341534e-02 1.1643823287976911e+01 -5.2041310069392433e-03
-1.0104494489531388e-01 1.1636328561169677e+01 2.0564845467607794e-02
-5.0729545823603672e-02 1.1632513865647502e+01 -4.6500703549519039e-02
ITEM: ATOMS id element xu yu zu
1 Al 1.38164 1.49493 1.42024
2 Ni -0.11738 -0.00213231 -0.0772435
3 Al 1.42289 1.37049 4.28962
4 Ni -0.00290815 -0.150186 2.88319
5 Al 1.48151 1.42611 7.22444
6 Ni -0.0083634 0.0116829 5.73526
7 Al 1.51095 1.46916 10.1824
8 Ni 0.0678568 -0.167867 8.75733
9 Al 1.42148 4.25293 1.32135
10 Ni -0.11071 2.72995 -0.0954994
11 Al 1.51887 4.33159 4.33252
12 Ni -0.0556694 2.90724 2.71334
13 Al 1.34065 4.27572 7.34547
14 Ni -0.0855961 2.97302 5.65666
15 Al 1.29506 4.3606 10.0935
16 Ni 0.0327382 2.729 8.76287
17 Al 1.35845 7.18347 1.52427
18 Ni 0.0387958 5.76145 -0.0294607
19 Al 1.31546 7.18115 4.18205
20 Ni -0.0385932 5.66601 2.74623
21 Al 1.37257 7.08713 7.24251
22 Ni 0.00981876 5.77009 5.7148
23 Al 1.46329 7.34502 10.2664
24 Ni -0.06953 5.68082 8.60101
25 Al 1.3352 10.2817 1.25253
26 Ni -0.0166985 8.84942 -0.00591807
27 Al 1.35561 10.1837 4.35947
28 Ni -0.0825295 8.80396 2.86447
29 Al 1.48813 10.2606 7.26914
30 Ni -0.0207582 8.71751 5.85733
31 Al 1.44127 10.2432 10.1837
32 Ni 0.0341036 8.74814 8.83518
33 Al 4.33202 1.44327 1.50057
34 Ni 2.91764 -0.0652076 -0.130968
35 Al 4.25765 1.23504 4.3344
36 Ni 2.87172 -0.134404 2.77996
37 Al 4.25612 1.36265 7.27149
38 Ni 2.93521 -0.0820963 5.90978
39 Al 4.40251 1.42567 10.1848
40 Ni 2.92328 -0.0965397 8.6193
41 Al 4.33656 4.30452 1.3561
42 Ni 3.00683 2.90645 -0.153029
43 Al 4.30718 4.20024 4.3014
44 Ni 2.89251 2.68965 2.79923
45 Al 4.40005 4.27256 7.22233
46 Ni 2.71537 2.83127 5.74391
47 Al 4.36095 4.26056 10.0759
48 Ni 3.01119 2.88847 8.74438
49 Al 4.25188 7.38666 1.44433
50 Ni 2.81129 5.86175 0.0402434
51 Al 4.25109 7.14508 4.25508
52 Ni 2.93981 5.62769 2.80769
53 Al 4.41567 7.21334 7.25078
54 Ni 2.85505 5.72678 5.85802
55 Al 4.28676 7.15572 10.2686
56 Ni 2.84831 5.78201 8.70735
57 Al 4.41133 10.1869 1.41421
58 Ni 3.00997 8.87321 -0.0633981
59 Al 4.26624 10.0523 4.46788
60 Ni 2.60855 8.88891 2.83654
61 Al 4.2963 10.0753 7.32728
62 Ni 2.81925 8.54168 5.70595
63 Al 4.34344 10.0686 10.2259
64 Ni 2.91468 8.66582 8.66712
65 Al 7.17434 1.4974 1.53079
66 Ni 5.85219 -0.10477 -0.0148191
67 Al 7.24579 1.49245 4.41686
68 Ni 5.76303 -0.20039 2.90405
69 Al 7.16676 1.43105 7.23592
70 Ni 5.65739 -0.10553 5.85337
71 Al 7.31985 1.37302 10.1606
72 Ni 5.7929 -0.253244 8.75713
73 Al 7.22251 4.26503 1.41085
74 Ni 5.89177 2.92271 -0.0445761
75 Al 7.20093 4.35423 4.3098
76 Ni 5.9435 2.91354 2.92666
77 Al 7.28452 4.39846 7.26616
78 Ni 5.79879 2.89009 5.65049
79 Al 7.27374 4.294 10.223
80 Ni 5.91842 2.85403 8.69596
81 Al 7.24053 7.18298 1.48145
82 Ni 5.67467 5.88121 -0.0801752
83 Al 7.29123 7.25267 4.31265
84 Ni 5.69496 5.72501 2.78925
85 Al 7.24247 7.2934 7.36205
86 Ni 5.85786 5.75553 5.82673
87 Al 7.25369 7.21154 10.362
88 Ni 5.91226 5.76869 8.74027
89 Al 7.32116 10.164 1.4624
90 Ni 5.88734 8.70184 -0.0656839
91 Al 7.26992 10.1999 4.39656
92 Ni 5.68929 8.71211 2.92108
93 Al 7.29281 10.1595 7.34799
94 Ni 5.77401 8.61015 5.90024
95 Al 7.26575 10.1006 10.1641
96 Ni 5.85463 8.7237 8.6981
97 Al 10.1319 1.38906 1.44487
98 Ni 8.63193 -0.0394955 -0.0094794
99 Al 10.1993 1.459 4.27429
100 Ni 8.62043 -0.0440471 2.97425
101 Al 10.2964 1.42467 7.23208
102 Ni 8.70214 -0.0478562 5.86803
103 Al 10.0669 1.26437 10.1772
104 Ni 8.79737 0.0164339 8.64495
105 Al 10.1004 4.33542 1.38327
106 Ni 8.64449 2.89308 0.0369127
107 Al 10.1038 4.51879 4.32689
108 Ni 8.77571 2.82687 2.95908
109 Al 10.1257 4.26642 7.2042
110 Ni 8.71466 2.81144 5.88445
111 Al 10.0464 4.25265 10.0759
112 Ni 8.65978 2.7114 8.62447
113 Al 10.2477 7.24101 1.37672
114 Ni 8.56488 5.76949 0.0386438
115 Al 10.1592 7.28559 4.32841
116 Ni 8.64165 5.7729 2.8928
117 Al 10.196 7.25163 7.16491
118 Ni 8.67252 5.83263 5.80905
119 Al 10.2395 7.1062 10.2519
120 Ni 8.74985 5.78801 8.74981
121 Al 10.1508 10.2132 1.34533
122 Ni 8.61867 8.69701 -0.180246
123 Al 10.176 10.2613 4.37121
124 Ni 8.8816 8.60577 2.86419
125 Al 10.1722 10.1922 7.27432
126 Ni 8.80628 8.65391 5.7228
127 Al 10.2079 10.0442 10.1857
128 Ni 8.84179 8.66293 8.66258
ITEM: TIMESTEP
1800
ITEM: NUMBER OF ATOMS
128
ITEM: BOX BOUNDS xy xz yz pp pp pp
-5.2762987556401929e-02 1.1617815886073460e+01 -3.6213838991454549e-02
-1.9738081554810272e-02 1.1643185078090299e+01 1.9482417684615880e-02
-1.9141126727148183e-02 1.1600925446551042e+01 4.1662676711617656e-02
ITEM: ATOMS id element xu yu zu
1 Al 1.363 1.43309 1.54626
2 Ni -0.0132664 -0.0469565 -0.0112226
3 Al 1.35865 1.36683 4.34244
4 Ni -0.159882 -0.0297239 2.78047
5 Al 1.60349 1.42235 7.25577
6 Ni -0.0248575 -0.0798575 5.86798
7 Al 1.42683 1.44731 10.2492
8 Ni -0.0867398 0.106273 8.66075
9 Al 1.46455 4.41528 1.47941
10 Ni 0.117674 3.00378 0.0234692
11 Al 1.51774 4.31789 4.38063
12 Ni -0.0253307 2.85854 2.9278
13 Al 1.37706 4.44369 7.17923
14 Ni 0.054569 2.76183 5.80645
15 Al 1.42658 4.35492 10.1739
16 Ni 0.04581 3.08192 8.65573
17 Al 1.32191 7.18493 1.39974
18 Ni -0.0478236 5.84926 -0.0281612
19 Al 1.37872 7.28648 4.34509
20 Ni 0.0105516 5.9526 2.87954
21 Al 1.44993 7.15214 7.12708
22 Ni -0.10845 5.84118 5.8154
23 Al 1.4553 7.28392 10.1244
24 Ni 0.0434194 5.87412 8.72414
25 Al 1.44002 10.1335 1.55817
26 Ni -0.118037 8.72643 -0.151928
27 Al 1.33582 10.1461 4.39772
28 Ni -0.096884 8.62946 2.87141
29 Al 1.44274 10.2886 7.39768
30 Ni -0.0970943 8.65164 5.7252
31 Al 1.34208 10.1879 10.1708
32 Ni -0.0699457 8.72705 8.6108
33 Al 4.2545 1.37348 1.57035
34 Ni 2.95647 -0.0962461 0.0164801
35 Al 4.35354 1.47189 4.40728
36 Ni 2.92251 0.0364791 3.02094
37 Al 4.22768 1.37842 7.24373
38 Ni 2.80413 0.0155956 5.66283
39 Al 4.32192 1.57231 10.1735
40 Ni 2.96797 -0.0361384 8.74963
41 Al 4.27807 4.47069 1.46604
42 Ni 2.88727 2.7439 0.0902619
43 Al 4.29987 4.45341 4.2109
44 Ni 2.90389 2.87474 2.90986
45 Al 4.37113 4.27454 7.11741
46 Ni 2.98117 2.92178 5.7383
47 Al 4.3557 4.24616 10.0748
48 Ni 2.79491 2.90842 8.61545
49 Al 4.34135 7.16366 1.49435
50 Ni 2.93259 5.76387 -0.0839938
51 Al 4.43304 7.39408 4.43361
52 Ni 2.64967 5.98926 2.8604
53 Al 4.39166 7.35798 7.24974
54 Ni 2.91846 5.83838 5.71697
55 Al 4.30151 7.13882 10.2706
56 Ni 2.86248 5.78961 8.65785
57 Al 4.31331 10.1667 1.48428
58 Ni 2.75042 8.5855 -0.0269195
59 Al 4.38091 10.2565 4.42167
60 Ni 3.09289 8.52065 2.91777
61 Al 4.34418 10.2957 7.29147
62 Ni 2.9209 8.91111 5.86487
63 Al 4.28651 10.1272 10.1917
64 Ni 2.95727 8.75491 8.71902
65 Al 7.14423 1.46985 1.41996
66 Ni 5.79301 -0.0590758 -0.0488484
67 Al 7.27752 1.49505 4.31663
68 Ni 5.86138 -0.041083 2.84782
69 Al 7.41869 1.52689 7.26977
70 Ni 5.96579 -0.0208266 5.79503
71 Al 7.35748 1.48598 10.1282
72 Ni 5.84933 0.174487 8.6045
73 Al 7.18457 4.26597 1.36386
74 Ni 5.6835 2.8931 0.075804
75 Al 7.15739 4.28906 4.29162
76 Ni 5.66385 2.88113 2.84666
77 Al 7.2923 4.33897 7.19634
78 Ni 5.88369 2.72189 5.89892
79 Al 7.17889 4.40366 10.1727
80 Ni 5.77187 2.91069 8.67579
81 Al 7.29061 7.07894 1.39016
82 Ni 5.84316 5.72228 0.0357166
83 Al 7.29762 7.16297 4.47617
84 Ni 5.80612 5.88507 3.02827
85 Al 7.1513 7.21188 7.32468
86 Ni 5.68436 5.82539 5.80917
87 Al 7.17927 7.27953 10.3132
88 Ni 5.71152 5.67841 8.57921
89 Al 7.20713 10.1174 1.4073
90 Ni 5.57418 8.70585 -0.0142664
91 Al 7.3274 10.1937 4.33898
92 Ni 5.81733 8.70888 2.84484
93 Al 7.26595 10.2292 7.35725
94 Ni 5.82508 8.83847 5.81094
95 Al 7.08148 10.1103 10.2612
96 Ni 5.82123 8.66454 8.65016
97 Al 10.1801 1.57872 1.35871
98 Ni 8.79145 0.0352854 0.00136233
99 Al 10.1101 1.48701 4.21429
100 Ni 8.76493 -0.154196 2.76912
101 Al 10.2029 1.49297 7.25078
102 Ni 8.80931 -0.0649139 5.69525
103 Al 10.1559 1.4827 10.1776
104 Ni 8.7191 -0.0328026 8.72859
105 Al 10.151 4.40377 1.51968
106 Ni 8.69296 2.95451 -0.0496684
107 Al 10.1924 4.46676 4.34068
108 Ni 8.55149 3.00849 2.72923
109 Al 10.1524 4.30782 7.25855
110 Ni 8.71042 2.84235 5.61776
111 Al 10.1421 4.43622 10.1504
112 Ni 8.78 3.05801 8.81572
113 Al 10.151 7.2609 1.45824
114 Ni 8.73755 5.87723 -0.183177
115 Al 9.98548 7.33617 4.4218
116 Ni 8.66883 5.89579 2.89128
117 Al 10.0729 7.26849 7.22314
118 Ni 8.76762 5.72817 5.77311
119 Al 10.1316 7.24572 10.113
120 Ni 8.71656 5.73847 8.6379
121 Al 10.1836 10.0936 1.33618
122 Ni 8.65244 8.66594 0.00659604
123 Al 10.1744 10.1302 4.27912
124 Ni 8.44514 8.67234 2.89042
125 Al 10.0497 10.1123 7.27828
126 Ni 8.63543 8.66169 5.90617
127 Al 10.1213 10.1441 10.1716
128 Ni 8.57448 8.79133 8.78436
ITEM: TIMESTEP
1900
ITEM: NUMBER OF ATOMS
128
ITEM: BOX BOUNDS xy xz yz pp pp pp
-5.7224963080821104e-02 1.1613767182491205e+01 -1.5011791014113523e-02
-3.1481815308511685e-02 1.1674230180709314e+01 -1.0230309399392037e-02
-8.6548906014565219e-03 1.1590439210425350e+01 6.0964045576911416e-02
ITEM: ATOMS id element xu yu zu
1 Al 1.43614 1.4897 1.47695
2 Ni 0.025079 -0.0168492 0.0153044
3 Al 1.44338 1.37175 4.34099
4 Ni 0.0696547 -0.062122 2.92767
5 Al 1.37638 1.42516 7.14896
6 Ni -0.173172 0.00229639 5.67745
7 Al 1.35684 1.4354 10.2015
8 Ni -0.0316244 -0.0789562 8.75981
9 Al 1.44077 4.46249 1.60405
10 Ni -0.0718862 2.83638 0.109667
11 Al 1.44081 4.37327 4.37841
12 Ni 0.00680734 2.86727 2.85238
13 Al 1.39799 4.35231 7.20689
14 Ni -0.102881 2.99397 5.77151
15 Al 1.4041 4.31014 10.1557
16 Ni -0.120771 2.76198 8.64298
17 Al 1.47513 7.134 1.69141
18 Ni -0.093096 5.83845 -0.0820476
19 Al 1.45856 7.3176 4.36433
20 Ni -0.138581 5.81526 3.0034
21 Al 1.41446 7.22746 7.20478
22 Ni 0.0649368 5.90771 5.83825
23 Al 1.39531 7.2061 10.132
24 Ni -0.0565207 5.74118 8.574
25 Al 1.38072 10.1055 1.35937
26 Ni 0.0254834 8.49096 0.111011
27 Al 1.30261 10.2645 4.52815
28 Ni 0.0138038 8.76795 2.92759
29 Al 1.35025 10.2558 7.2354
30 Ni -0.178883 8.80475 5.86921
31 Al 1.38491 10.1399 10.1081
32 Ni -0.038294 8.81554 8.67071
33 Al 4.26223 1.49537 1.4669
34 Ni 2.76186 0.0403189 0.00603772
35 Al 4.31128 1.53399 4.27555
36 Ni 2.89229 -0.0654273 2.75847
37 Al 4.31931 1.43352 7.1934
38 Ni 2.90888 -0.0543441 5.87126
39 Al 4.23276 1.56419 10.1488
40 Ni 2.71263 0.0901571 8.62159
41 Al 4.36675 4.31579 1.57962
42 Ni 2.77891 3.13282 0.135461
43 Al 4.34195 4.32498 4.45881
44 Ni 2.80476 2.9337 3.0241
45 Al 4.34694 4.31847 7.24655
46 Ni 2.76917 2.69706 5.8191
47 Al 4.29526 4.39854 10.1377
48 Ni 2.91388 2.78868 8.61782
49 Al 4.36058 7.23825 1.38889
50 Ni 2.87703 5.8319 0.150822
51 Al 4.41371 7.26189 4.24391
52 Ni 3.11403 5.59056 3.09086
53 Al 4.4232 7.29276 7.21796
54 Ni 2.832 5.85674 5.86376
55 Al 4.24261 7.34645 10.1891
56 Ni 2.87198 5.77866 8.67536
57 Al 4.29118 10.2232 1.35733
58 Ni 3.022 8.76613 -0.117144
59 Al 4.35647 10.2999 4.34561
60 Ni 2.75988 8.93377 2.88411
61 Al 4.34213 10.3453 7.20263
62 Ni 2.99947 8.72897 5.75249
63 Al 4.39145 10.2987 10.0901
64 Ni 2.78974 8.88232 8.63904
65 Al 7.29461 1.46805 1.40078
66 Ni 5.75479 0.0613515 -0.0230822
67 Al 7.33269 1.43004 4.36101
68 Ni 5.78378 0.0924089 2.81346
69 Al 7.17867 1.48449 7.28338
70 Ni 5.85039 0.145023 5.75242
71 Al 7.31487 1.53256 10.1716
72 Ni 5.81205 0.0618895 8.82827
73 Al 7.21762 4.25955 1.40209
74 Ni 5.7312 2.8701 -0.0854029
75 Al 7.27784 4.33865 4.25892
76 Ni 5.98139 2.85274 2.83962
77 Al 7.2849 4.28642 7.33603
78 Ni 5.81941 3.00374 5.73715
79 Al 7.18696 4.37075 10.1835
80 Ni 5.6802 2.8943 8.71444
81 Al 7.31018 7.19124 1.28658
82 Ni 5.66241 5.80605 -0.114537
83 Al 7.28559 7.20918 4.22132
84 Ni 5.8016 5.80386 2.79735
85 Al 7.19449 7.25531 7.12045
86 Ni 5.82314 5.73704 5.83135
87 Al 7.22109 7.26344 10.1053
88 Ni 5.72668 5.83794 8.72661
89 Al 7.17184 10.1524 1.43835
90 Ni 5.9152 8.6869 -0.150091
91 Al 7.21757 10.1761 4.19618
92 Ni 5.71569 8.68419 2.87012
93 Al 7.23024 10.265 7.28355
94 Ni 5.76917 8.77326 5.84253
95 Al 7.21437 10.1455 10.1382
96 Ni 5.72257 8.82578 8.66248
97 Al 10.3199 1.36556 1.4554
98 Ni 8.67899 -0.113982 -0.104197
99 Al 10.1719 1.37588 4.35496
100 Ni 8.67799 0.0469339 2.8077
101 Al 10.1379 1.44968 7.26768
102 Ni 8.60471 0.144782 5.87356
103 Al 10.1229 1.45856 10.2275
104 Ni 8.7174 0.169414 8.75934
105 Al 10.1564 4.28504 1.53818
106 Ni 8.76441 2.87735 -0.0321012
107 Al 10.166 4.3239 4.4024
108 Ni 8.83143 2.76895 2.90066
109 Al 10.1059 4.39236 7.31744
110 Ni 8.69261 2.95872 5.81513
111 Al 10.1747 4.3624 10.1168
112 Ni 8.73828 2.85474 8.697
113 Al 10.1238 7.10597 1.46603
114 Ni 8.59043 5.68466 -0.00770188
115 Al 10.0612 7.2199 4.45366
116 Ni 8.69301 5.68892 2.92171
117 Al 10.1247 7.26268 7.20887
118 Ni 8.63845 5.79298 5.74818
119 Al 10.1241 7.23129 10.1545
120 Ni 8.6707 5.79343 8.72632
121 Al 10.2373 10.148 1.37913
122 Ni 8.69267 8.67132 -0.160679
123 Al 10.1257 10.1192 4.29064
124 Ni 8.81443 8.75918 2.82399
125 Al 10.0517 10.1936 7.31735
126 Ni 8.60693 8.86848 5.71243
127 Al 10.2568 10.1782 10.2662
128 Ni 8.65039 8.65809 8.55641
ITEM: TIMESTEP
2000
ITEM: NUMBER OF ATOMS
128
ITEM: BOX BOUNDS xy xz yz pp pp pp
-6.2613650325068354e-02 1.1635113230561799e+01 8.5019535180251276e-03
-1.0151326144431796e-01 1.1632504349398346e+01 -1.7786693105183195e-02
-1.4853146860148492e-02 1.1596637466684040e+01 -5.0793231869863870e-02
ITEM: ATOMS id element xu yu zu
1 Al 1.37999 1.33737 1.36694
2 Ni -0.103821 -0.042891 -0.0167389
3 Al 1.4639 1.46742 4.3329
4 Ni -0.0657005 -0.0794191 2.87318
5 Al 1.52076 1.38887 7.25274
6 Ni 0.0912398 -0.143557 5.81712
7 Al 1.42725 1.277 10.1523
8 Ni -0.096816 -0.0612291 8.73331
9 Al 1.48086 4.25489 1.42512
10 Ni -0.0732616 2.88536 -0.150331
11 Al 1.38928 4.28756 4.21949
12 Ni -0.134383 2.92573 3.00621
13 Al 1.40637 4.44999 7.08537
14 Ni -0.0265128 2.76428 5.80201
15 Al 1.5008 4.36487 10.1739
16 Ni -0.0620568 2.89512 8.72819
17 Al 1.34519 7.27899 1.38336
18 Ni 0.0583314 5.73538 0.0809091
19 Al 1.40925 7.20413 4.32447
20 Ni -0.0120311 5.75766 2.88245
21 Al 1.35205 7.16338 7.1416
22 Ni -0.152149 5.70956 5.70777
23 Al 1.39973 7.2116 10.1684
24 Ni -0.057874 5.91678 8.71183
25 Al 1.4291 10.1449 1.43711
26 Ni -0.0892839 8.89272 -0.107528
27 Al 1.38293 10.2699 4.30081
28 Ni -0.0381139 8.709 2.84068
29 Al 1.47935 10.1555 7.21264
30 Ni 0.0502011 8.73555 5.67649
31 Al 1.41091 10.126 9.98379
32 Ni -0.11025 8.61722 8.73503
33 Al 4.38152 1.32712 1.36806
34 Ni 2.92658 -0.103407 -0.002423
35 Al 4.33182 1.42073 4.29673
36 Ni 2.86953 0.0219015 2.94745
37 Al 4.2711 1.44381 7.23589
38 Ni 2.87222 0.0199207 5.79493
39 Al 4.39371 1.36002 10.0678
40 Ni 2.95851 -0.188871 8.76239
41 Al 4.28969 4.33791 1.50765
42 Ni 2.89459 2.71949 -0.150749
43 Al 4.24131 4.33916 4.26142
44 Ni 2.90429 2.82268 2.7598
45 Al 4.37913 4.31116 7.29579
46 Ni 2.93264 2.98831 5.79533
47 Al 4.42347 4.3592 10.1898
48 Ni 2.77827 3.01901 8.69611
49 Al 4.38265 7.09629 1.32395
50 Ni 2.88614 5.73433 -0.0822518
51 Al 4.36631 7.14223 4.19485
52 Ni 2.69719 5.92319 2.67583
53 Al 4.43534 7.18813 7.2064
54 Ni 2.97743 5.72141 5.72797
55 Al 4.35434 7.2098 10.2276
56 Ni 2.71909 5.83089 8.59317
57 Al 4.20011 10.2031 1.47977
58 Ni 2.79502 8.65882 0.109468
59 Al 4.29985 10.121 4.33769
60 Ni 2.99059 8.49768 2.8865
61 Al 4.30646 10.0738 7.17641
62 Ni 2.79704 8.6656 5.80373
63 Al 4.42191 10.0531 10.1558
64 Ni 2.92535 8.60008 8.74261
65 Al 7.27029 1.44155 1.51141
66 Ni 5.79842 -0.137026 -0.0482962
67 Al 7.20353 1.35291 4.34791
68 Ni 5.76759 -0.146155 2.89662
69 Al 7.19729 1.23228 7.24516
70 Ni 5.63819 -0.144379 5.87481
71 Al 7.32153 1.33977 10.149
72 Ni 5.68117 -0.1646 8.63756
73 Al 7.22374 4.43698 1.46795
74 Ni 5.8897 2.86629 0.00101473
75 Al 7.25577 4.3429 4.38278
76 Ni 5.64966 2.84346 2.83457
77 Al 7.26126 4.21105 7.27214
78 Ni 5.76054 2.74684 5.84495
79 Al 7.31051 4.34901 10.2408
80 Ni 5.82745 2.88501 8.80349
81 Al 7.18051 7.32109 1.38035
82 Ni 5.90688 5.84847 0.0326874
83 Al 7.27656 7.2026 4.27525
84 Ni 5.80735 5.73098 2.90346
85 Al 7.21953 7.27724 7.24077
86 Ni 5.75218 5.82524 5.72575
87 Al 7.32676 7.24264 10.2023
88 Ni 5.83286 5.76942 8.73941
89 Al 7.17163 10.2308 1.42099
90 Ni 5.65352 8.71316 0.0815023
91 Al 7.22981 10.1246 4.28946
92 Ni 5.87168 8.8253 2.92361
93 Al 7.24816 10.0252 7.23218
94 Ni 5.78517 8.72668 5.76167
95 Al 7.19741 10.1026 10.1944
96 Ni 5.83134 8.62106 8.77619
97 Al 10.3127 1.49263 1.51208
98 Ni 8.77945 -0.0720354 0.083984
99 Al 10.1031 1.28133 4.38843
100 Ni 8.6435 -0.146771 2.96154
101 Al 10.1452 1.36863 7.32804
102 Ni 8.70691 -0.128429 5.76475
103 Al 10.0398 1.39315 10.12
104 Ni 8.65472 -0.211378 8.54212
105 Al 10.2156 4.29752 1.43182
106 Ni 8.68441 2.83667 0.00168093
107 Al 10.1058 4.18666 4.32627
108 Ni 8.57293 3.01849 2.82903
109 Al 10.1909 4.33507 7.29792
110 Ni 8.6164 2.75246 5.83745
111 Al 10.2122 4.37015 10.0681
112 Ni 8.6645 2.87702 8.67885
113 Al 10.1991 7.21356 1.43796
114 Ni 8.82215 5.90023 -0.0136471
115 Al 10.1134 7.10338 4.30588
116 Ni 8.71987 5.93128 2.83682
117 Al 10.1949 7.21416 7.17912
118 Ni 8.62611 5.88799 5.88427
119 Al 10.1776 7.18969 10.2386
120 Ni 8.73847 5.82105 8.63931
121 Al 10.2266 10.171 1.50107
122 Ni 8.70371 8.69525 0.124719
123 Al 10.2155 10.0203 4.3443
124 Ni 8.60965 8.71965 2.94838
125 Al 10.225 9.99724 7.23944
126 Ni 8.75524 8.58286 5.82539
127 Al 10.1673 10.2553 10.1979
128 Ni 8.791 8.67225 8.80164
ITEM: TIMESTEP
2100
ITEM: NUMBER OF ATOMS
128
ITEM: BOX BOUNDS xy xz yz pp pp pp
-2.1085062883005396e-02 1.1643556055976152e+01 -7.2218601697505878e-03
-5.4519335823823303e-02 1.1602907794617263e+01 4.7908533439020448e-02
1.3714509852441381e-02 1.1568069809971455e+01 -3.3395861030450461e-02
ITEM: ATOMS id element xu yu zu
1 Al 1.43432 1.36976 1.379
2 Ni -0.0546019 0.0688661 0.0344998
3 Al 1.49509 1.48366 4.39913
4 Ni -0.0356257 0.0860446 2.91045
5 Al 1.5965 1.35225 7.21938
6 Ni 0.00414796 0.0714703 5.80588
7 Al 1.54838 1.49373 10.0914
8 Ni 0.0476794 -0.00758391 8.58743
9 Al 1.43484 4.32315 1.47173
10 Ni -0.0726977 2.7814 0.0560465
11 Al 1.3554 4.248 4.25574
12 Ni 0.0365734 2.81088 2.817
13 Al 1.56298 4.38846 7.2383
14 Ni 0.0187129 3.02777 5.74766
15 Al 1.49533 4.38108 10.1966
16 Ni -0.0624761 2.80774 8.57415
17 Al 1.46411 7.16309 1.41583
18 Ni -0.263832 5.80104 -0.0927081
19 Al 1.43823 7.10538 4.27458
20 Ni -0.0846197 5.71248 2.79061
21 Al 1.347 7.19138 7.32898
22 Ni 0.0919002 5.76827 5.84103
23 Al 1.39052 7.18211 10.0752
24 Ni -0.0993526 5.59353 8.68562
25 Al 1.51675 10.2113 1.4623
26 Ni -0.0110463 8.73001 0.140458
27 Al 1.35191 10.2312 4.39344
28 Ni 0.0361918 8.79884 2.93262
29 Al 1.47096 10.1216 7.1232
30 Ni 0.0242252 8.62299 5.84023
31 Al 1.40929 10.2503 10.0658
32 Ni 0.138502 8.80133 8.69784
33 Al 4.34652 1.41791 1.46555
34 Ni 2.92093 0.0362461 -0.0295894
35 Al 4.3485 1.43491 4.41392
36 Ni 2.91464 0.0192164 2.87036
37 Al 4.48719 1.39671 7.21652
38 Ni 2.83161 -0.114947 5.8203
39 Al 4.40834 1.36262 10.0992
40 Ni 2.91292 -0.0285677 8.68327
41 Al 4.35044 4.30169 1.46412
42 Ni 2.85785 2.89164 -0.0234293
43 Al 4.31452 4.25938 4.34494
44 Ni 2.92536 2.90397 2.92883
45 Al 4.32962 4.36124 7.18447
46 Ni 2.97567 2.86763 5.87608
47 Al 4.4014 4.28782 10.15
48 Ni 3.06231 2.76034 8.65012
49 Al 4.31038 7.17001 1.41169
50 Ni 2.87042 5.87401 0.021571
51 Al 4.23665 7.0759 4.25207
52 Ni 2.94525 5.55494 2.88697
53 Al 4.35167 7.15426 7.28265
54 Ni 2.81301 5.82245 5.82236
55 Al 4.47807 7.2487 10.2616
56 Ni 3.06761 5.69892 8.85042
57 Al 4.37576 10.2238 1.44535
58 Ni 2.95708 8.69332 -0.0161317
59 Al 4.35209 10.0709 4.32831
60 Ni 2.74019 8.77195 2.81376
61 Al 4.31786 10.1445 7.16254
62 Ni 2.87038 8.62204 5.77242
63 Al 4.48999 10.0773 10.1046
64 Ni 2.79923 8.59343 8.72682
65 Al 7.17891 1.39115 1.50432
66 Ni 5.7819 -0.0696295 0.0451596
67 Al 7.27886 1.3583 4.37037
68 Ni 5.74768 -0.00064651 3.07459
69 Al 7.31148 1.41635 7.19209
70 Ni 5.84336 -0.043914 5.82097
71 Al 7.28287 1.46063 10.1044
72 Ni 5.919 -0.0741154 8.72201
73 Al 7.23689 4.34587 1.4309
74 Ni 5.76775 2.85628 -0.0883142
75 Al 7.31345 4.43959 4.32279
76 Ni 5.86133 2.88837 2.83214
77 Al 7.33351 4.36759 7.19015
78 Ni 5.82868 2.92663 5.88525
79 Al 7.18763 4.29177 10.1442
80 Ni 5.91986 2.8965 8.57997
81 Al 7.18697 7.22953 1.50163
82 Ni 5.74428 5.76208 0.0121311
83 Al 7.27751 7.26516 4.39489
84 Ni 5.83891 5.78113 2.89062
85 Al 7.31015 7.29726 7.24225
86 Ni 5.7636 5.80837 5.78582
87 Al 7.35908 7.24893 10.1834
88 Ni 5.89095 5.82982 8.67631
89 Al 7.23549 10.1299 1.56511
90 Ni 5.91508 8.69904 0.0597397
91 Al 7.19857 10.0885 4.24649
92 Ni 5.70955 8.56018 2.98681
93 Al 7.2836 10.1857 7.18589
94 Ni 5.71341 8.6222 5.85426
95 Al 7.23915 10.1217 10.0937
96 Ni 5.76746 8.5903 8.66954
97 Al 10.1353 1.45084 1.46483
98 Ni 8.53916 0.0274844 -0.0499543
99 Al 10.1466 1.51356 4.3624
100 Ni 8.73134 0.0347927 3.01038
101 Al 10.1249 1.4997 7.23537
102 Ni 8.73907 0.00476589 5.85241
103 Al 10.1455 1.38034 10.0146
104 Ni 8.69661 0.000137248 8.72788
105 Al 10.114 4.2257 1.34933
106 Ni 8.62916 2.79353 -0.0372749
107 Al 10.282 4.29843 4.18337
108 Ni 8.67728 2.76601 3.00242
109 Al 10.163 4.33711 7.24046
110 Ni 8.65349 2.9282 5.69616
111 Al 10.1574 4.18416 10.0869
112 Ni 8.74276 2.83763 8.68633
113 Al 10.1012 7.23347 1.43137
114 Ni 8.66211 5.80602 0.0553447
115 Al 10.1677 7.23017 4.25708
116 Ni 8.69137 5.61993 2.94114
117 Al 10.1871 7.20852 7.17748
118 Ni 8.87453 5.75999 5.74205
119 Al 10.1423 7.2147 10.0705
120 Ni 8.76754 5.79981 8.76436
121 Al 10.23 10.2547 1.46027
122 Ni 8.75876 8.79821 -0.0537
123 Al 10.3143 10.207 4.33685
124 Ni 8.73816 8.67438 2.97542
125 Al 10.2195 10.0302 7.26192
126 Ni 8.73258 8.76154 5.79656
127 Al 10.2796 10.1954 10.1191
128 Ni 8.63381 8.65215 8.59624
ITEM: TIMESTEP
2200
ITEM: NUMBER OF ATOMS
128
ITEM: BOX BOUNDS xy xz yz pp pp pp
-5.1419547140805655e-02 1.1695580768381920e+01 1.2245129421891387e-02
-5.8657381869681835e-02 1.1712926943044957e+01 5.0131771995347969e-02
-3.7258896518900464e-02 1.1619043216342803e+01 7.2485241351389076e-02
ITEM: ATOMS id element xu yu zu
1 Al 1.35112 1.40501 1.39115
2 Ni 0.04995 -0.0626655 -0.0161463
3 Al 1.40188 1.35963 4.36108
4 Ni 0.0565509 -0.163875 2.85885
5 Al 1.46954 1.2862 7.18967
6 Ni -0.0427027 -0.126356 5.7472
7 Al 1.55226 1.47054 10.1892
8 Ni -0.0831907 -0.049578 8.85404
9 Al 1.49213 4.36366 1.53699
10 Ni -0.0228242 2.88676 -0.0165272
11 Al 1.29254 4.30945 4.32888
12 Ni -0.044439 2.97462 2.90648
13 Al 1.44366 4.39504 7.19822
14 Ni -0.0041306 2.77905 5.85272
15 Al 1.50413 4.36537 10.2621
16 Ni -0.0480018 2.89609 8.87277
17 Al 1.56474 7.30804 1.35735
18 Ni 0.115964 5.75749 0.0515365
19 Al 1.4907 7.19247 4.39697
20 Ni -0.033524 5.77005 2.88982
21 Al 1.35695 7.42145 7.30331
22 Ni 0.030639 5.85157 5.90894
23 Al 1.51925 7.32467 10.1106
24 Ni 0.0847114 5.93928 8.79403
25 Al 1.53235 10.1598 1.56035
26 Ni -0.0962161 8.64569 -0.124013
27 Al 1.40948 10.1552 4.43314
28 Ni -0.106495 8.6831 2.76318
29 Al 1.41156 10.2419 7.25628
30 Ni -0.027529 8.79546 5.91724
31 Al 1.33474 10.1789 10.1568
32 Ni -0.110177 8.71821 8.74589
33 Al 4.26764 1.41032 1.47268
34 Ni 2.85904 -0.0803724 0.0290136
35 Al 4.32043 1.44846 4.33079
36 Ni 2.89196 -0.115077 2.89955
37 Al 4.37397 1.53338 7.21251
38 Ni 3.03795 0.033187 5.76203
39 Al 4.28027 1.47471 10.2452
40 Ni 2.88292 0.0425889 8.63487
41 Al 4.33718 4.41577 1.45627
42 Ni 3.00109 2.92892 0.0327973
43 Al 4.29077 4.36015 4.25385
44 Ni 2.84695 2.95182 2.94431
45 Al 4.21607 4.3379 7.12256
46 Ni 2.76268 2.83792 5.72989
47 Al 4.32269 4.4421 10.114
48 Ni 2.85299 2.93284 8.67981
49 Al 4.34746 7.23233 1.40353
50 Ni 2.94214 5.65998 -0.0545305
51 Al 4.38865 7.26106 4.32909
52 Ni 2.90945 5.92485 2.91192
53 Al 4.4123 7.33093 7.30115
54 Ni 2.9622 5.84199 5.85147
55 Al 4.39751 7.34683 10.2246
56 Ni 2.75571 5.84545 8.66841
57 Al 4.37293 10.2405 1.41535
58 Ni 2.83926 8.73299 0.000732716
59 Al 4.49692 10.2292 4.255
60 Ni 2.93177 8.75139 2.92618
61 Al 4.36214 10.2447 7.19282
62 Ni 2.8441 8.87542 5.87058
63 Al 4.4814 10.2544 10.2175
64 Ni 2.99172 8.92941 8.7244
65 Al 7.26642 1.35741 1.35711
66 Ni 5.73785 -0.011063 -0.0717144
67 Al 7.32583 1.38234 4.26232
68 Ni 5.84946 -0.0749208 2.71937
69 Al 7.2336 1.44963 7.15777
70 Ni 5.81296 -0.0256099 5.70314
71 Al 7.30793 1.4654 10.1911
72 Ni 5.73453 -0.01259 8.5998
73 Al 7.24399 4.40713 1.44934
74 Ni 5.85473 2.8745 0.0992064
75 Al 7.41167 4.45407 4.20342
76 Ni 5.78251 2.85078 2.99882
77 Al 7.18783 4.38316 7.19962
78 Ni 5.80793 2.94458 5.82834
79 Al 7.1072 4.25309 10.1456
80 Ni 5.71035 2.82993 8.76515
81 Al 7.15249 7.24027 1.41172
82 Ni 5.86625 5.88893 0.02026
83 Al 7.34351 7.33532 4.25901
84 Ni 5.77542 5.84648 2.85843
85 Al 7.33095 7.34964 7.31997
86 Ni 5.81095 5.8335 5.82825
87 Al 7.31104 7.30149 10.1365
88 Ni 5.72462 5.84847 8.71434
89 Al 7.27196 10.099 1.40703
90 Ni 5.72382 8.69807 -0.094795
91 Al 7.31482 10.1668 4.2531
92 Ni 5.90574 8.81371 2.80323
93 Al 7.34427 10.2515 7.17805
94 Ni 5.94012 8.7413 5.68997
95 Al 7.235 10.2996 10.1095
96 Ni 5.90296 8.83838 8.63879
97 Al 10.2214 1.38208 1.36715
98 Ni 8.79089 -0.165613 -0.106915
99 Al 10.1823 1.49402 4.29186
100 Ni 8.63902 -0.144725 2.85621
101 Al 10.161 1.50903 7.27651
102 Ni 8.66538 -0.00472434 5.729
103 Al 10.1376 1.47385 10.0988
104 Ni 8.71637 0.0335511 8.63624
105 Al 10.2271 4.34983 1.34726
106 Ni 8.72511 2.87192 0.0250453
107 Al 10.2425 4.44176 4.31235
108 Ni 8.77306 2.94596 2.76795
109 Al 10.2851 4.40558 7.36225
110 Ni 8.77787 2.90002 5.9027
111 Al 10.2555 4.39694 10.1765
112 Ni 8.71795 2.96858 8.68686
113 Al 10.1653 7.25011 1.33946
114 Ni 8.6867 5.73543 -0.0634824
115 Al 10.235 7.38584 4.31069
116 Ni 8.81127 5.94793 2.82434
117 Al 10.2728 7.22201 7.27294
118 Ni 8.59475 5.77484 5.73855
119 Al 10.1075 7.11378 10.2143
120 Ni 8.73216 5.80907 8.68106
121 Al 10.2611 10.1985 1.31409
122 Ni 8.56872 8.67975 -0.0576267
123 Al 10.2595 10.2802 4.22725
124 Ni 8.7972 8.77521 2.88819
125 Al 10.1814 10.1892 7.1746
126 Ni 8.79131 8.59615 5.82404
127 Al 10.1746 10.196 10.0377
128 Ni 8.83782 8.67755 8.6503
ITEM: TIMESTEP
2300
ITEM: NUMBER OF ATOMS
128
ITEM: BOX BOUNDS xy xz yz pp pp pp
-3.5648104665734030e-02 1.1621051650331065e+01 3.1401520294199028e-02
-6.6830320517459185e-03 1.1625949271535088e+01 -2.7782294452727334e-02
2.9826359890314791e-03 1.1578801683834881e+01 3.7481919659469766e-02
ITEM: ATOMS id element xu yu zu
1 Al 1.28473 1.45771 1.44506
2 Ni -0.117328 -0.0617938 0.0112973
3 Al 1.3836 1.5339 4.41972
4 Ni -0.1548 -0.0484128 2.82168
5 Al 1.38015 1.35536 7.20334
6 Ni -0.0274561 0.0165046 5.81781
7 Al 1.43953 1.4002 10.1184
8 Ni -0.0444485 0.0138644 8.71461
9 Al 1.43359 4.39387 1.53659
10 Ni 0.0633084 3.02414 0.0158433
11 Al 1.38742 4.38442 4.28858
12 Ni -0.0985914 2.85473 2.95548
13 Al 1.50538 4.39538 7.09983
14 Ni -0.095232 2.89054 5.69219
15 Al 1.48465 4.43695 10.1078
16 Ni 0.0424892 2.9752 8.65704
17 Al 1.61894 7.3658 1.4172
18 Ni 0.0754131 5.81949 -0.118043
19 Al 1.56244 7.26305 4.37999
20 Ni 0.0279834 5.92778 2.99067
21 Al 1.33371 7.33983 7.22556
22 Ni -0.0591432 5.82748 5.73177
23 Al 1.50646 7.23851 9.97869
24 Ni 0.0124152 5.80499 8.54297
25 Al 1.44235 10.2222 1.50481
26 Ni 0.137885 8.65204 -0.0730578
27 Al 1.37933 10.2076 4.29932
28 Ni -0.0187069 8.67379 3.01055
29 Al 1.4387 10.093 7.21672
30 Ni -0.0136374 8.72436 5.74344
31 Al 1.42463 10.125 10.1528
32 Ni 0.0481725 8.77648 8.64872
33 Al 4.36334 1.34847 1.41382
34 Ni 2.86814 -0.00861668 0.0725404
35 Al 4.28065 1.41666 4.3508
36 Ni 2.83369 0.0299087 2.82236
37 Al 4.26725 1.48733 7.19002
38 Ni 2.63482 -0.0578726 5.74563
39 Al 4.22383 1.50303 10.1683
40 Ni 2.92657 -0.0101098 8.69925
41 Al 4.19009 4.40873 1.46965
42 Ni 2.78307 2.77285 0.0432614
43 Al 4.32175 4.3423 4.23779
44 Ni 2.9514 2.79825 2.89534
45 Al 4.28998 4.25856 7.117
46 Ni 2.99465 2.92178 5.7503
47 Al 4.20805 4.38177 10.1787
48 Ni 2.89493 2.93052 8.72268
49 Al 4.42632 7.17326 1.48547
50 Ni 2.87687 5.96871 0.0873929
51 Al 4.36307 7.33988 4.39374
52 Ni 2.89457 5.80477 2.94009
53 Al 4.41834 7.25823 7.20377
54 Ni 2.89633 5.85783 5.71862
55 Al 4.32042 7.21362 10.0941
56 Ni 3.05215 5.78757 8.54359
57 Al 4.34786 10.1508 1.52144
58 Ni 3.02988 8.68241 -0.119461
59 Al 4.43784 10.2738 4.34178
60 Ni 2.99437 8.6625 2.85274
61 Al 4.31408 10.2541 7.29554
62 Ni 2.90954 8.77325 5.77573
63 Al 4.47325 10.2121 10.2306
64 Ni 2.95654 8.63586 8.55421
65 Al 7.21922 1.47941 1.42176
66 Ni 5.87211 -0.0153562 0.0249091
67 Al 7.33834 1.31462 4.30309
68 Ni 5.87558 -0.0114489 3.00753
69 Al 7.27605 1.48907 7.31323
70 Ni 5.88465 0.0795796 5.84121
71 Al 7.25627 1.46811 10.2011
72 Ni 5.84563 0.152057 8.7612
73 Al 7.18095 4.38274 1.38781
74 Ni 5.6953 2.84329 -0.0412972
75 Al 7.25547 4.36617 4.34419
76 Ni 5.77882 2.97517 2.76784
77 Al 7.22684 4.30316 7.14605
78 Ni 5.74202 2.75255 5.70682
79 Al 7.09144 4.29467 10.1853
80 Ni 5.82967 2.93787 8.68098
81 Al 7.08713 7.16042 1.35648
82 Ni 5.60676 5.69372 -0.0831949
83 Al 7.2861 7.28056 4.31297
84 Ni 5.87661 5.76938 2.97311
85 Al 7.24711 7.2796 7.3108
86 Ni 5.7751 5.74036 5.77553
87 Al 7.18459 7.20916 10.1473
88 Ni 5.82039 5.74742 8.64426
89 Al 7.24495 10.0728 1.59095
90 Ni 5.82447 8.74552 -0.0297277
91 Al 7.29558 10.1625 4.33363
92 Ni 5.80398 8.66109 2.95679
93 Al 7.24916 10.1704 7.31163
94 Ni 5.82286 8.7821 5.83069
95 Al 7.2252 10.2061 10.1961
96 Ni 5.7027 8.68677 8.7784
97 Al 10.1204 1.54425 1.39056
98 Ni 8.68871 0.189659 0.0902045
99 Al 10.1111 1.42837 4.2867
100 Ni 8.81859 -0.0462009 2.82361
101 Al 10.0049 1.55517 7.23824
102 Ni 8.75438 -0.0296078 5.86958
103 Al 10.1733 1.59156 10.1348
104 Ni 8.70208 -0.042498 8.80221
105 Al 10.2234 4.42394 1.4821
106 Ni 8.73902 3.02306 -0.0227084
107 Al 10.1873 4.42944 4.32148
108 Ni 8.71176 3.02191 2.97435
109 Al 10.1687 4.29468 7.30593
110 Ni 8.6638 2.82997 5.69282
111 Al 10.1833 4.46254 10.1832
112 Ni 8.75324 2.92383 8.83367
113 Al 10.1981 7.20959 1.50679
114 Ni 8.70453 5.85973 0.0178318
115 Al 9.99238 7.29843 4.36407
116 Ni 8.57453 5.69686 2.89099
117 Al 10.1571 7.3479 7.29802
118 Ni 8.74877 5.77296 5.98605
119 Al 10.1254 7.14967 10.1282
120 Ni 8.6617 5.81215 8.68867
121 Al 10.0928 10.0082 1.40154
122 Ni 8.8684 8.56701 -0.0515137
123 Al 10.1144 10.1615 4.36295
124 Ni 8.64052 8.56044 2.77596
125 Al 10.1558 10.1036 7.27009
126 Ni 8.56567 8.75281 5.86384
127 Al 10.1652 10.1941 10.0895
128 Ni 8.52409 8.71502 8.80124
ITEM: TIMESTEP
2400
ITEM: NUMBER OF ATOMS
128
ITEM: BOX BOUNDS xy xz yz pp pp pp
-7.0811403489323549e-02 1.1640053034189087e+01 5.9805843892107077e-03
-1.0719824622841877e-01 1.1637240432353408e+01 -1.8523273513298154e-02
-3.1606041252635997e-02 1.1613390361076533e+01 -5.1742133698878021e-02
ITEM: ATOMS id element xu yu zu
1 Al 1.49207 1.41532 1.39607
2 Ni 0.00661189 -0.0148512 -0.0391841
3 Al 1.36098 1.41711 4.38972
4 Ni 0.00685923 -0.0284493 2.85521
5 Al 1.2791 1.31308 7.11672
6 Ni -0.116597 -0.108083 5.73537
7 Al 1.4352 1.39926 10.1742
8 Ni 0.0240548 -0.102295 8.669
9 Al 1.40072 4.29946 1.32707
10 Ni -0.0739666 2.83028 -0.0364461
11 Al 1.37577 4.41419 4.36438
12 Ni 0.0637462 2.92703 2.76358
13 Al 1.41705 4.32313 7.22737
14 Ni -0.0498711 2.94098 5.82784
15 Al 1.36696 4.26271 10.1102
16 Ni -0.123136 2.86191 8.6177
17 Al 1.50695 7.15826 1.46755
18 Ni -0.0946943 5.81484 -0.0150955
19 Al 1.43632 7.26786 4.41572
20 Ni -0.139586 5.6269 2.84003
21 Al 1.3562 7.29359 7.3271
22 Ni -0.00525544 5.76025 5.84729
23 Al 1.41399 7.24236 10.1943
24 Ni -0.0897716 5.7304 8.67252
25 Al 1.30556 10.245 1.41875
26 Ni -0.133082 8.68504 -0.0335085
27 Al 1.32037 10.2365 4.42192
28 Ni -0.0765171 8.75756 2.84687
29 Al 1.43255 10.1748 7.19966
30 Ni -0.0590457 8.6581 5.86954
31 Al 1.33128 10.1245 10.1372
32 Ni 0.0478717 8.68436 8.64441
33 Al 4.35709 1.35384 1.36684
34 Ni 2.88272 -0.0436476 -0.135455
35 Al 4.27991 1.38152 4.32635
36 Ni 2.94542 -0.0950589 2.85944
37 Al 4.39415 1.35397 7.20261
38 Ni 3.06981 0.037957 5.8661
39 Al 4.27255 1.36847 10.1571
40 Ni 2.73397 0.0746285 8.63525
41 Al 4.29973 4.2707 1.51004
42 Ni 2.86447 2.94955 -0.133649
43 Al 4.32389 4.18035 4.40488
44 Ni 2.7297 2.86448 2.87608
45 Al 4.24719 4.21698 7.32613
46 Ni 2.82892 2.65028 5.75348
47 Al 4.38737 4.28014 10.2656
48 Ni 2.93335 2.78647 8.56429
49 Al 4.23229 7.21842 1.44673
50 Ni 2.8802 5.70071 -0.120314
51 Al 4.32149 7.22365 4.27769
52 Ni 2.93712 5.56235 2.84171
53 Al 4.2899 7.22437 7.25974
54 Ni 2.97338 5.58565 5.79663
55 Al 4.28027 7.14607 10.1076
56 Ni 2.77674 5.74618 8.7303
57 Al 4.29514 10.1174 1.45406
58 Ni 2.75628 8.74537 0.100773
59 Al 4.39883 10.1897 4.26183
60 Ni 2.74117 8.91864 2.91827
61 Al 4.25838 10.1008 7.29284
62 Ni 2.91309 8.61563 5.73622
63 Al 4.38186 10.0612 10.2229
64 Ni 2.85378 8.68268 8.75771
65 Al 7.25988 1.41941 1.27835
66 Ni 5.81354 0.0129846 -0.0371724
67 Al 7.24438 1.32197 4.48608
68 Ni 5.77262 -0.0653333 2.75284
69 Al 7.19784 1.31985 7.34294
70 Ni 5.77478 -0.174182 5.72503
71 Al 7.2591 1.36355 10.2295
72 Ni 5.83009 -0.173645 8.80566
73 Al 7.30113 4.35909 1.52441
74 Ni 5.80312 2.9143 0.00222238
75 Al 7.22967 4.34075 4.24919
76 Ni 5.8285 2.7392 2.99619
77 Al 7.23407 4.34504 7.31535
78 Ni 5.88896 2.94634 5.97171
79 Al 7.34432 4.28351 10.2011
80 Ni 5.75406 2.75013 8.7163
81 Al 7.11427 7.23239 1.46289
82 Ni 5.79226 5.80627 0.0651896
83 Al 7.22707 7.35617 4.2141
84 Ni 5.68268 5.72999 2.76058
85 Al 7.24071 7.19192 7.24353
86 Ni 5.82139 5.73992 5.83861
87 Al 7.21037 7.22335 10.1351
88 Ni 5.79915 5.779 8.7618
89 Al 7.22614 10.1733 1.50824
90 Ni 5.82276 8.66544 -0.0111779
91 Al 7.16635 10.1812 4.30918
92 Ni 5.80142 8.68389 2.86074
93 Al 7.33181 10.1517 7.24911
94 Ni 5.7454 8.66053 5.77754
95 Al 7.23325 10.1048 10.1014
96 Ni 5.84972 8.75161 8.65744
97 Al 10.1409 1.34785 1.44653
98 Ni 8.81436 -0.143431 -0.0816971
99 Al 10.123 1.34843 4.32522
100 Ni 8.53086 0.0183405 2.91451
101 Al 10.0779 1.39529 7.23992
102 Ni 8.64793 -0.0521245 5.82033
103 Al 10.1506 1.46736 10.1645
104 Ni 8.69961 0.0312506 8.74645
105 Al 10.1355 4.22711 1.45775
106 Ni 8.79901 2.85915 -0.0651599
107 Al 10.1917 4.13649 4.26239
108 Ni 8.65362 2.76853 2.82478
109 Al 10.142 4.36276 7.22866
110 Ni 8.72579 2.88677 5.88942
111 Al 10.249 4.28045 10.1474
112 Ni 8.70553 2.84308 8.60482
113 Al 10.0956 7.28363 1.43776
114 Ni 8.85605 5.70442 -0.100174
115 Al 10.1747 7.15662 4.32364
116 Ni 8.78359 5.88829 2.88379
117 Al 10.2551 7.2247 7.3083
118 Ni 8.57217 5.80968 5.60289
119 Al 10.1531 7.16809 10.1526
120 Ni 8.72056 5.85372 8.66577
121 Al 9.98188 10.1491 1.57075
122 Ni 8.55105 8.64711 0.00520612
123 Al 10.1185 10.156 4.46696
124 Ni 8.73443 8.75849 2.99748
125 Al 10.201 10.1579 7.37104
126 Ni 8.74652 8.77656 5.88724
127 Al 10.2281 10.2364 10.1354
128 Ni 8.76183 8.64546 8.65095
ITEM: TIMESTEP
2500
ITEM: NUMBER OF ATOMS
128
ITEM: BOX BOUNDS xy xz yz pp pp pp
-2.3713466021440699e-02 1.1618497158030399e+01 -5.3328345772854493e-03
-2.8627049054524178e-02 1.1629145248284360e+01 1.8332206762392746e-02
1.1589168842624176e-02 1.1570195150981267e+01 1.8733879405966890e-02
ITEM: ATOMS id element xu yu zu
1 Al 1.48561 1.45865 1.53248
2 Ni -0.00362846 -0.00471245 -0.048895
3 Al 1.5663 1.51624 4.49399
4 Ni 0.0370672 0.0260875 2.9843
5 Al 1.50571 1.46691 7.22915
6 Ni 0.0911288 0.00451516 5.80665
7 Al 1.51066 1.4108 10.1809
8 Ni -0.128895 -0.0538502 8.60571
9 Al 1.44535 4.16381 1.51068
10 Ni -0.0751707 2.83265 -0.0375817
11 Al 1.46166 4.32218 4.40931
12 Ni -0.16131 2.76049 2.96701
13 Al 1.37399 4.42027 7.35291
14 Ni -0.0584358 2.81938 5.83683
15 Al 1.36748 4.38549 10.2194
16 Ni -0.0232454 2.85475 8.74378
17 Al 1.42207 7.22391 1.36023
18 Ni -0.0819765 5.63066 0.0603547
19 Al 1.41341 7.33878 4.43055
20 Ni 0.022459 5.80074 2.93208
21 Al 1.34219 7.31102 7.29951
22 Ni 0.0354068 5.76982 5.7465
23 Al 1.47969 7.35425 10.1563
24 Ni 0.0214924 5.90525 8.75355
25 Al 1.54286 10.1549 1.48581
26 Ni 0.059877 8.81751 0.0282597
27 Al 1.4401 10.0868 4.23935
28 Ni 0.108368 8.7663 2.85564
29 Al 1.30292 10.1615 7.32611
30 Ni 0.106484 8.78049 5.70488
31 Al 1.38132 10.2138 10.0466
32 Ni -0.117568 8.66081 8.68173
33 Al 4.44768 1.38412 1.44446
34 Ni 2.87992 0.00412023 0.0733718
35 Al 4.37604 1.46545 4.44604
36 Ni 2.93765 0.117671 2.96189
37 Al 4.30882 1.46383 7.2277
38 Ni 2.80549 -0.122003 5.75323
39 Al 4.37195 1.45774 10.0816
40 Ni 3.04285 -0.195588 8.70296
41 Al 4.39843 4.4787 1.4623
42 Ni 2.99358 2.7948 -0.00471123
43 Al 4.30524 4.41015 4.36941
44 Ni 3.05307 2.88902 2.95659
45 Al 4.33792 4.41297 7.32937
46 Ni 3.00585 3.15867 5.93969
47 Al 4.40521 4.32672 10.2388
48 Ni 2.76936 2.95324 8.82466
49 Al 4.37376 7.21279 1.41753
50 Ni 2.85838 5.74927 0.0737496
51 Al 4.30035 7.30931 4.33966
52 Ni 2.80232 5.86012 2.87935
53 Al 4.26758 7.31315 7.26445
54 Ni 2.83332 5.93367 5.74321
55 Al 4.29317 7.19026 10.1206
56 Ni 2.91337 5.8572 8.79554
57 Al 4.34482 10.1386 1.44329
58 Ni 2.84996 8.68207 -0.0696419
59 Al 4.33863 10.1324 4.24251
60 Ni 2.93439 8.3927 2.76728
61 Al 4.30149 10.0559 7.13082
62 Ni 2.83423 8.67724 5.87831
63 Al 4.35104 10.1144 10.0771
64 Ni 2.84384 8.66365 8.68667
65 Al 7.21736 1.3738 1.34504
66 Ni 5.6793 -0.104834 -0.0871002
67 Al 7.26202 1.34359 4.3346
68 Ni 5.72492 -0.0458925 2.98254
69 Al 7.33607 1.46113 7.2686
70 Ni 5.79179 -0.00687615 5.87537
71 Al 7.24254 1.40468 10.0294
72 Ni 5.75204 -0.0300892 8.60267
73 Al 7.26725 4.39368 1.51215
74 Ni 5.82394 2.78205 -0.0895223
75 Al 7.17707 4.35881 4.35117
76 Ni 5.80967 3.01983 2.67801
77 Al 7.21655 4.38709 7.21639
78 Ni 5.74025 2.94441 5.67535
79 Al 7.31078 4.45845 10.2471
80 Ni 5.9218 2.99662 8.5916
81 Al 7.15891 7.38319 1.54438
82 Ni 5.86585 5.82809 -0.0592944
83 Al 7.25695 7.27213 4.27822
84 Ni 5.88554 5.85073 2.91298
85 Al 7.20774 7.19438 7.25061
86 Ni 5.6996 5.91037 5.72971
87 Al 7.37294 7.41319 10.2136
88 Ni 5.81279 5.95763 8.68824
89 Al 7.29056 10.1901 1.4596
90 Ni 5.80546 8.70331 0.0770203
91 Al 7.13488 10.1586 4.26118
92 Ni 5.74016 8.71128 2.85437
93 Al 7.24045 10.037 7.13861
94 Ni 5.75896 8.65781 5.72193
95 Al 7.15208 10.1425 10.0192
96 Ni 5.74531 8.60567 8.79217
97 Al 10.1039 1.43067 1.50403
98 Ni 8.62077 0.0195576 -0.0247242
99 Al 10.0978 1.3849 4.4313
100 Ni 8.76595 -0.117871 2.89562
101 Al 10.1117 1.36893 7.26214
102 Ni 8.69795 -0.0141076 5.6805
103 Al 10.0603 1.47192 10.1866
104 Ni 8.68527 -0.253603 8.49939
105 Al 10.1285 4.27512 1.55357
106 Ni 8.54127 2.78569 -0.0369908
107 Al 10.221 4.23113 4.32508
108 Ni 8.70053 2.87492 2.88105
109 Al 10.1848 4.25603 7.22694
110 Ni 8.61074 2.95111 5.7269
111 Al 10.178 4.3422 10.2311
112 Ni 8.67456 2.96627 8.71749
113 Al 10.1185 7.28444 1.4373
114 Ni 8.65813 5.87676 0.11509
115 Al 10.1814 7.18484 4.22692
116 Ni 8.72255 5.76624 2.94781
117 Al 10.2549 7.234 7.26759
118 Ni 8.80351 5.80357 5.88905
119 Al 10.153 7.1415 10.1995
120 Ni 8.7508 5.82583 8.7267
121 Al 10.1753 10.2486 1.5612
122 Ni 8.92634 8.85292 0.0936343
123 Al 10.1519 10.1187 4.41867
124 Ni 8.77168 8.73017 2.84993
125 Al 10.1286 10.0092 7.13558
126 Ni 8.67951 8.59692 5.58404
127 Al 10.1336 10.3276 10.1241
128 Ni 8.66812 8.69164 8.61451
ITEM: TIMESTEP
2600
ITEM: NUMBER OF ATOMS
128
ITEM: BOX BOUNDS xy xz yz pp pp pp
-3.4975877363103494e-02 1.1640218762280897e+01 2.4995358279006549e-02
-5.3369649581859413e-02 1.1705060870363219e+01 -1.5367931850642910e-03
-6.0611200356719408e-03 1.1587845439859557e+01 6.9906900957475232e-02
ITEM: ATOMS id element xu yu zu
1 Al 1.45489 1.40932 1.43933
2 Ni -0.0439847 -0.00142333 -0.00707986
3 Al 1.44367 1.2271 4.33232
4 Ni -0.0911444 0.0590912 2.79665
5 Al 1.4106 1.52783 7.13066
6 Ni -0.0720315 0.0449111 5.85314
7 Al 1.44346 1.52695 10.1279
8 Ni 0.00442591 -0.00759498 8.73471
9 Al 1.43884 4.33507 1.37084
10 Ni 0.0164501 2.83451 0.040444
11 Al 1.48252 4.23419 4.35378
12 Ni 0.00395251 2.94487 2.87684
13 Al 1.36175 4.30796 7.29361
14 Ni -0.000472113 2.95816 5.77614
15 Al 1.28637 4.31452 10.1063
16 Ni -0.0273846 2.89344 8.63231
17 Al 1.51367 7.308 1.41461
18 Ni -0.0142727 5.80515 -0.0275665
19 Al 1.42369 7.21136 4.37906
20 Ni -0.0526617 5.74315 2.84119
21 Al 1.40212 7.26981 7.26663
22 Ni -0.108824 5.82568 5.86206
23 Al 1.44929 7.30927 10.0454
24 Ni -0.130999 5.67097 8.6964
25 Al 1.46479 10.1781 1.37517
26 Ni -0.00538063 8.7204 -0.0347903
27 Al 1.34839 10.1168 4.3911
28 Ni -0.0220647 8.73531 2.96646
29 Al 1.36465 10.1534 7.27087
30 Ni -0.073633 8.651 5.78253
31 Al 1.49612 10.275 10.1548
32 Ni 0.0827574 8.87704 8.8075
33 Al 4.40601 1.43647 1.46984
34 Ni 2.94187 -0.0124361 -0.0937779
35 Al 4.32519 1.42191 4.38003
36 Ni 2.88516 -0.0264371 2.80695
37 Al 4.33849 1.38925 7.20225
38 Ni 2.90779 0.0276122 5.96427
39 Al 4.39143 1.47484 10.1725
40 Ni 2.80503 0.123941 8.62204
41 Al 4.40218 4.34287 1.32002
42 Ni 2.78279 2.85893 0.00710899
43 Al 4.34584 4.31683 4.34884
44 Ni 2.84504 2.90342 2.81355
45 Al 4.35135 4.33502 7.07578
46 Ni 2.87359 2.84739 5.6729
47 Al 4.28327 4.35269 10.0876
48 Ni 2.98918 2.9251 8.50037
49 Al 4.30113 7.39657 1.51624
50 Ni 2.88317 5.86167 -0.0686615
51 Al 4.27097 7.24956 4.34967
52 Ni 2.9534 5.65786 2.78204
53 Al 4.32301 7.30277 7.28372
54 Ni 2.89345 5.68423 5.8167
55 Al 4.3201 7.37065 10.1148
56 Ni 2.79324 5.78571 8.65209
57 Al 4.50432 10.2606 1.42663
58 Ni 2.90098 8.76208 0.0678872
59 Al 4.44934 10.1821 4.36296
60 Ni 2.81066 9.07436 2.95097
61 Al 4.32652 10.1343 7.16443
62 Ni 2.88407 8.67572 5.7288
63 Al 4.40268 10.3326 10.0028
64 Ni 2.93534 8.73218 8.69028
65 Al 7.22468 1.43399 1.45089
66 Ni 5.95217 0.0175692 0.104861
67 Al 7.29938 1.3985 4.46381
68 Ni 5.77494 -0.0673331 2.97563
69 Al 7.28297 1.49156 7.25635
70 Ni 5.77685 0.00435259 5.65981
71 Al 7.26476 1.48825 10.1793
72 Ni 5.82755 0.0310214 8.60968
73 Al 7.18289 4.23494 1.40467
74 Ni 5.76931 2.82485 -0.0242128
75 Al 7.21103 4.35177 4.35686
76 Ni 5.7956 2.88985 3.1174
77 Al 7.3339 4.31877 7.31127
78 Ni 5.78743 2.97603 5.88702
79 Al 7.32505 4.40632 10.1744
80 Ni 5.70512 2.86407 8.74813
81 Al 7.25074 7.31705 1.55327
82 Ni 5.76727 5.81419 0.0386612
83 Al 7.31888 7.24737 4.36744
84 Ni 5.8147 5.82075 2.80156
85 Al 7.23142 7.2735 7.23438
86 Ni 5.90239 5.78954 5.79908
87 Al 7.24435 7.25212 10.1359
88 Ni 5.85863 5.71048 8.70092
89 Al 7.35305 10.1354 1.53723
90 Ni 5.80781 8.76392 -0.0899232
91 Al 7.2333 10.1633 4.36202
92 Ni 5.76656 8.70427 2.95571
93 Al 7.33355 10.2509 7.34566
94 Ni 5.80115 8.65463 5.76039
95 Al 7.2024 10.2221 10.1408
96 Ni 5.89974 8.77459 8.59347
97 Al 10.0963 1.51697 1.52535
98 Ni 8.67995 -0.0655674 0.168271
99 Al 10.161 1.54498 4.34733
100 Ni 8.64461 0.0626173 2.95158
101 Al 10.2275 1.41472 7.23434
102 Ni 8.64007 -0.0721274 5.88157
103 Al 10.0421 1.36359 10.1999
104 Ni 8.62093 0.126639 8.69757
105 Al 10.1613 4.27172 1.49036
106 Ni 8.76163 2.82373 -0.0592097
107 Al 10.2291 4.3918 4.25168
108 Ni 8.68426 2.93647 2.96265
109 Al 10.1395 4.28337 7.1613
110 Ni 8.77301 2.89001 5.82618
111 Al 10.1761 4.29805 10.1782
112 Ni 8.66536 2.80975 8.64608
113 Al 10.1212 7.29203 1.35613
114 Ni 8.83429 5.72583 -0.102138
115 Al 10.1432 7.316 4.26193
116 Ni 8.73391 5.79036 2.74153
117 Al 10.2767 7.38884 7.3699
118 Ni 8.71169 5.77938 5.7642
119 Al 10.1934 7.22849 10.0801
120 Ni 8.69363 5.92217 8.62422
121 Al 10.065 10.1775 1.39697
122 Ni 8.64227 8.6132 0.016114
123 Al 10.1465 10.2959 4.32663
124 Ni 8.79064 8.7356 2.89199
125 Al 10.196 10.2796 7.23387
126 Ni 8.7716 8.91832 5.91301
127 Al 10.1892 10.2494 10.108
128 Ni 8.71147 8.76681 8.76781
ITEM: TIMESTEP
2700
ITEM: NUMBER OF ATOMS
128
ITEM: BOX BOUNDS xy xz yz pp pp pp
-4.7239733673088036e-02 1.1635766019458529e+01 2.4340532626612944e-02
-6.4417654397337543e-02 1.1626921828620699e+01 -1.7598566665031064e-02
-2.1402994245763196e-02 1.1603187314069658e+01 -1.9280145600521770e-02
ITEM: ATOMS id element xu yu zu
1 Al 1.4042 1.43193 1.43275
2 Ni -0.044974 -0.115192 0.0115866
3 Al 1.31141 1.31861 4.32786
4 Ni -0.070852 -0.192895 2.97292
5 Al 1.39843 1.36397 7.14033
6 Ni -0.115269 -0.128456 5.75003
7 Al 1.4075 1.37173 10.239
8 Ni -0.022555 -0.0323634 8.71815
9 Al 1.44105 4.34474 1.39841
10 Ni 0.0333441 2.93368 -0.0362928
11 Al 1.40294 4.27196 4.31357
12 Ni -0.0723887 2.91402 2.77393
13 Al 1.42559 4.25173 7.24004
14 Ni -0.132036 2.83102 5.73395
15 Al 1.35265 4.2948 10.073
16 Ni 0.01078 2.93642 8.69036
17 Al 1.43273 7.31199 1.33656
18 Ni 0.0492522 5.90662 -0.0577603
19 Al 1.37007 7.33055 4.44235
20 Ni -0.0222602 5.8992 2.85902
21 Al 1.52904 7.16978 7.15016
22 Ni 0.0329362 5.81242 5.79723
23 Al 1.46422 7.1856 10.0221
24 Ni 0.186453 5.86588 8.61906
25 Al 1.53875 10.0504 1.45089
26 Ni -0.0352891 8.68329 -0.00453125
27 Al 1.51937 10.033 4.28532
28 Ni -0.0977617 8.61753 2.85086
29 Al 1.353 10.105 7.29789
30 Ni 0.0160817 8.79243 5.91956
31 Al 1.40337 10.0937 10.1485
32 Ni -0.0571903 8.6428 8.70735
33 Al 4.28056 1.35679 1.43372
34 Ni 2.83884 -0.127699 0.0821502
35 Al 4.44671 1.434 4.2942
36 Ni 2.77356 -0.0226293 2.87268
37 Al 4.20273 1.43833 7.18859
38 Ni 2.86126 5.9848e-05 5.59969
39 Al 4.38531 1.4305 10.1267
40 Ni 2.9648 -0.108288 8.75088
41 Al 4.29422 4.3082 1.46573
42 Ni 2.99309 2.88063 -0.0582117
43 Al 4.35291 4.26392 4.3719
44 Ni 2.81015 2.82595 2.93353
45 Al 4.33688 4.24653 7.10174
46 Ni 2.79938 2.90158 5.77486
47 Al 4.36006 4.26323 10.0091
48 Ni 2.74499 2.8084 8.80572
49 Al 4.35918 7.22823 1.42461
50 Ni 2.97206 5.67939 0.022471
51 Al 4.3967 7.31139 4.37066
52 Ni 2.83137 5.90989 2.99086
53 Al 4.32638 7.383 7.23514
54 Ni 2.95226 5.89059 5.70617
55 Al 4.21714 7.32359 10.1345
56 Ni 2.97975 5.83196 8.62575
57 Al 4.4022 10.1504 1.60738
58 Ni 2.91254 8.69493 -0.065974
59 Al 4.43729 10.0743 4.41795
60 Ni 2.94656 8.42832 2.8695
61 Al 4.31182 10.2305 7.28591
62 Ni 2.87072 8.72092 5.83773
63 Al 4.32284 10.2121 10.1917
64 Ni 2.89655 8.74759 8.63255
65 Al 7.296 1.35858 1.28579
66 Ni 5.61457 -0.0246267 -0.0425598
67 Al 7.33546 1.35639 4.29168
68 Ni 5.90802 0.0213014 2.75824
69 Al 7.3395 1.3504 7.27543
70 Ni 5.80735 -0.118148 5.91661
71 Al 7.26822 1.4272 10.1702
72 Ni 5.75419 -0.0988887 8.8434
73 Al 7.17992 4.3266 1.41975
74 Ni 5.81491 2.93868 0.06635
75 Al 7.18693 4.32828 4.29469
76 Ni 5.8571 2.87322 2.73169
77 Al 7.32077 4.29679 7.2067
78 Ni 5.88279 2.80632 5.67681
79 Al 7.22999 4.22317 10.1213
80 Ni 5.87322 2.82637 8.64023
81 Al 7.35164 7.2409 1.46735
82 Ni 5.77363 5.70347 -0.0549478
83 Al 7.17584 7.1567 4.36482
84 Ni 5.61391 5.6917 2.93963
85 Al 7.17427 7.27386 7.24678
86 Ni 5.74103 5.7698 5.83503
87 Al 7.21178 7.23227 10.1334
88 Ni 5.75557 5.80335 8.63842
89 Al 7.28016 10.1261 1.37006
90 Ni 5.7289 8.59887 0.0303822
91 Al 7.26223 10.2817 4.35917
92 Ni 5.86335 8.79376 2.9285
93 Al 7.36277 10.2389 7.3933
94 Ni 5.7743 8.76686 5.82572
95 Al 7.15635 10.1019 10.2104
96 Ni 5.69316 8.76635 8.74932
97 Al 10.1478 1.44975 1.39113
98 Ni 8.70576 0.0685241 -0.0602753
99 Al 10.132 1.49538 4.16721
100 Ni 8.74846 -0.145757 2.8145
101 Al 10.2252 1.44608 7.16892
102 Ni 8.80618 -0.0187714 5.72892
103 Al 10.1069 1.38563 10.1677
104 Ni 8.75685 -0.10959 8.82506
105 Al 10.1873 4.37372 1.47944
106 Ni 8.70233 3.01442 0.0487145
107 Al 10.1753 4.39359 4.3297
108 Ni 8.80082 2.94278 2.8216
109 Al 10.2174 4.27093 7.16561
110 Ni 8.67342 2.82213 5.79044
111 Al 10.2271 4.44976 10.2355
112 Ni 8.7836 2.90147 8.77124
113 Al 10.1068 7.2584 1.38695
114 Ni 8.60037 5.8269 -0.0422296
115 Al 10.2103 7.32636 4.37863
116 Ni 8.74833 5.82755 2.9991
117 Al 10.2566 7.20916 7.36546
118 Ni 8.62063 5.79309 5.86227
119 Al 10.0824 7.21143 10.1571
120 Ni 8.6511 5.63963 8.78079
121 Al 9.97546 10.1296 1.32937
122 Ni 8.66576 8.77359 -0.0632183
123 Al 10.1307 10.0965 4.30602
124 Ni 8.60405 8.61948 2.93715
125 Al 10.1205 10.2483 7.16513
126 Ni 8.7352 8.561 5.82752
127 Al 10.2656 10.1042 10.1063
128 Ni 8.69306 8.76124 8.68661
ITEM: TIMESTEP
2800
ITEM: NUMBER OF ATOMS
128
ITEM: BOX BOUNDS xy xz yz pp pp pp
-5.3474127524646420e-03 1.1602877912666433e+01 3.4017832250337571e-03
-9.1578604437435401e-02 1.1601015624243384e+01 1.2344396865089785e-02
-8.0834710800727905e-03 1.1589867790903968e+01 -7.2347300017945343e-02
ITEM: ATOMS id element xu yu zu
1 Al 1.3955 1.47018 1.46732
2 Ni 0.0329715 -0.058742 3.12675e-05
3 Al 1.44593 1.51764 4.32061
4 Ni -0.0227345 -0.0223777 2.84439
5 Al 1.37443 1.41418 7.22892
6 Ni 0.00717991 3.77334e-05 5.86846
7 Al 1.37296 1.47783 10.185
8 Ni -0.0818854 -0.124153 8.66563
9 Al 1.40241 4.34175 1.48683
10 Ni -0.0493774 2.91548 0.141657
11 Al 1.45749 4.37886 4.38986
12 Ni -0.0998632 2.88405 2.95575
13 Al 1.44933 4.23944 7.28701
14 Ni 0.0815657 2.878 5.88135
15 Al 1.39059 4.24153 10.0011
16 Ni 0.00575979 2.80117 8.75423
17 Al 1.40817 7.20024 1.48466
18 Ni -0.00241702 5.7027 -0.0120124
19 Al 1.58438 7.34361 4.41924
20 Ni -0.0329757 5.75981 2.94971
21 Al 1.51024 7.14342 7.24424
22 Ni -0.0094271 5.72411 5.90005
23 Al 1.42425 7.07958 10.1303
24 Ni -0.0590787 5.69533 8.77118
25 Al 1.5298 10.1633 1.33202
26 Ni 0.0567543 8.6267 -0.00404544
27 Al 1.42121 10.2474 4.30263
28 Ni 0.112779 8.62876 2.95008
29 Al 1.41753 10.0175 7.28939
30 Ni -0.0178111 8.53396 5.70112
31 Al 1.47184 10.0506 10.1299
32 Ni 0.0502968 8.69657 8.62815
33 Al 4.37049 1.35006 1.37952
34 Ni 2.79578 0.0762337 -0.0144223
35 Al 4.3263 1.46832 4.38565
36 Ni 2.92811 0.0913071 2.89589
37 Al 4.21679 1.38155 7.20195
38 Ni 2.80482 -0.110077 5.77211
39 Al 4.3291 1.21244 10.1501
40 Ni 2.83233 -0.0372699 8.74911
41 Al 4.40631 4.24367 1.42216
42 Ni 2.73133 2.9111 0.0880392
43 Al 4.46024 4.24859 4.44205
44 Ni 2.96765 2.88077 2.88778
45 Al 4.33249 4.23753 7.23593
46 Ni 2.94029 2.80242 5.83253
47 Al 4.36235 4.16836 10.1942
48 Ni 2.90799 2.80197 8.64371
49 Al 4.32987 7.18076 1.45626
50 Ni 2.93171 5.87446 -0.0268456
51 Al 4.31672 7.24124 4.28819
52 Ni 2.93643 5.61775 2.9343
53 Al 4.32433 7.28366 7.16015
54 Ni 2.87432 5.69903 5.89853
55 Al 4.3097 7.30416 10.0638
56 Ni 2.89836 5.75798 8.73318
57 Al 4.37148 10.2008 1.44354
58 Ni 2.90211 8.60576 0.108054
59 Al 4.37347 10.0768 4.40712
60 Ni 2.88655 8.81839 2.85788
61 Al 4.38768 10.1614 7.32213
62 Ni 2.97373 8.74285 5.76743
63 Al 4.42792 10.1536 10.1038
64 Ni 2.93711 8.70259 8.73306
65 Al 7.26942 1.3889 1.39179
66 Ni 5.90256 -0.0200717 -0.0140585
67 Al 7.22755 1.46584 4.28323
68 Ni 5.70161 -0.0784957 2.86097
69 Al 7.30899 1.43372 7.22472
70 Ni 5.91492 0.0735839 5.64697
71 Al 7.31741 1.34065 10.1191
72 Ni 5.79164 -0.00716293 8.60322
73 Al 7.17792 4.22514 1.34854
74 Ni 5.74934 2.80113 -0.106625
75 Al 7.21802 4.32471 4.40282
76 Ni 5.75805 2.90211 2.97614
77 Al 7.32358 4.33659 7.18169
78 Ni 5.78934 2.77229 5.92169
79 Al 7.2286 4.28743 10.0346
80 Ni 5.80482 2.83244 8.73325
81 Al 7.40178 7.33703 1.37706
82 Ni 5.80212 5.78246 0.0853883
83 Al 7.20173 7.28552 4.36786
84 Ni 5.9825 5.7757 3.03003
85 Al 7.13625 7.2425 7.08592
86 Ni 5.7523 5.70761 5.78454
87 Al 7.27532 7.11198 10.0829
88 Ni 5.79173 5.70664 8.65073
89 Al 7.28307 10.0954 1.35348
90 Ni 5.84301 8.78753 -0.0408498
91 Al 7.19454 10.2506 4.17026
92 Ni 5.67251 8.64908 2.80835
93 Al 7.26742 10.1803 7.34427
94 Ni 5.75981 8.76167 5.74083
95 Al 7.295 10.0669 10.0558
96 Ni 5.86182 8.61614 8.68056
97 Al 10.0951 1.38199 1.44944
98 Ni 8.76297 -0.153257 -0.0271042
99 Al 10.1174 1.33311 4.28029
100 Ni 8.70574 -0.0760989 2.83584
101 Al 10.1611 1.42199 7.13187
102 Ni 8.6113 -0.0697956 5.79799
103 Al 10.0889 1.24067 10.1244
104 Ni 8.69774 -0.0920619 8.621
105 Al 10.09 4.28547 1.46054
106 Ni 8.70393 2.80864 -0.0592562
107 Al 10.1245 4.27762 4.32384
108 Ni 8.68994 2.87173 2.85804
109 Al 10.2039 4.2031 7.23422
110 Ni 8.79279 2.81458 5.72152
111 Al 10.1157 4.43882 10.1709
112 Ni 8.59906 2.91427 8.68975
113 Al 10.1981 7.21279 1.50313
114 Ni 8.66851 5.84964 -0.0388296
115 Al 10.1349 7.25367 4.30959
116 Ni 8.65998 5.82282 2.92878
117 Al 10.2272 7.25721 7.23332
118 Ni 8.78963 5.68838 5.75822
119 Al 10.2354 7.27198 10.0899
120 Ni 8.65145 5.8649 8.59255
121 Al 10.0076 10.0577 1.40426
122 Ni 8.78408 8.5527 -0.0247948
123 Al 10.1653 10.0977 4.37235
124 Ni 8.70477 8.69301 2.8402
125 Al 10.1688 10.1329 7.1982
126 Ni 8.56408 8.79961 5.79698
127 Al 10.2504 10.0097 10.1455
128 Ni 8.66153 8.53715 8.72051
ITEM: TIMESTEP
2900
ITEM: NUMBER OF ATOMS
128
ITEM: BOX BOUNDS xy xz yz pp pp pp
-4.5590378970696781e-02 1.1647454608663841e+01 -6.2052362790886943e-03
-5.6273757686032155e-02 1.1697368847060490e+01 2.6285146148383287e-02
-3.7203816367682663e-02 1.1618988136191584e+01 5.9310769550579928e-02
ITEM: ATOMS id element xu yu zu
1 Al 1.4012 1.38807 1.25382
2 Ni -0.113621 0.0197188 -0.056065
3 Al 1.49682 1.48929 4.32081
4 Ni 0.0143059 0.110474 2.93366
5 Al 1.37465 1.58021 7.23107
6 Ni -0.0121482 -0.0313225 5.74252
7 Al 1.4366 1.59114 10.0839
8 Ni 0.0474541 -0.035806 8.69845
9 Al 1.41422 4.24494 1.3635
10 Ni -0.0603595 2.82739 -0.166545
11 Al 1.39443 4.40075 4.34911
12 Ni 0.0642573 2.86411 2.84732
13 Al 1.37501 4.41673 7.18819
14 Ni -0.10655 2.85634 5.78117
15 Al 1.40957 4.4531 10.0358
16 Ni -0.140905 2.943 8.57871
17 Al 1.29494 7.33313 1.45551
18 Ni -0.0679648 5.8532 0.0129812
19 Al 1.46305 7.27748 4.31559
20 Ni 0.00978336 5.67223 2.79562
21 Al 1.40567 7.30169 7.25883
22 Ni -0.0449216 5.85516 5.71106
23 Al 1.47213 7.233 10.2617
24 Ni -0.0399776 5.80327 8.64243
25 Al 1.44762 10.1931 1.39885
26 Ni -0.0241358 8.69569 -0.025972
27 Al 1.47725 10.257 4.33348
28 Ni -0.039175 8.75408 2.91177
29 Al 1.50656 10.257 7.33556
30 Ni 0.0373257 8.8212 5.8243
31 Al 1.33092 10.2703 10.1606
32 Ni -0.0722529 8.74559 8.81134
33 Al 4.39946 1.30499 1.38154
34 Ni 2.91131 -0.0366021 -0.0912112
35 Al 4.31893 1.52919 4.40798
36 Ni 2.85155 -0.0370551 2.74299
37 Al 4.34378 1.5709 7.29511
38 Ni 2.99481 0.133747 5.94774
39 Al 4.45343 1.31666 10.1027
40 Ni 2.96567 -0.0473868 8.70126
41 Al 4.41159 4.16396 1.36845
42 Ni 2.98261 2.86498 -0.138801
43 Al 4.39245 4.41917 4.27046
44 Ni 2.86615 2.83489 2.84007
45 Al 4.31018 4.39559 7.28207
46 Ni 2.84468 2.96351 5.87141
47 Al 4.49218 4.30771 10.2204
48 Ni 2.9036 2.9901 8.79508
49 Al 4.21738 7.37738 1.43751
50 Ni 2.84666 5.68849 0.02065
51 Al 4.30478 7.25916 4.2841
52 Ni 2.90341 5.77973 2.77408
53 Al 4.3115 7.24079 7.20804
54 Ni 2.89102 5.78821 5.75469
55 Al 4.30984 7.30525 10.0761
56 Ni 2.78692 5.83 8.69996
57 Al 4.34121 10.2548 1.36938
58 Ni 2.82981 8.8011 -0.128565
59 Al 4.31119 10.1866 4.34897
60 Ni 2.83605 8.69669 2.91631
61 Al 4.31301 10.1074 7.2414
62 Ni 2.82184 8.54272 5.7396
63 Al 4.33633 10.1434 10.036
64 Ni 2.87074 8.66766 8.65303
65 Al 7.25126 1.42519 1.4203
66 Ni 5.77949 -0.0817091 -0.051018
67 Al 7.1024 1.36749 4.45208
68 Ni 5.84064 0.0221501 2.88833
69 Al 7.27037 1.31144 7.24617
70 Ni 5.64658 -0.177556 5.91573
71 Al 7.31637 1.47607 10.1911
72 Ni 5.86131 -0.15231 8.78401
73 Al 7.27674 4.34977 1.45196
74 Ni 5.9526 2.93032 -0.00856379
75 Al 7.19197 4.38194 4.38379
76 Ni 5.8592 2.81742 2.91953
77 Al 7.24657 4.33317 7.30742
78 Ni 5.79482 3.05574 5.72123
79 Al 7.35237 4.33706 10.0716
80 Ni 5.83402 2.96655 8.73479
81 Al 7.38653 7.35932 1.36489
82 Ni 5.85036 5.7626 -0.13351
83 Al 7.11313 7.14939 4.27476
84 Ni 5.58525 5.76314 2.66699
85 Al 7.22253 7.31593 7.23946
86 Ni 5.89315 5.84814 5.87615
87 Al 7.44153 7.37109 10.1447
88 Ni 5.93106 5.89298 8.79189
89 Al 7.22882 10.2037 1.42519
90 Ni 5.6972 8.70857 -0.00299505
91 Al 7.20717 10.2359 4.33455
92 Ni 5.80592 8.77796 3.00439
93 Al 7.29775 10.1729 7.22183
94 Ni 5.7363 8.54361 5.77057
95 Al 7.23611 10.2599 10.1648
96 Ni 5.72921 8.77727 8.69225
97 Al 10.1301 1.46339 1.52153
98 Ni 8.64826 -0.00321867 0.0563304
99 Al 10.131 1.39705 4.35523
100 Ni 8.69104 0.000489947 2.93435
101 Al 10.236 1.35042 7.18049
102 Ni 8.79481 -0.0222325 5.79953
103 Al 10.1124 1.3254 10.1555
104 Ni 8.64201 -0.0394924 8.64703
105 Al 10.2856 4.23199 1.3508
106 Ni 8.63687 2.88335 0.0481737
107 Al 10.0541 4.26853 4.30575
108 Ni 8.64454 2.79748 3.00336
109 Al 10.1161 4.34308 7.14006
110 Ni 8.60875 2.90593 5.912
111 Al 10.1964 4.52285 10.1269
112 Ni 8.75739 2.75116 8.64767
113 Al 10.1619 7.34934 1.48126
114 Ni 8.72901 5.7089 0.0827539
115 Al 10.2164 7.24536 4.27227
116 Ni 8.76035 5.7834 2.8498
117 Al 10.2536 7.28454 7.19873
118 Ni 8.59696 5.8908 5.7646
119 Al 10.2169 7.39154 10.1504
120 Ni 8.7308 5.74884 8.76542
121 Al 10.0201 10.2615 1.46765
122 Ni 8.64819 8.83239 0.0324327
123 Al 10.2086 10.2388 4.39424
124 Ni 8.81286 8.79454 2.92294
125 Al 10.2952 10.2443 7.33822
126 Ni 8.92802 8.71153 5.70452
127 Al 10.2171 10.2183 10.2922
128 Ni 8.76131 8.89288 8.65479
ITEM: TIMESTEP
3000
ITEM: NUMBER OF ATOMS
128
ITEM: BOX BOUNDS xy xz yz pp pp pp
-1.8820752170707132e-02 1.1619699082695076e+01 3.1706211584158622e-02
-1.5977615685978996e-02 1.1649766903470253e+01 -1.2612200883634258e-02
1.9506764724615877e-02 1.1562277555099277e+01 5.2004967960401341e-02
ITEM: ATOMS id element xu yu zu
1 Al 1.46148 1.37132 1.40565
2 Ni 0.0773269 0.00243164 -0.0578288
3 Al 1.51691 1.44932 4.41268
4 Ni 0.0830073 -0.0866474 2.88683
5 Al 1.49613 1.58019 7.27096
6 Ni 0.0457822 0.0601271 5.86811
7 Al 1.51802 1.50793 10.1174
8 Ni -0.0494766 0.108985 8.6363
9 Al 1.36291 4.34411 1.51958
10 Ni -0.0122027 2.80254 0.0916209
11 Al 1.45835 4.3005 4.36357
12 Ni -0.0261048 2.81844 2.92462
13 Al 1.48013 4.43377 7.23934
14 Ni 0.0805153 2.92878 5.81071
15 Al 1.45469 4.43003 10.06
16 Ni 0.0657801 2.90821 8.74574
17 Al 1.25257 7.28515 1.35241
18 Ni -0.0348671 5.66475 -0.012659
19 Al 1.50381 7.19056 4.30448
20 Ni -0.0389555 5.92041 2.84592
21 Al 1.40855 7.26013 7.1864
22 Ni 0.0587063 5.69312 5.75534
23 Al 1.33895 7.3461 10.1813
24 Ni -0.0908295 5.84547 8.76587
25 Al 1.62208 10.1998 1.44608
26 Ni -0.0554736 8.84145 -0.0187623
27 Al 1.37428 10.0255 4.34304
28 Ni 0.0428788 8.73256 2.76618
29 Al 1.48434 10.2514 7.32579
30 Ni -0.0627744 8.6937 5.73032
31 Al 1.39022 10.1796 10.088
32 Ni 0.0137713 8.76427 8.578
33 Al 4.34989 1.36216 1.45919
34 Ni 2.98647 -0.0707684 0.0840909
35 Al 4.36172 1.48975 4.44234
36 Ni 2.93463 0.0567948 3.04726
37 Al 4.4007 1.47136 7.25267
38 Ni 2.83844 -0.193703 5.70942
39 Al 4.33695 1.43968 10.0281
40 Ni 2.95884 0.0293717 8.65258
41 Al 4.33974 4.3883 1.41421
42 Ni 2.83181 2.9304 -0.00419948
43 Al 4.47738 4.40737 4.28037
44 Ni 2.91985 2.86057 2.89456
45 Al 4.38436 4.38295 7.24832
46 Ni 3.03717 2.93796 5.76475
47 Al 4.38774 4.39842 10.1417
48 Ni 2.9286 2.97148 8.55895
49 Al 4.32572 7.28173 1.56675
50 Ni 2.84239 5.8664 -0.153868
51 Al 4.31121 7.33908 4.43968
52 Ni 2.78606 5.82742 2.86071
53 Al 4.36434 7.27567 7.22522
54 Ni 2.82985 5.83356 5.73722
55 Al 4.35432 7.36187 10.0592
56 Ni 2.87627 5.81452 8.66115
57 Al 4.37851 10.1635 1.42449
58 Ni 2.94622 8.61674 0.0602855
59 Al 4.27875 10.0535 4.2633
60 Ni 2.84359 8.59457 2.84621
61 Al 4.3508 10.1089 7.24336
62 Ni 2.91946 8.77226 5.84282
63 Al 4.394 10.1312 10.0421
64 Ni 2.83744 8.66664 8.72336
65 Al 7.20097 1.44119 1.47993
66 Ni 5.77802 -0.0569524 0.0680702
67 Al 7.10915 1.43992 4.27179
68 Ni 5.69889 -0.129517 3.0593
69 Al 7.41021 1.43973 7.19023
70 Ni 5.84583 0.0457343 5.8095
71 Al 7.18152 1.48221 10.0973
72 Ni 5.67824 -0.0597622 8.57887
73 Al 7.27758 4.30764 1.44144
74 Ni 5.68543 2.83809 -0.0116042
75 Al 7.22873 4.32751 4.46529
76 Ni 5.65768 2.98089 2.83108
77 Al 7.25478 4.42815 7.14442
78 Ni 5.7943 2.87771 5.84129
79 Al 7.1924 4.39629 10.1345
80 Ni 5.91443 3.02882 8.64891
81 Al 7.39473 7.31372 1.45015
82 Ni 5.79418 5.79196 0.107249
83 Al 7.15448 7.16874 4.49252
84 Ni 5.872 5.83772 3.02928
85 Al 7.25014 7.19602 7.28871
86 Ni 5.71085 5.84057 5.6581
87 Al 7.35542 7.34287 10.2299
88 Ni 5.85921 5.84341 8.67459
89 Al 7.33277 10.1847 1.454
90 Ni 5.89927 8.70907 0.0810564
91 Al 7.1992 10.1197 4.33322
92 Ni 5.77262 8.62722 2.90411
93 Al 7.22545 10.1535 7.35883
94 Ni 5.81322 8.76721 5.84199
95 Al 7.23415 10.2796 10.1125
96 Ni 5.8679 8.59378 8.74955
97 Al 10.1072 1.35592 1.59372
98 Ni 8.67133 -0.0198095 -0.0250519
99 Al 10.1671 1.37969 4.39893
100 Ni 8.62734 -0.0398278 2.99321
101 Al 10.108 1.47988 7.22794
102 Ni 8.62021 0.00493135 5.77255
103 Al 10.1158 1.42729 10.1153
104 Ni 8.7034 0.00657183 8.66796
105 Al 10.1918 4.35535 1.4132
106 Ni 8.7161 2.80183 0.0427927
107 Al 10.0788 4.32719 4.34055
108 Ni 8.70459 2.96557 2.84602
109 Al 10.1916 4.3855 7.28118
110 Ni 8.73964 2.91651 5.62348
111 Al 10.0985 4.37878 10.0727
112 Ni 8.57438 3.1203 8.63409
113 Al 10.1538 7.35038 1.50587
114 Ni 8.68027 5.82703 0.0105988
115 Al 10.1762 7.38549 4.32847
116 Ni 8.69915 5.85936 2.91895
117 Al 10.2378 7.32091 7.21524
118 Ni 8.88532 5.84304 5.74967
119 Al 10.2389 7.32645 10.1621
120 Ni 8.74442 5.91928 8.72971
121 Al 10.104 10.211 1.39246
122 Ni 8.79171 8.75033 0.0872703
123 Al 10.1272 10.2256 4.36049
124 Ni 8.61649 8.68957 2.86215
125 Al 10.1545 10.1891 7.2654
126 Ni 8.60128 8.70737 5.85412
127 Al 10.1945 10.2185 10.1883
128 Ni 8.75863 8.66358 8.81254
ITEM: TIMESTEP
3100
ITEM: NUMBER OF ATOMS
128
ITEM: BOX BOUNDS xy xz yz pp pp pp
-7.2308353006344722e-02 1.1660485680857063e+01 1.9913572067002228e-02
-1.3940434075757413e-01 1.1644421114918192e+01 -1.3520564040145094e-02
-2.5842668713748296e-02 1.1607626988537634e+01 -7.6767545663252723e-02
ITEM: ATOMS id element xu yu zu
1 Al 1.42429 1.32179 1.46763
2 Ni -0.050195 -0.119472 0.0281134
3 Al 1.4235 1.30571 4.3597
4 Ni -0.169736 -0.0153521 2.8916
5 Al 1.27752 1.30973 7.30026
6 Ni -0.191758 -0.183531 5.67712
7 Al 1.28965 1.36434 10.0922
8 Ni -0.0592101 -0.171843 8.72792
9 Al 1.24746 4.36999 1.55749
10 Ni 0.0609737 2.86552 0.0261037
11 Al 1.38459 4.32589 4.44867
12 Ni -0.0764659 2.79551 2.81761
13 Al 1.48592 4.20373 7.30952
14 Ni -0.0859909 2.77492 5.71926
15 Al 1.41094 4.26137 10.226
16 Ni -0.0821875 2.78056 8.54956
17 Al 1.40128 7.32006 1.52714
18 Ni -0.0370713 5.84188 -0.0418115
19 Al 1.49624 7.15291 4.30622
20 Ni -0.0386172 5.77513 2.9088
21 Al 1.36658 7.14323 7.27027
22 Ni -0.117764 5.92277 5.84475
23 Al 1.34427 7.19453 10.2241
24 Ni 0.0242838 5.56627 8.72035
25 Al 1.41583 10.2079 1.49225
26 Ni 0.0633937 8.62055 -0.0242586
27 Al 1.41644 10.0908 4.37018
28 Ni -0.101629 8.62164 3.03316
29 Al 1.43468 10.1231 7.23461
30 Ni -0.122083 8.68553 5.95963
31 Al 1.35727 10.0359 10.1088
32 Ni -0.0828401 8.70198 8.76598
33 Al 4.33769 1.41511 1.39486
34 Ni 2.84253 0.0271114 -0.120594
35 Al 4.29812 1.35122 4.26561
36 Ni 2.86741 -0.268673 2.83733
37 Al 4.37149 1.35596 7.25033
38 Ni 2.91228 0.0117685 5.82479
39 Al 4.22876 1.47245 10.2105
40 Ni 2.82431 -0.167061 8.70467
41 Al 4.42616 4.30855 1.52954
42 Ni 2.89431 2.84586 0.156061
43 Al 4.38639 4.27295 4.39079
44 Ni 2.80095 2.9612 2.94269
45 Al 4.21287 4.18192 7.27584
46 Ni 2.64209 2.766 5.78392
47 Al 4.28968 4.30183 10.2146
48 Ni 2.83591 2.65772 8.69528
49 Al 4.3765 7.34219 1.56874
50 Ni 2.91213 5.6616 0.100189
51 Al 4.44777 7.20569 4.46629
52 Ni 2.86791 5.77233 3.02277
53 Al 4.38602 7.28451 7.24395
54 Ni 2.83869 5.81558 5.88917
55 Al 4.24452 7.30296 10.0402
56 Ni 2.90295 5.78421 8.71135
57 Al 4.27114 10.2156 1.39329
58 Ni 2.89015 8.70908 -0.0735844
59 Al 4.40939 10.1409 4.31973
60 Ni 2.92707 8.78775 2.972
61 Al 4.35248 10.2092 7.2954
62 Ni 2.93733 8.66725 5.7654
63 Al 4.44848 10.2585 10.2021
64 Ni 2.97927 8.79629 8.61681
65 Al 7.2713 1.36032 1.4222
66 Ni 5.79349 0.0343273 -0.114053
67 Al 7.28935 1.37043 4.37033
68 Ni 5.81976 0.0129426 2.69506
69 Al 7.26388 1.4367 7.18396
70 Ni 5.86358 -0.0402157 5.6886
71 Al 7.22806 1.40719 10.2439
72 Ni 5.97873 0.0169392 8.76642
73 Al 7.33149 4.26501 1.44246
74 Ni 5.8329 2.94465 0.0867017
75 Al 7.2613 4.30877 4.44748
76 Ni 5.90399 2.80608 2.97425
77 Al 7.14242 4.19964 7.30838
78 Ni 5.78251 2.89619 5.70044
79 Al 7.14839 4.13848 10.0726
80 Ni 5.57557 2.7891 8.73169
81 Al 7.37026 7.31217 1.35565
82 Ni 5.81661 5.69625 -0.0847893
83 Al 7.23431 7.15186 4.40266
84 Ni 5.78745 5.74507 2.82709
85 Al 7.2578 7.10246 7.23794
86 Ni 5.79591 5.71745 5.88385
87 Al 7.27705 7.14349 10.0611
88 Ni 5.6663 5.64746 8.60503
89 Al 7.29574 10.1366 1.31184
90 Ni 5.77736 8.65746 -0.155299
91 Al 7.32873 10.2259 4.2692
92 Ni 5.87005 8.72209 2.85352
93 Al 7.22296 10.2528 7.21823
94 Ni 5.86091 8.62995 5.77035
95 Al 7.3053 10.1707 10.1125
96 Ni 5.80068 8.79387 8.5795
97 Al 10.1522 1.32476 1.39534
98 Ni 8.6699 -0.0582992 -0.0838961
99 Al 10.1965 1.40666 4.35046
100 Ni 8.70826 -0.0780529 2.76683
101 Al 10.1089 1.27764 7.25115
102 Ni 8.74228 0.0084322 5.79227
103 Al 10.2471 1.29751 10.1455
104 Ni 8.65178 0.118129 8.6952
105 Al 10.1815 4.33908 1.46533
106 Ni 8.66651 2.90487 -0.0116337
107 Al 10.1369 4.23189 4.53344
108 Ni 8.7206 2.67587 2.81455
109 Al 10.1944 4.33471 7.31227
110 Ni 8.74947 2.86317 5.92094
111 Al 10.2329 4.29891 10.1555
112 Ni 8.76177 2.71731 8.73517
113 Al 10.2501 7.3007 1.45995
114 Ni 8.76325 5.71236 -0.0392949
115 Al 10.173 7.26846 4.44214
116 Ni 8.74256 5.7727 2.82102
117 Al 10.1886 7.2276 7.26923
118 Ni 8.65521 5.57776 5.73447
119 Al 10.1133 7.08875 10.0588
120 Ni 8.667 5.55061 8.64592
121 Al 10.2024 10.081 1.2865
122 Ni 8.64335 8.64678 -0.188611
123 Al 10.1749 10.2898 4.25911
124 Ni 8.84947 8.77313 2.81624
125 Al 10.1231 10.1926 7.30622
126 Ni 8.79693 8.76217 5.79648
127 Al 10.1664 10.1347 10.2041
128 Ni 8.62542 8.62128 8.52223
ITEM: TIMESTEP
3200
ITEM: NUMBER OF ATOMS
128
ITEM: BOX BOUNDS xy xz yz pp pp pp
-3.1856870570692766e-02 1.1630611046170651e+01 -2.0287562358718886e-02
-3.7385897945259532e-02 1.1604728612231046e+01 3.7257418134826178e-02
4.4318014823003793e-03 1.1577352518341584e+01 -1.4441605538083871e-02
ITEM: ATOMS id element xu yu zu
1 Al 1.38953 1.43168 1.44215
2 Ni -0.0791469 -0.039729 -0.00592287
3 Al 1.35552 1.47585 4.44189
4 Ni 0.00730636 -0.197892 2.79828
5 Al 1.35341 1.41309 7.34905
6 Ni 0.00555709 0.00324399 5.83539
7 Al 1.45227 1.34503 10.1549
8 Ni 0.0139909 -0.0889776 8.80072
9 Al 1.31705 4.36733 1.4725
10 Ni -0.0577986 2.98479 -0.0537165
11 Al 1.59389 4.39839 4.27365
12 Ni 0.00996745 2.97278 2.98088
13 Al 1.51278 4.24802 7.18959
14 Ni -0.0314743 2.86533 5.77125
15 Al 1.40826 4.48795 10.1268
16 Ni 0.102288 2.95756 8.82504
17 Al 1.42943 7.34637 1.41753
18 Ni 0.0897171 5.75374 0.00474288
19 Al 1.45997 7.26062 4.25423
20 Ni -0.0192604 5.9121 2.954
21 Al 1.43015 7.15222 7.08578
22 Ni 0.0297034 5.74156 5.73798
23 Al 1.48348 7.31491 10.1211
24 Ni 0.0382165 6.02969 8.60483
25 Al 1.45128 10.1589 1.45496
26 Ni -0.0281312 8.65206 -0.0583729
27 Al 1.53381 10.2335 4.25785
28 Ni -0.0446507 8.67482 2.79788
29 Al 1.46951 10.1282 7.21973
30 Ni -0.0316825 8.76536 5.72932
31 Al 1.44661 10.0672 10.0673
32 Ni -0.0205933 8.62553 8.64535
33 Al 4.37688 1.4282 1.37293
34 Ni 2.91461 -0.167183 0.239808
35 Al 4.42277 1.34632 4.25215
36 Ni 2.86641 0.0817652 2.9166
37 Al 4.28577 1.44132 7.26123
38 Ni 2.88172 -0.0464781 5.65925
39 Al 4.34885 1.44043 10.1982
40 Ni 2.83905 0.033438 8.62969
41 Al 4.33168 4.36908 1.44427
42 Ni 2.83098 2.8511 -0.0918041
43 Al 4.42038 4.23443 4.35432
44 Ni 2.84541 2.71041 2.9488
45 Al 4.402 4.24229 7.28689
46 Ni 2.94987 2.90287 5.70382
47 Al 4.30958 4.26602 10.0479
48 Ni 2.78328 2.90756 8.63538
49 Al 4.37448 7.26705 1.38701
50 Ni 2.9002 5.8163 -0.0732554
51 Al 4.4205 7.23775 4.45351
52 Ni 2.98544 5.88896 2.80919
53 Al 4.42406 7.21006 7.18547
54 Ni 2.90557 5.83609 5.68351
55 Al 4.2807 7.14818 9.96133
56 Ni 2.94233 5.66902 8.51451
57 Al 4.24646 10.1039 1.67204
58 Ni 2.96241 8.73791 0.0147658
59 Al 4.3642 10.1411 4.35136
60 Ni 2.88256 8.65973 2.92606
61 Al 4.28273 10.0916 7.34482
62 Ni 2.96295 8.76699 5.80417
63 Al 4.39717 10.1744 10.3315
64 Ni 2.91976 8.65255 8.65249
65 Al 7.31168 1.44512 1.48699
66 Ni 5.83518 -0.0237082 0.059509
67 Al 7.26903 1.44556 4.33903
68 Ni 5.90957 -0.0950281 2.94638
69 Al 7.30424 1.3913 7.2949
70 Ni 5.74355 0.0433059 5.86431
71 Al 7.33242 1.3155 10.1517
72 Ni 5.58102 -0.0860576 8.66384
73 Al 7.23124 4.32238 1.40893
74 Ni 5.78818 2.87788 -0.0318059
75 Al 7.23146 4.45684 4.44474
76 Ni 5.74166 2.88429 2.76172
77 Al 7.27908 4.31583 7.24706
78 Ni 5.82866 2.74075 5.80637
79 Al 7.23144 4.22522 10.1586
80 Ni 5.84807 2.83201 8.70587
81 Al 7.223 7.30802 1.43149
82 Ni 5.77789 5.81535 0.0647579
83 Al 7.18275 7.25414 4.44095
84 Ni 5.71949 5.86175 2.89823
85 Al 7.17136 7.26815 7.25713
86 Ni 5.80234 5.69359 5.75825
87 Al 7.28252 7.25603 10.1082
88 Ni 5.8047 5.60076 8.73949
89 Al 7.34756 10.1148 1.47651
90 Ni 5.83231 8.62942 -0.0403477
91 Al 7.37301 10.2335 4.38487
92 Ni 5.81178 8.71291 2.94633
93 Al 7.18038 10.2442 7.36444
94 Ni 5.8201 8.79399 5.74579
95 Al 7.19145 10.1689 10.2659
96 Ni 5.78897 8.6494 8.68156
97 Al 10.1326 1.4142 1.43622
98 Ni 8.74358 -0.0653611 0.00741829
99 Al 10.2036 1.35962 4.29286
100 Ni 8.7309 0.0141086 2.81647
101 Al 10.0424 1.30426 7.31612
102 Ni 8.71632 -0.0955589 5.81516
103 Al 10.2489 1.42763 10.0177
104 Ni 8.82376 -0.256703 8.79408
105 Al 10.0954 4.48616 1.49051
106 Ni 8.79493 3.03293 0.00160499
107 Al 10.1147 4.3158 4.59626
108 Ni 8.71019 3.10035 2.90074
109 Al 10.1313 4.34815 7.26274
110 Ni 8.676 2.73575 5.66948
111 Al 10.212 4.50742 10.0444
112 Ni 8.82456 2.95518 8.66141
113 Al 10.1176 7.30437 1.38195
114 Ni 8.63926 5.87784 -0.0600924
115 Al 10.1371 7.23658 4.48469
116 Ni 8.68938 5.81325 2.90789
117 Al 10.0944 7.2614 7.27425
118 Ni 8.59654 5.86777 5.96704
119 Al 10.102 7.17863 10.0915
120 Ni 8.67989 5.77787 8.69631
121 Al 10.1734 9.99204 1.38058
122 Ni 8.64055 8.68607 0.0303712
123 Al 10.1903 10.1396 4.27275
124 Ni 8.56876 8.56175 2.88443
125 Al 10.1037 10.074 7.21003
126 Ni 8.59207 8.5765 5.81742
127 Al 10.2023 10.1171 10.2305
128 Ni 8.6736 8.73392 8.84201
ITEM: TIMESTEP
3300
ITEM: NUMBER OF ATOMS
128
ITEM: BOX BOUNDS xy xz yz pp pp pp
-2.4758153632467916e-02 1.1621917671322562e+01 5.8307640275576502e-03
-5.5166165751789897e-02 1.1735510029789394e+01 9.5444338386949431e-03
-3.1875978250031523e-02 1.1613660298073917e+01 9.8559544213726799e-02
ITEM: ATOMS id element xu yu zu
1 Al 1.50115 1.43599 1.4194
2 Ni 0.0162707 -0.0652831 0.0539631
3 Al 1.32972 1.49315 4.29858
4 Ni -0.0819787 0.128359 2.91597
5 Al 1.55333 1.47303 7.21707
6 Ni -0.0176605 -0.0302955 5.7344
7 Al 1.34704 1.53323 10.013
8 Ni 0.039059 0.0737801 8.60205
9 Al 1.32847 4.36857 1.32758
10 Ni 0.0505286 2.85799 -0.028465
11 Al 1.46518 4.36216 4.31311
12 Ni -0.0741894 2.9191 2.82424
13 Al 1.47843 4.4086 7.3068
14 Ni -0.0584422 3.0004 5.74527
15 Al 1.33628 4.41495 10.1208
16 Ni -0.159397 2.9345 8.60216
17 Al 1.42499 7.21178 1.48633
18 Ni -0.096115 5.85894 -0.0559439
19 Al 1.43118 7.23151 4.28196
20 Ni 0.110082 5.68495 2.7875
21 Al 1.33287 7.20412 7.26227
22 Ni -0.0681338 5.82464 5.75411
23 Al 1.45917 7.35936 10.1772
24 Ni -0.112918 5.72408 8.73239
25 Al 1.41271 10.2586 1.46573
26 Ni -0.0685578 8.82234 0.158831
27 Al 1.46579 10.3628 4.26186
28 Ni -0.0264165 8.71265 2.93505
29 Al 1.51363 10.2509 7.22833
30 Ni 0.0360743 8.64614 5.80223
31 Al 1.37222 10.2529 10.2036
32 Ni 0.113709 8.82902 8.68972
33 Al 4.31102 1.37717 1.37396
34 Ni 2.84875 0.16288 -0.226152
35 Al 4.37247 1.44491 4.32245
36 Ni 2.82293 -0.104367 2.8152
37 Al 4.48151 1.41547 7.30663
38 Ni 2.78738 -0.0463804 5.79767
39 Al 4.41518 1.48562 10.1218
40 Ni 2.84442 0.030406 8.73134
41 Al 4.42659 4.3088 1.35631
42 Ni 2.856 2.92019 -0.047901
43 Al 4.40282 4.27432 4.40615
44 Ni 2.9873 3.01909 2.79574
45 Al 4.42096 4.41778 7.3942
46 Ni 2.92632 2.90944 5.80935
47 Al 4.39522 4.32386 9.99974
48 Ni 3.00424 2.95278 8.66606
49 Al 4.30525 7.05996 1.40491
50 Ni 2.86113 5.79104 -0.0943153
51 Al 4.28727 7.23192 4.36561
52 Ni 2.84644 5.6879 2.96867
53 Al 4.35253 7.31275 7.294
54 Ni 2.9637 5.65259 5.8309
55 Al 4.42454 7.24697 10.1704
56 Ni 2.97082 5.91228 8.78023
57 Al 4.16673 10.1867 1.37118
58 Ni 2.85454 8.66409 0.00951135
59 Al 4.24213 10.2569 4.23789
60 Ni 2.87696 8.75591 2.78389
61 Al 4.31682 10.2215 7.25766
62 Ni 2.77791 8.72955 5.70741
63 Al 4.23328 10.1863 10.0965
64 Ni 2.80209 8.76186 8.67101
65 Al 7.24565 1.39012 1.48041
66 Ni 5.86102 -0.00998576 -0.0314538
67 Al 7.30907 1.36809 4.46453
68 Ni 5.78765 0.0251117 2.88218
69 Al 7.26272 1.46339 7.19788
70 Ni 5.93648 -0.117846 5.78232
71 Al 7.23495 1.39378 10.1455
72 Ni 5.91464 0.00759559 8.65478
73 Al 7.29701 4.25109 1.41284
74 Ni 5.73044 2.76122 -0.0482645
75 Al 7.20891 4.36864 4.3762
76 Ni 5.81132 2.8751 2.79669
77 Al 7.29594 4.52813 7.22939
78 Ni 5.86489 2.94765 5.86346
79 Al 7.24327 4.45957 10.125
80 Ni 5.88725 2.94068 8.70234
81 Al 7.14387 7.37261 1.45175
82 Ni 5.77961 5.74854 -0.00770227
83 Al 7.21617 7.36213 4.40309
84 Ni 5.83593 5.69804 2.88611
85 Al 7.32981 7.32416 7.11057
86 Ni 5.75161 5.84714 5.80112
87 Al 7.34823 7.44086 10.1905
88 Ni 5.82858 5.98968 8.62054
89 Al 7.36598 10.1882 1.44348
90 Ni 5.74754 8.86559 0.0464931
91 Al 7.22169 10.2146 4.36361
92 Ni 5.76516 8.74473 2.89589
93 Al 7.29337 10.2727 7.33123
94 Ni 5.70914 8.6855 5.93658
95 Al 7.24745 10.2816 10.2147
96 Ni 5.7609 8.84492 8.7397
97 Al 10.131 1.32032 1.39832
98 Ni 8.65569 0.00551423 0.00718907
99 Al 10.131 1.42145 4.40675
100 Ni 8.6277 -0.0545727 3.03435
101 Al 10.1413 1.44161 7.30629
102 Ni 8.7345 0.0194674 5.84766
103 Al 10.2723 1.43418 10.123
104 Ni 8.76334 0.152187 8.66669
105 Al 10.1013 4.35329 1.32598
106 Ni 8.66939 2.7936 -0.0109499
107 Al 10.1543 4.3532 4.26252
108 Ni 8.71918 2.76719 2.85789
109 Al 9.96365 4.38678 7.11268
110 Ni 8.71309 2.91982 5.86602
111 Al 10.1299 4.39474 10.0448
112 Ni 8.64772 2.90773 8.7768
113 Al 10.1231 7.30255 1.41551
114 Ni 8.7372 5.76073 0.0392618
115 Al 10.2061 7.24638 4.32918
116 Ni 8.57685 5.80314 2.93923
117 Al 10.1732 7.28466 7.29627
118 Ni 8.81573 5.88205 5.64501
119 Al 10.1639 7.35118 10.0962
120 Ni 8.77098 6.00111 8.68593
121 Al 10.2011 10.1658 1.50892
122 Ni 8.68415 8.69658 0.00231286
123 Al 10.226 10.1765 4.40793
124 Ni 8.72013 8.79594 2.93223
125 Al 10.2155 10.2447 7.26919
126 Ni 8.70277 8.87176 5.8319
127 Al 10.1662 10.3048 10.2052
128 Ni 8.74257 8.72739 8.63094
ITEM: TIMESTEP
3400
ITEM: NUMBER OF ATOMS
128
ITEM: BOX BOUNDS xy xz yz pp pp pp
-5.4788580758799311e-02 1.1646051200666154e+01 4.7734697251674278e-02
-3.7368531417229178e-02 1.1621549674019642e+01 -3.8256397168166180e-02
-2.2117950395013075e-02 1.1603902270218892e+01 2.3968227785241339e-03
ITEM: ATOMS id element xu yu zu
1 Al 1.50221 1.36857 1.37498
2 Ni -0.055037 0.0636375 -0.130153
3 Al 1.37321 1.36582 4.37882
4 Ni 0.16034 -0.0940603 2.90132
5 Al 1.56091 1.42126 7.28651
6 Ni 0.0414671 0.06527 5.77835
7 Al 1.38598 1.30144 10.1375
8 Ni -0.135995 -0.0257378 8.70677
9 Al 1.388 4.28874 1.44563
10 Ni -0.100109 2.7918 -0.0317412
11 Al 1.40471 4.29001 4.29417
12 Ni 0.0494173 2.79444 2.92818
13 Al 1.40661 4.44964 7.30412
14 Ni -0.0602752 2.87338 5.87391
15 Al 1.45122 4.17211 10.1534
16 Ni -0.012223 2.81107 8.84522
17 Al 1.46449 7.15429 1.47131
18 Ni -0.0214549 5.66282 0.0988062
19 Al 1.33109 7.19823 4.36079
20 Ni -0.0934333 5.7679 2.96211
21 Al 1.38111 7.46293 7.3777
22 Ni 0.00326931 5.71472 5.79791
23 Al 1.47372 7.21017 10.1912
24 Ni -0.0176378 5.83388 8.80756
25 Al 1.47723 10.1201 1.4713
26 Ni 0.0243398 8.64879 -0.111755
27 Al 1.5225 10.2246 4.33858
28 Ni 0.0534516 8.71326 2.8202
29 Al 1.50226 10.2548 7.2583
30 Ni 0.0254774 8.7222 5.76654
31 Al 1.38207 10.1644 10.1713
32 Ni -0.1878 8.66488 8.71294
33 Al 4.38975 1.44551 1.47551
34 Ni 2.85792 -0.111689 0.108894
35 Al 4.40035 1.58924 4.39504
36 Ni 2.93592 0.0590269 2.94493
37 Al 4.40749 1.47611 7.31031
38 Ni 2.92353 0.0208391 5.83177
39 Al 4.33399 1.39509 10.1656
40 Ni 2.8281 -0.0295655 8.63875
41 Al 4.42485 4.29207 1.40847
42 Ni 3.0581 2.84852 -0.0908836
43 Al 4.19673 4.45811 4.41462
44 Ni 2.84332 2.79481 3.01795
45 Al 4.33191 4.52508 7.30524
46 Ni 2.9261 2.95383 5.87281
47 Al 4.39317 4.31609 9.99525
48 Ni 2.90619 2.87645 8.68105
49 Al 4.33171 7.20416 1.33014
50 Ni 2.91875 5.76514 0.0495564
51 Al 4.31862 7.25689 4.31892
52 Ni 2.98927 5.79801 2.72268
53 Al 4.47048 7.24792 7.3338
54 Ni 2.77495 5.93275 5.86074
55 Al 4.31352 7.13645 10.1765
56 Ni 2.82074 5.75006 8.75573
57 Al 4.261 10.1232 1.38379
58 Ni 2.85811 8.78991 -0.0641113
59 Al 4.22645 10.2655 4.28396
60 Ni 2.90866 8.73128 2.99942
61 Al 4.36117 10.1097 7.17009
62 Ni 2.93429 8.61341 5.87983
63 Al 4.41127 10.1286 10.0299
64 Ni 2.87552 8.81036 8.7845
65 Al 7.19644 1.34782 1.37483
66 Ni 5.77264 -0.0857998 -0.0849531
67 Al 7.25854 1.26568 4.36966
68 Ni 5.71015 -0.0853677 2.95193
69 Al 7.20935 1.30944 7.1715
70 Ni 5.62768 0.0206139 5.82542
71 Al 7.12377 1.41198 10.0484
72 Ni 5.71788 -0.073448 8.70017
73 Al 7.31875 4.39551 1.47886
74 Ni 5.87782 3.01426 0.035167
75 Al 7.15313 4.37895 4.28315
76 Ni 5.75922 2.84801 2.93345
77 Al 7.18232 4.36461 7.24132
78 Ni 5.73767 2.9413 5.74165
79 Al 7.24864 4.34305 10.1733
80 Ni 5.67464 2.90739 8.58246
81 Al 7.24379 7.38969 1.45367
82 Ni 5.91527 5.90456 -0.00070476
83 Al 7.34944 7.24861 4.28015
84 Ni 5.76572 5.94957 2.80225
85 Al 7.33393 7.21243 7.19326
86 Ni 5.91051 5.88598 5.80584
87 Al 7.34042 7.38686 10.1701
88 Ni 5.75691 5.84139 8.79677
89 Al 7.34631 10.1697 1.36404
90 Ni 5.88213 8.6567 -0.0294033
91 Al 7.21338 10.169 4.2322
92 Ni 5.78023 8.7407 2.87802
93 Al 7.25209 10.1028 7.11149
94 Ni 5.89323 8.60365 5.67677
95 Al 7.26508 10.0964 10.0984
96 Ni 5.8735 8.69371 8.58734
97 Al 10.1322 1.34052 1.43538
98 Ni 8.69683 -0.112392 -0.12295
99 Al 10.1348 1.39742 4.34312
100 Ni 8.68843 -0.0120518 2.81543
101 Al 10.0597 1.41232 7.32147
102 Ni 8.62685 -0.126432 5.6539
103 Al 10.0358 1.38983 10.0678
104 Ni 8.66959 -0.135296 8.66438
105 Al 10.1497 4.30104 1.35915
106 Ni 8.6402 2.85171 0.0425645
107 Al 10.078 4.31725 4.36895
108 Ni 8.56953 2.82841 2.86029
109 Al 10.0091 4.28528 7.17095
110 Ni 8.61991 2.93918 5.74062
111 Al 10.2009 4.31652 10.1014
112 Ni 8.72222 2.93689 8.60377
113 Al 10.2164 7.37354 1.30282
114 Ni 8.68395 5.8309 -0.0141799
115 Al 10.1933 7.17484 4.32154
116 Ni 8.81261 5.77998 2.81418
117 Al 10.0586 7.09249 7.35769
118 Ni 8.59569 5.76589 5.81856
119 Al 10.0401 7.1831 10.1326
120 Ni 8.67009 5.67867 8.87054
121 Al 10.3243 10.1797 1.42882
122 Ni 8.79791 8.83188 0.0150366
123 Al 10.2285 10.1343 4.33401
124 Ni 8.7835 8.77304 2.83399
125 Al 10.167 10.2269 7.11389
126 Ni 8.86012 8.57899 5.69744
127 Al 10.1981 10.1665 10.1196
128 Ni 8.7687 8.75149 8.68492
ITEM: TIMESTEP
3500
ITEM: NUMBER OF ATOMS
128
ITEM: BOX BOUNDS xy xz yz pp pp pp
-3.9748305908131693e-02 1.1609747587504646e+01 7.1852410107122707e-03
-1.0154326537979845e-01 1.1601838254818352e+01 -1.8970279238042478e-02
-1.9639309851511300e-03 1.1583748250809037e+01 -8.1489330385324729e-02
ITEM: ATOMS id element xu yu zu
1 Al 1.41681 1.37276 1.50556
2 Ni -0.013019 -0.0558074 0.0273561
3 Al 1.36159 1.25873 4.33
4 Ni -0.136994 -0.0230213 2.75892
5 Al 1.53199 1.2494 7.23234
6 Ni -0.0736449 -0.175042 5.8999
7 Al 1.382 1.33519 10.2184
8 Ni 0.00996332 -0.0541562 8.74108
9 Al 1.40673 4.41206 1.46128
10 Ni 0.0480924 2.9355 0.000333655
11 Al 1.41773 4.27853 4.32311
12 Ni 0.0255409 2.91308 2.98846
13 Al 1.4109 4.27742 7.2258
14 Ni -0.0255893 2.83318 5.67827
15 Al 1.4256 4.22169 10.0666
16 Ni -0.0466393 2.7861 8.71588
17 Al 1.46501 7.25755 1.33488
18 Ni 0.0301148 5.84898 -0.0190874
19 Al 1.32888 7.23977 4.38673
20 Ni 0.099576 5.79087 2.82454
21 Al 1.45229 7.24154 7.17821
22 Ni -0.0600498 5.78698 5.75545
23 Al 1.46686 7.18655 10.0406
24 Ni -0.0239934 5.76463 8.62838
25 Al 1.42539 10.1497 1.4249
26 Ni 0.0100115 8.8242 -0.00184734
27 Al 1.36541 10.1347 4.21695
28 Ni -0.0380393 8.69952 2.94091
29 Al 1.42443 10.0634 7.28055
30 Ni -0.0873717 8.66711 5.76664
31 Al 1.54834 10.1337 10.1965
32 Ni 0.0878063 8.58184 8.7129
33 Al 4.29411 1.45674 1.53703
34 Ni 3.04816 -0.0615718 -0.0463675
35 Al 4.3483 1.37741 4.37845
36 Ni 2.75037 -0.14357 2.89562
37 Al 4.31186 1.44999 7.17452
38 Ni 2.79261 -0.266433 5.8331
39 Al 4.29296 1.47112 9.96721
40 Ni 2.92776 -0.128042 8.64509
41 Al 4.25353 4.4293 1.38384
42 Ni 2.77052 2.86573 0.153929
43 Al 4.30037 4.26002 4.30846
44 Ni 2.96686 2.93769 2.84222
45 Al 4.37426 4.2819 7.35355
46 Ni 2.85186 2.94761 5.70162
47 Al 4.35405 4.35331 10.0474
48 Ni 2.83122 2.88006 8.78366
49 Al 4.37411 7.24176 1.4181
50 Ni 2.88495 5.87234 -0.0310476
51 Al 4.26515 7.22682 4.32696
52 Ni 2.78408 5.89743 2.9833
53 Al 4.43498 7.1149 7.25508
54 Ni 2.97161 5.63316 5.74016
55 Al 4.32332 7.1854 10.1856
56 Ni 2.8963 5.71738 8.64779
57 Al 4.25906 10.2327 1.51388
58 Ni 2.91448 8.66941 -0.035478
59 Al 4.26318 10.1476 4.37682
60 Ni 2.85428 8.69585 2.76861
61 Al 4.30447 10.0202 7.20088
62 Ni 2.76476 8.72208 5.79205
63 Al 4.41174 10.1571 10.0173
64 Ni 2.88392 8.49612 8.57472
65 Al 7.25642 1.47552 1.46936
66 Ni 5.85262 -0.0448027 0.131534
67 Al 7.2527 1.32526 4.34816
68 Ni 5.90157 -0.0581608 2.92703
69 Al 7.11715 1.35421 7.23187
70 Ni 5.93081 -0.0900815 5.7405
71 Al 7.14705 1.30861 10.1464
72 Ni 5.74924 0.0158354 8.59004
73 Al 7.23277 4.33195 1.40164
74 Ni 5.64763 2.63668 -0.0198728
75 Al 7.28332 4.30183 4.35704
76 Ni 5.75291 2.97387 2.74848
77 Al 7.3367 4.29873 7.08247
78 Ni 5.75075 2.89247 5.79231
79 Al 7.22418 4.31722 10.2104
80 Ni 5.83586 2.83529 8.82126
81 Al 7.18072 7.18701 1.40499
82 Ni 5.62693 5.84035 0.0261466
83 Al 7.31891 7.18763 4.41491
84 Ni 5.82517 5.7789 2.93022
85 Al 7.20476 7.11151 7.14737
86 Ni 5.69248 5.72043 5.74881
87 Al 7.20869 7.09391 10.1439
88 Ni 5.79402 5.64031 8.64046
89 Al 7.26498 9.96128 1.49643
90 Ni 5.85414 8.72104 -0.0509839
91 Al 7.19806 10.131 4.33676
92 Ni 5.83614 8.58272 3.00514
93 Al 7.21514 10.0886 7.28975
94 Ni 5.82348 8.67734 5.93395
95 Al 7.26859 10.0825 10.1365
96 Ni 5.77862 8.58922 8.80291
97 Al 10.1235 1.47153 1.46089
98 Ni 8.65474 0.123238 0.11252
99 Al 10.2087 1.35768 4.32178
100 Ni 8.69934 -0.110908 2.91778
101 Al 10.0816 1.50793 7.36285
102 Ni 8.7018 0.0263522 5.8497
103 Al 10.1814 1.3261 10.1232
104 Ni 8.68066 -0.032868 8.66902
105 Al 10.2455 4.34829 1.45617
106 Ni 8.70707 2.88304 -0.00294124
107 Al 10.1902 4.41462 4.38871
108 Ni 8.72847 2.9932 2.90115
109 Al 10.0729 4.24707 7.32279
110 Ni 8.72658 2.737 5.73508
111 Al 10.1583 4.26143 10.179
112 Ni 8.56998 2.85467 8.73634
113 Al 10.2339 7.27757 1.35351
114 Ni 8.74095 5.69983 -0.0150998
115 Al 10.1399 7.239 4.29451
116 Ni 8.65718 5.76473 2.92741
117 Al 10.0996 7.26419 7.31859
118 Ni 8.86819 5.78737 5.81803
119 Al 10.0875 7.15902 10.0743
120 Ni 8.71764 5.79762 8.53674
121 Al 10.0861 10.0903 1.38467
122 Ni 8.65451 8.52352 -0.0342412
123 Al 10.1052 10.0906 4.40168
124 Ni 8.78492 8.59662 2.85037
125 Al 10.0728 10.1759 7.23163
126 Ni 8.56342 8.76708 5.88043
127 Al 10.1594 10.0911 10.0546
128 Ni 8.60528 8.59746 8.73211
ITEM: TIMESTEP
3600
ITEM: NUMBER OF ATOMS
128
ITEM: BOX BOUNDS xy xz yz pp pp pp
-9.8261448853525668e-02 1.1642030184203861e+01 -4.1259908244125239e-02
-4.3735084288663906e-02 1.1675668993878960e+01 3.2443237706295249e-03
-3.0431307737343261e-02 1.1612215627561236e+01 5.0149589766422302e-02
ITEM: ATOMS id element xu yu zu
1 Al 1.33314 1.37208 1.4084
2 Ni -0.109491 -0.0743374 -0.067744
3 Al 1.31464 1.41447 4.2325
4 Ni -0.0846343 -0.0778947 2.99393
5 Al 1.36487 1.22074 7.21026
6 Ni -0.0768109 0.0126595 5.69377
7 Al 1.41112 1.56669 10.1517
8 Ni -0.0621212 -0.0677559 8.75109
9 Al 1.357 4.36902 1.41047
10 Ni -0.0420247 2.87915 -0.0384911
11 Al 1.4033 4.33899 4.4129
12 Ni -0.0676986 2.87599 2.71884
13 Al 1.49086 4.33574 7.15783
14 Ni -0.0903979 2.91896 5.80029
15 Al 1.42336 4.31322 10.0786
16 Ni 0.0329428 2.99519 8.60373
17 Al 1.39347 7.21165 1.36507
18 Ni -0.126464 5.79471 -0.045969
19 Al 1.36 7.30451 4.37544
20 Ni -0.145659 5.88866 2.94229
21 Al 1.40666 7.4024 7.32867
22 Ni -0.0123782 5.86185 5.75815
23 Al 1.46126 7.32468 10.082
24 Ni -0.0731421 5.81675 8.67737
25 Al 1.37337 10.1104 1.40399
26 Ni -0.151325 8.5799 -0.019933
27 Al 1.39817 10.2008 4.21223
28 Ni -0.279613 8.69637 2.8139
29 Al 1.47434 10.2268 7.13146
30 Ni -0.0369801 8.78545 5.88996
31 Al 1.32671 10.2768 10.2274
32 Ni -0.0802316 8.80694 8.73582
33 Al 4.29415 1.52729 1.3951
34 Ni 2.64791 -0.045903 0.00442388
35 Al 4.31631 1.34652 4.28749
36 Ni 2.9112 -0.0632684 2.86772
37 Al 4.29563 1.43424 7.23582
38 Ni 2.86395 0.126984 5.68835
39 Al 4.42121 1.51893 10.1278
40 Ni 2.83419 0.0663231 8.76268
41 Al 4.19471 4.31341 1.44302
42 Ni 2.93262 2.81572 -0.135801
43 Al 4.2399 4.17972 4.43611
44 Ni 2.70853 2.81215 2.86322
45 Al 4.34567 4.32912 7.19364
46 Ni 2.882 2.7185 5.73523
47 Al 4.35711 4.42983 10.0014
48 Ni 2.85647 2.82628 8.52764
49 Al 4.37156 7.20202 1.33365
50 Ni 2.93092 5.75525 -0.0383728
51 Al 4.36812 7.12864 4.25598
52 Ni 2.93376 5.7158 2.86787
53 Al 4.32869 7.28597 7.21824
54 Ni 2.80516 5.91185 5.79345
55 Al 4.31514 7.31421 10.1899
56 Ni 2.8805 5.77114 8.6429
57 Al 4.26756 10.2564 1.54799
58 Ni 2.90005 8.66746 0.0553823
59 Al 4.33092 10.1809 4.44511
60 Ni 2.90129 8.74037 3.03712
61 Al 4.26525 10.2996 7.29384
62 Ni 2.95834 8.82295 5.74605
63 Al 4.25729 10.2785 10.2196
64 Ni 2.87203 8.88495 8.77624
65 Al 7.30064 1.4691 1.3366
66 Ni 5.80115 -0.0170722 -0.0230967
67 Al 7.29247 1.3361 4.3985
68 Ni 5.8309 -0.0150555 2.89244
69 Al 7.24324 1.39189 7.31389
70 Ni 5.74948 0.0623041 5.80855
71 Al 7.26589 1.61959 10.192
72 Ni 5.87958 0.0517409 8.82465
73 Al 7.30002 4.36221 1.5026
74 Ni 5.84289 3.06903 0.101589
75 Al 7.33208 4.30927 4.34252
76 Ni 5.82664 2.76778 2.99094
77 Al 7.29958 4.35414 7.20843
78 Ni 5.78205 2.79164 5.74809
79 Al 7.23329 4.38272 10.1376
80 Ni 5.65949 2.82068 8.58535
81 Al 7.12498 7.21237 1.38341
82 Ni 5.81524 5.67396 -0.0695437
83 Al 7.20443 7.21308 4.3545
84 Ni 5.75671 5.72854 2.85774
85 Al 7.16529 7.30969 7.22859
86 Ni 5.78691 5.73173 5.88498
87 Al 7.22446 7.32825 10.1709
88 Ni 5.70228 5.79456 8.65022
89 Al 7.18495 10.0935 1.45325
90 Ni 5.76049 8.5861 -0.00578263
91 Al 7.26629 10.3388 4.43371
92 Ni 5.80032 8.75026 2.83134
93 Al 7.24983 10.2291 7.18744
94 Ni 5.77997 8.75776 5.71915
95 Al 7.08446 10.1245 10.0742
96 Ni 5.73136 8.81574 8.52311
97 Al 10.1606 1.35817 1.32822
98 Ni 8.72869 -0.0532972 -0.0446838
99 Al 10.175 1.48584 4.32092
100 Ni 8.71771 0.0530869 2.83951
101 Al 10.1219 1.55303 7.30456
102 Ni 8.77477 -0.115343 5.85665
103 Al 10.3619 1.50576 10.0559
104 Ni 8.71194 0.0934596 8.87285
105 Al 10.2251 4.3585 1.40997
106 Ni 8.77839 3.01371 -0.00189732
107 Al 10.2284 4.40893 4.39462
108 Ni 8.7305 2.81989 2.80975
109 Al 10.0794 4.39684 7.32596
110 Ni 8.72926 3.02109 5.83142
111 Al 10.1956 4.4303 10.2527
112 Ni 8.91296 2.90562 8.74519
113 Al 10.0821 7.2613 1.50654
114 Ni 8.66265 5.85532 -0.0948905
115 Al 10.0946 7.34815 4.39301
116 Ni 8.65567 5.78445 2.93101
117 Al 10.0405 7.195 7.38948
118 Ni 8.5446 5.75787 5.79137
119 Al 10.0317 7.35178 10.0701
120 Ni 8.68215 5.7414 8.75368
121 Al 10.0649 10.083 1.39117
122 Ni 8.60475 8.7088 -0.0838412
123 Al 10.1494 10.1438 4.37184
124 Ni 8.53336 8.692 2.96843
125 Al 10.1392 10.2247 7.24477
126 Ni 8.80643 8.68191 5.87501
127 Al 10.076 10.2346 10.1325
128 Ni 8.64339 8.75498 8.72669
ITEM: TIMESTEP
3700
ITEM: NUMBER OF ATOMS
128
ITEM: BOX BOUNDS xy xz yz pp pp pp
-2.9192676649803340e-02 1.1616451652001260e+01 2.8529285378221126e-02
-1.2400665605990291e-02 1.1679573907631758e+01 -2.3054629850586417e-02
9.6259247942453996e-03 1.1572158395029643e+01 8.5388922201901640e-02
ITEM: ATOMS id element xu yu zu
1 Al 1.40639 1.53249 1.44917
2 Ni 0.0146455 -0.0138123 0.0570218
3 Al 1.49087 1.48055 4.42935
4 Ni 0.0340383 -0.0428775 2.78817
5 Al 1.42106 1.40936 7.29363
6 Ni 0.00337202 -0.0593294 5.84064
7 Al 1.45701 1.57045 10.2023
8 Ni -0.027384 0.0581955 8.72148
9 Al 1.43522 4.35826 1.54588
10 Ni -0.115519 2.94092 0.0198943
11 Al 1.46196 4.43042 4.38304
12 Ni -0.0589692 2.92505 3.04052
13 Al 1.43522 4.37595 7.35745
14 Ni -0.0102406 2.95016 5.8149
15 Al 1.33907 4.37256 10.1428
16 Ni -0.137669 2.86862 8.80726
17 Al 1.43595 7.23024 1.41242
18 Ni 0.106077 5.76441 0.110297
19 Al 1.55958 7.24762 4.364
20 Ni -0.0802924 5.78197 2.84478
21 Al 1.46722 7.33929 7.24694
22 Ni 0.123612 5.80522 5.75192
23 Al 1.52358 7.40788 10.1642
24 Ni 0.132196 6.00795 8.71586
25 Al 1.65316 10.1914 1.49251
26 Ni 0.0705528 8.65727 0.091298
27 Al 1.46879 10.1732 4.28665
28 Ni 0.1449 8.66373 2.97751
29 Al 1.41906 10.1401 7.21699
30 Ni -0.0447619 8.67974 5.67879
31 Al 1.39678 10.3073 10.1751
32 Ni -0.0416651 8.60371 8.58377
33 Al 4.26054 1.49974 1.4041
34 Ni 2.93291 -0.0639113 0.0735074
35 Al 4.31085 1.46933 4.4623
36 Ni 2.81145 0.189854 2.89294
37 Al 4.21953 1.51799 7.26788
38 Ni 2.90011 -0.146459 5.76342
39 Al 4.29789 1.45291 10.1346
40 Ni 2.83681 -0.0680357 8.69375
41 Al 4.33228 4.36336 1.44176
42 Ni 2.81645 2.96067 0.116649
43 Al 4.39134 4.28892 4.41518
44 Ni 3.00486 2.98906 2.93645
45 Al 4.34257 4.38767 7.27675
46 Ni 2.80272 3.058 5.87131
47 Al 4.32885 4.49303 10.1346
48 Ni 2.85925 2.99339 8.85459
49 Al 4.42516 7.19493 1.33772
50 Ni 2.89395 5.76583 0.0473169
51 Al 4.35156 7.34293 4.35777
52 Ni 2.92147 5.7995 2.89023
53 Al 4.34708 7.31711 7.29182
54 Ni 2.93594 5.84947 5.77846
55 Al 4.336 7.27249 10.2261
56 Ni 2.87148 5.93685 8.75248
57 Al 4.44617 10.1261 1.45011
58 Ni 2.89541 8.66846 -0.00907813
59 Al 4.36314 10.2067 4.34582
60 Ni 2.95444 8.6359 2.72467
61 Al 4.34298 10.1749 7.23846
62 Ni 2.81736 8.75409 5.82897
63 Al 4.35377 10.1433 10.1098
64 Ni 2.90748 8.74323 8.64342
65 Al 7.36781 1.46085 1.44512
66 Ni 5.85953 0.0518244 -0.058223
67 Al 7.07377 1.53231 4.31573
68 Ni 5.78358 0.0834002 2.78119
69 Al 7.27281 1.52658 7.27863
70 Ni 5.8583 -0.0138187 5.73031
71 Al 7.20786 1.53562 9.97141
72 Ni 5.63399 0.0264757 8.62653
73 Al 7.25401 4.34533 1.41753
74 Ni 5.80235 2.66105 -0.123232
75 Al 7.39574 4.42772 4.40949
76 Ni 5.84329 2.94651 2.75018
77 Al 7.25451 4.56878 7.18383
78 Ni 5.75904 2.94612 5.90175
79 Al 7.14086 4.50187 10.1403
80 Ni 5.74645 2.92195 8.72178
81 Al 7.17554 7.3046 1.40531
82 Ni 5.77664 5.92737 0.0427267
83 Al 7.29494 7.2958 4.31281
84 Ni 5.87867 5.87385 2.94674
85 Al 7.17979 7.40561 7.27534
86 Ni 5.77231 5.9115 5.72539
87 Al 7.27955 7.35254 10.2283
88 Ni 5.7544 5.87545 8.66872
89 Al 7.25542 10.0868 1.50802
90 Ni 5.81919 8.70602 0.0131707
91 Al 7.28342 10.2393 4.38129
92 Ni 5.67982 8.67629 2.87842
93 Al 7.25766 10.2622 7.18366
94 Ni 5.78458 8.81244 5.84913
95 Al 7.2385 10.1642 9.9675
96 Ni 5.79213 8.75778 8.82061
97 Al 10.1597 1.48319 1.52779
98 Ni 8.72128 -0.0651741 -0.0582628
99 Al 10.2131 1.33904 4.31866
100 Ni 8.67895 -0.0975022 2.91922
101 Al 10.13 1.49569 7.29302
102 Ni 8.61425 0.0575209 5.652
103 Al 10.1028 1.49614 10.0609
104 Ni 8.79393 -0.149938 8.52524
105 Al 10.1137 4.30865 1.36532
106 Ni 8.63332 2.81126 -0.0513909
107 Al 10.1787 4.31202 4.3481
108 Ni 8.68665 2.92291 2.94055
109 Al 10.0878 4.45314 7.28904
110 Ni 8.73458 2.8582 5.80495
111 Al 10.0428 4.47801 10.1591
112 Ni 8.63735 3.06758 8.59727
113 Al 10.1852 7.24432 1.48512
114 Ni 8.59285 5.73541 -0.0412103
115 Al 10.1377 7.35312 4.31318
116 Ni 8.68006 5.85971 2.96696
117 Al 10.1269 7.23927 7.17856
118 Ni 8.69839 5.84563 5.84634
119 Al 10.0969 7.32373 10.1151
120 Ni 8.63801 5.93082 8.65156
121 Al 10.2058 10.0971 1.41309
122 Ni 8.73334 8.67428 0.0808393
123 Al 10.2148 10.135 4.33049
124 Ni 8.82679 8.74638 2.80549
125 Al 10.1292 10.0501 7.08915
126 Ni 8.55727 8.77741 5.71744
127 Al 10.1981 10.1507 10.1072
128 Ni 8.75203 8.74892 8.59567
ITEM: TIMESTEP
3800
ITEM: NUMBER OF ATOMS
128
ITEM: BOX BOUNDS xy xz yz pp pp pp
-7.8713078631337363e-02 1.1669362228818853e+01 4.5950894208080934e-02
-1.3583008474734959e-01 1.1652391864984514e+01 -3.7086063844382511e-02
-3.9969339397252668e-02 1.1621753659221142e+01 -6.5222539586682018e-02
ITEM: ATOMS id element xu yu zu
1 Al 1.51942 1.37925 1.36676
2 Ni -0.0908715 0.00178405 -0.0593346
3 Al 1.59389 1.4668 4.31739
4 Ni -0.0854353 0.132613 2.99868
5 Al 1.42506 1.52695 7.2725
6 Ni 0.0107948 -0.0573912 5.72109
7 Al 1.37078 1.33579 10.0483
8 Ni -0.06639 -0.150388 8.61315
9 Al 1.49046 4.2915 1.31607
10 Ni -0.00889569 2.75217 -0.0611379
11 Al 1.45691 4.20441 4.4083
12 Ni -0.0864344 2.84692 2.84952
13 Al 1.40173 4.33817 7.21029
14 Ni -0.0405873 2.84066 5.81704
15 Al 1.36379 4.20593 10.1671
16 Ni 0.00409135 2.85566 8.64615
17 Al 1.35659 7.25389 1.39291
18 Ni -0.171847 5.6819 -0.0841149
19 Al 1.48258 7.14073 4.41633
20 Ni 0.0608842 5.70749 2.91359
21 Al 1.41886 7.16316 7.31889
22 Ni -0.168991 5.77816 5.86585
23 Al 1.44236 7.14513 10.2417
24 Ni -0.281075 5.57218 8.66601
25 Al 1.4966 10.3215 1.49094
26 Ni -0.00626136 8.82818 -0.111079
27 Al 1.38072 10.1785 4.37657
28 Ni -0.0582047 8.71544 2.75587
29 Al 1.50172 10.1818 7.203
30 Ni 0.133343 8.72225 5.77049
31 Al 1.50218 10.1419 10.1372
32 Ni 0.00426083 8.75203 8.80315
33 Al 4.28652 1.29155 1.37705
34 Ni 2.80693 0.072065 -0.186119
35 Al 4.33877 1.44461 4.37551
36 Ni 2.93006 -0.146251 2.92407
37 Al 4.33861 1.31837 7.31695
38 Ni 2.78958 0.0404646 5.90906
39 Al 4.38693 1.31243 10.1827
40 Ni 2.8555 -0.0616304 8.66559
41 Al 4.34576 4.2856 1.41217
42 Ni 2.90659 2.80499 -0.142498
43 Al 4.25906 4.36887 4.24301
44 Ni 2.93718 2.88056 2.79661
45 Al 4.38728 4.19467 7.33617
46 Ni 2.99091 2.74994 5.8045
47 Al 4.35812 4.24218 10.2128
48 Ni 2.82594 2.91091 8.67518
49 Al 4.44632 7.22299 1.31376
50 Ni 2.91263 5.81452 -0.0230106
51 Al 4.35251 7.30357 4.3189
52 Ni 2.84808 5.68247 2.83405
53 Al 4.31541 7.16944 7.2722
54 Ni 2.92258 5.59066 5.81862
55 Al 4.34311 7.14098 10.25
56 Ni 2.8879 5.66851 8.73526
57 Al 4.34541 10.029 1.35296
58 Ni 2.86273 8.80131 0.000970488
59 Al 4.36313 10.2019 4.38906
60 Ni 2.78334 8.79623 3.00971
61 Al 4.3282 10.1216 7.13371
62 Ni 2.92824 8.65296 5.69995
63 Al 4.34917 10.0282 10.0077
64 Ni 2.76462 8.5268 8.69313
65 Al 7.28198 1.44982 1.51091
66 Ni 5.73237 -0.150757 0.0523882
67 Al 7.11779 1.32158 4.40771
68 Ni 5.71054 -0.11873 3.03832
69 Al 7.24787 1.39679 7.2516
70 Ni 5.59078 -0.112683 5.80287
71 Al 7.06076 1.30896 10.2131
72 Ni 5.79927 -0.193351 8.64462
73 Al 7.33093 4.30075 1.36943
74 Ni 5.91372 2.90723 -0.0134079
75 Al 7.28724 4.36352 4.39725
76 Ni 5.78031 2.82634 2.95523
77 Al 7.24379 4.29575 7.35633
78 Ni 5.72361 2.8595 5.79283
79 Al 7.28869 4.30964 10.1533
80 Ni 5.82101 2.78282 8.74402
81 Al 7.21832 7.3041 1.33394
82 Ni 5.91632 5.77664 -0.0884879
83 Al 7.2964 7.1112 4.27578
84 Ni 5.80548 5.76505 2.75918
85 Al 7.30829 7.22506 7.24489
86 Ni 5.77601 5.68916 5.87265
87 Al 7.32392 7.19201 10.2625
88 Ni 5.85716 5.84195 8.77415
89 Al 7.29349 10.1494 1.5253
90 Ni 5.8226 8.79273 -0.054674
91 Al 7.38186 10.1884 4.47827
92 Ni 5.84612 8.7328 2.76729
93 Al 7.30864 10.0796 7.17613
94 Ni 5.7847 8.60859 5.66541
95 Al 7.24679 9.98847 10.0467
96 Ni 5.7974 8.64783 8.58231
97 Al 10.1878 1.53906 1.47118
98 Ni 8.67805 -0.0551515 0.112937
99 Al 10.151 1.37101 4.38543
100 Ni 8.69719 -0.00993433 2.87136
101 Al 10.2272 1.35094 7.26713
102 Ni 8.71177 -0.199953 5.90909
103 Al 10.1503 1.3833 10.1063
104 Ni 8.60363 -0.0446615 8.72355
105 Al 10.2365 4.28322 1.29815
106 Ni 8.7338 2.87434 -0.0875062
107 Al 10.1309 4.21922 4.25011
108 Ni 8.65589 2.85313 2.94598
109 Al 9.96414 4.23126 7.14466
110 Ni 8.53842 2.90251 5.78532
111 Al 10.0435 4.16224 10.117
112 Ni 8.62965 2.6084 8.76393
113 Al 10.2025 7.22474 1.50303
114 Ni 8.8362 5.79067 0.0538928
115 Al 10.2771 7.30967 4.24518
116 Ni 8.70137 5.72281 2.84482
117 Al 10.2171 7.40479 7.25212
118 Ni 8.66232 5.83295 5.71745
119 Al 10.0662 7.23441 10.0642
120 Ni 8.73384 5.73574 8.64297
121 Al 10.1906 10.2285 1.46694
122 Ni 8.86686 8.71491 -0.0583181
123 Al 10.2041 10.1556 4.41361
124 Ni 8.72517 8.69949 2.91226
125 Al 10.1804 10.1346 7.30923
126 Ni 8.84654 8.71601 5.71756
127 Al 10.1373 10.2271 10.2621
128 Ni 8.74352 8.70113 8.73007
ITEM: TIMESTEP
3900
ITEM: NUMBER OF ATOMS
128
ITEM: BOX BOUNDS xy xz yz pp pp pp
-4.6944387159257500e-02 1.1623859011531982e+01 -4.2687844919632928e-02
-8.7573640912439910e-02 1.1609073471544345e+01 3.7818149468530876e-02
3.2491451681133654e-03 1.1578535174655769e+01 -6.0284489191944512e-02
ITEM: ATOMS id element xu yu zu
1 Al 1.48345 1.35095 1.38057
2 Ni 0.0501504 0.0243181 -0.0237643
3 Al 1.52408 1.38089 4.46509
4 Ni -0.00487326 -0.17938 2.81159
5 Al 1.54233 1.48902 7.18388
6 Ni -0.129136 -0.000961687 5.86776
7 Al 1.51313 1.36118 10.1557
8 Ni 0.102469 0.0520862 8.71149
9 Al 1.53783 4.26687 1.33286
10 Ni -0.0810171 2.9355 0.0468478
11 Al 1.50089 4.33763 4.27322
12 Ni 0.0749448 2.88622 2.94434
13 Al 1.49107 4.27574 7.1858
14 Ni -0.0545377 2.88953 5.77158
15 Al 1.59571 4.16305 10.0367
16 Ni -0.0762701 2.78072 8.6227
17 Al 1.36495 7.17123 1.40884
18 Ni 0.0915064 5.80445 -0.00411389
19 Al 1.36823 7.28194 4.29062
20 Ni -0.125545 5.85435 2.81464
21 Al 1.45326 7.17095 7.24097
22 Ni 0.16028 5.66567 5.72779
23 Al 1.51657 7.20932 10.0636
24 Ni 0.149633 5.76657 8.69614
25 Al 1.39554 10.1228 1.46355
26 Ni -0.0697476 8.68883 0.00135202
27 Al 1.37495 10.0604 4.52007
28 Ni -0.00612607 8.72537 2.97002
29 Al 1.42603 10.1743 7.25779
30 Ni -0.139096 8.60851 5.82846
31 Al 1.53695 10.0322 10.136
32 Ni -0.0369761 8.70258 8.595
33 Al 4.22285 1.38583 1.38812
34 Ni 2.94043 -0.107079 0.171046
35 Al 4.45418 1.52714 4.28714
36 Ni 2.82777 0.0388872 2.87122
37 Al 4.39142 1.37072 7.1176
38 Ni 3.08485 -0.103007 5.64775
39 Al 4.40943 1.43087 10.1255
40 Ni 2.96718 -0.0745026 8.72132
41 Al 4.28081 4.36986 1.44013
42 Ni 2.94136 2.89535 -0.0308965
43 Al 4.23944 4.34582 4.23596
44 Ni 2.80899 2.76831 2.9212
45 Al 4.40358 4.32107 7.18259
46 Ni 2.87886 2.89677 5.78351
47 Al 4.41415 4.33456 10.1573
48 Ni 3.03429 2.75864 8.66713
49 Al 4.35848 7.27641 1.44293
50 Ni 2.80735 5.80544 -0.141722
51 Al 4.28772 7.3366 4.42141
52 Ni 2.87738 5.78836 2.79409
53 Al 4.36439 7.26001 7.33379
54 Ni 2.81801 5.86538 5.75959
55 Al 4.39559 7.18131 10.1296
56 Ni 2.89408 5.83402 8.61114
57 Al 4.27648 10.0025 1.42199
58 Ni 2.82178 8.58415 -0.114359
59 Al 4.29862 10.1058 4.35868
60 Ni 2.8186 8.64823 2.80573
61 Al 4.35467 10.2075 7.17762
62 Ni 2.7502 8.58186 5.86703
63 Al 4.41177 10.0747 10.176
64 Ni 2.94025 8.76349 8.71875
65 Al 7.24617 1.38594 1.44889
66 Ni 5.73376 -0.0316807 -0.00610489
67 Al 7.14891 1.34951 4.32065
68 Ni 5.8271 -0.0774493 2.77962
69 Al 7.29619 1.38831 7.27149
70 Ni 5.87123 -0.147571 5.79302
71 Al 7.17015 1.41898 10.0738
72 Ni 5.74971 -0.0770023 8.78723
73 Al 7.26026 4.36948 1.44248
74 Ni 5.72396 2.89629 -0.0139054
75 Al 7.24755 4.38234 4.28999
76 Ni 5.75606 2.88338 2.81396
77 Al 7.26676 4.22951 7.30718
78 Ni 5.92248 2.81999 5.75903
79 Al 7.28177 4.28746 10.2137
80 Ni 5.89341 2.88509 8.68073
81 Al 7.2372 7.20842 1.4344
82 Ni 5.71434 5.896 0.0378479
83 Al 7.33428 7.18965 4.40286
84 Ni 5.68592 5.78341 2.83154
85 Al 7.24577 7.12799 7.37211
86 Ni 5.81766 5.86066 5.69049
87 Al 7.17331 7.16154 10.1451
88 Ni 5.83919 5.67645 8.63922
89 Al 7.15544 10.0339 1.54144
90 Ni 5.75281 8.57038 0.15015
91 Al 7.2705 10.0752 4.47988
92 Ni 5.72722 8.62925 3.00776
93 Al 7.2438 10.0744 7.2158
94 Ni 5.67661 8.6873 5.86442
95 Al 7.19524 10.0005 10.0695
96 Ni 5.78169 8.705 8.75971
97 Al 10.2135 1.51076 1.53167
98 Ni 8.7349 -0.0239379 -0.0858889
99 Al 10.2837 1.41445 4.23381
100 Ni 8.69269 -0.10489 2.94233
101 Al 10.1029 1.33853 7.35959
102 Ni 8.69267 -0.0507262 5.68823
103 Al 10.0761 1.47273 10.1452
104 Ni 8.65362 -0.142404 8.71596
105 Al 10.0973 4.32395 1.45566
106 Ni 8.66815 2.80391 0.17903
107 Al 10.0471 4.23981 4.34154
108 Ni 8.60899 2.80817 2.86846
109 Al 10.1479 4.34755 7.21986
110 Ni 8.72281 2.86617 5.7723
111 Al 10.1973 4.27772 10.1887
112 Ni 8.67197 2.91737 8.70558
113 Al 10.1356 7.25759 1.48518
114 Ni 8.64619 5.81327 -0.118604
115 Al 10.1456 7.26793 4.37656
116 Ni 8.79326 5.88369 2.95484
117 Al 10.2199 7.25625 7.3102
118 Ni 8.65058 5.63877 5.81686
119 Al 10.0324 7.19702 10.0691
120 Ni 8.66171 5.69738 8.82952
121 Al 10.0285 10.1572 1.47141
122 Ni 8.60024 8.79012 0.00011135
123 Al 10.0691 10.0603 4.45671
124 Ni 8.72371 8.69126 2.93769
125 Al 10.0759 10.1857 7.30498
126 Ni 8.69305 8.66998 5.91903
127 Al 10.1969 10.0971 10.1969
128 Ni 8.64391 8.74759 8.65178
ITEM: TIMESTEP
4000
ITEM: NUMBER OF ATOMS
128
ITEM: BOX BOUNDS xy xz yz pp pp pp
-7.7762598651714740e-02 1.1652966154629510e+01 -3.2020855401571055e-02
-4.2162650092498311e-02 1.1731534105568663e+01 2.5440091555551131e-02
-2.6295053394737700e-02 1.1608079373218628e+01 1.0758713565233156e-01
ITEM: ATOMS id element xu yu zu
1 Al 1.49374 1.4023 1.47538
2 Ni -0.0559811 -0.142803 0.00968536
3 Al 1.38807 1.50114 4.30887
4 Ni -0.0450372 0.0316467 2.85187
5 Al 1.39492 1.52522 7.27821
6 Ni 0.0865715 -0.0876969 5.78952
7 Al 1.39445 1.52812 10.21
8 Ni -0.110848 0.049741 8.70961
9 Al 1.42093 4.32847 1.4484
10 Ni -0.0381068 2.85731 0.0145671
11 Al 1.41957 4.36392 4.41064
12 Ni -0.224743 2.83193 2.76725
13 Al 1.36967 4.32963 7.25731
14 Ni 0.0593444 2.8315 5.79055
15 Al 1.52421 4.52257 10.247
16 Ni 0.00257748 3.01303 8.85789
17 Al 1.41276 7.20035 1.4468
18 Ni -0.0261181 5.88667 -0.0815913
19 Al 1.31483 7.38011 4.39935
20 Ni 0.0483015 5.87983 2.99275
21 Al 1.46591 7.16694 7.18361
22 Ni -0.146356 5.93036 5.89772
23 Al 1.62451 7.32595 10.1647
24 Ni -0.0297108 5.88706 8.71078
25 Al 1.3422 10.2016 1.44208
26 Ni 0.00632334 8.73984 -0.089811
27 Al 1.34379 10.1424 4.32275
28 Ni -0.109132 8.61769 2.86397
29 Al 1.36687 10.1601 7.35107
30 Ni 0.0265815 8.84041 5.85155
31 Al 1.41338 10.1731 10.0503
32 Ni -0.079043 8.69326 8.74463
33 Al 4.16858 1.47467 1.42259
34 Ni 2.80573 -0.00134242 -0.0772489
35 Al 4.22218 1.42879 4.29204
36 Ni 2.89775 -0.116854 2.82165
37 Al 4.22363 1.40052 7.1337
38 Ni 2.70993 0.0384833 5.83894
39 Al 4.37047 1.53488 10.141
40 Ni 2.89271 0.0300798 8.69062
41 Al 4.32618 4.50832 1.51118
42 Ni 2.72654 2.93782 0.107435
43 Al 4.36427 4.29214 4.30645
44 Ni 2.99936 3.0876 2.8965
45 Al 4.30995 4.34315 7.34319
46 Ni 2.85174 2.84559 5.73254
47 Al 4.35212 4.36203 10.2934
48 Ni 2.81564 2.90472 8.68835
49 Al 4.42485 7.33419 1.34713
50 Ni 2.86844 5.76108 0.0791566
51 Al 4.29591 7.29595 4.36651
52 Ni 2.7614 5.81999 3.11126
53 Al 4.2088 7.38953 7.15873
54 Ni 2.90918 5.62828 5.84318
55 Al 4.34315 7.3837 10.1815
56 Ni 2.87843 5.81885 8.72619
57 Al 4.31555 10.2526 1.44227
58 Ni 2.90827 8.82873 0.0778562
59 Al 4.35007 10.148 4.43178
60 Ni 2.93021 8.71691 2.93918
61 Al 4.496 10.3439 7.23997
62 Ni 2.94519 9.01765 5.76738
63 Al 4.38868 10.3274 10.1344
64 Ni 2.87582 8.77215 8.63775
65 Al 7.24604 1.5463 1.44116
66 Ni 5.83715 -0.0114714 0.0546818
67 Al 7.21266 1.48516 4.28936
68 Ni 5.81289 0.0456541 2.9173
69 Al 7.23865 1.60156 7.30366
70 Ni 5.81046 0.111584 5.6326
71 Al 7.28389 1.61769 10.0985
72 Ni 5.85437 0.130122 8.69315
73 Al 7.15616 4.31807 1.32905
74 Ni 5.79234 2.746 0.0105305
75 Al 7.26615 4.43509 4.34935
76 Ni 5.86265 2.94259 2.88225
77 Al 7.20953 4.31075 7.26567
78 Ni 5.71116 2.88758 5.81983
79 Al 7.22351 4.461 10.0809
80 Ni 5.68453 2.92285 8.70817
81 Al 7.12704 7.22764 1.34078
82 Ni 5.79925 5.73465 -0.103194
83 Al 7.29908 7.31552 4.3656
84 Ni 5.86726 5.83796 3.07763
85 Al 7.15258 7.22928 7.2791
86 Ni 5.71721 5.86739 5.86439
87 Al 7.19313 7.20385 10.0465
88 Ni 5.6781 5.91679 8.72331
89 Al 7.26926 10.0913 1.37167
90 Ni 5.80998 8.78467 -0.188406
91 Al 7.19724 10.2529 4.23958
92 Ni 5.74346 8.70219 2.70678
93 Al 7.32589 10.2653 7.24671
94 Ni 5.90868 8.86523 5.75197
95 Al 7.26814 10.2025 10.0067
96 Ni 5.79596 8.75944 8.66247
97 Al 10.129 1.44607 1.40047
98 Ni 8.76318 -0.108438 0.00680398
99 Al 10.1269 1.46232 4.21153
100 Ni 8.80824 -0.192818 2.77844
101 Al 10.2102 1.34007 7.26466
102 Ni 8.59595 0.118201 5.87373
103 Al 10.1839 1.5225 10.2388
104 Ni 8.77968 0.135245 8.72812
105 Al 10.1609 4.30409 1.47611
106 Ni 8.75931 3.01472 -0.133891
107 Al 10.1415 4.36928 4.40831
108 Ni 8.84512 2.98745 2.78829
109 Al 10.2437 4.31212 7.23966
110 Ni 8.74664 2.9707 5.71067
111 Al 10.1383 4.49814 10.223
112 Ni 8.71999 3.06227 8.70708
113 Al 10.2282 7.10035 1.50421
114 Ni 8.58348 5.77982 0.0763897
115 Al 10.1561 7.33956 4.24397
116 Ni 8.63438 5.79382 2.84832
117 Al 10.2079 7.43807 7.28729
118 Ni 8.75344 5.85158 5.68591
119 Al 10.0758 7.21036 10.0985
120 Ni 8.56956 5.87159 8.55097
121 Al 10.1538 10.0556 1.38071
122 Ni 8.72859 8.54631 -0.0769731
123 Al 10.1132 10.0716 4.33816
124 Ni 8.71953 8.70108 2.79786
125 Al 10.0776 10.1538 7.16648
126 Ni 8.66272 8.75755 5.7766
127 Al 10.0949 10.1018 10.1025
128 Ni 8.71397 8.64132 8.68976
ITEM: TIMESTEP
4100
ITEM: NUMBER OF ATOMS
128
ITEM: BOX BOUNDS xy xz yz pp pp pp
-7.4547313597112613e-02 1.1695075702567179e+01 7.5941862411522468e-02
-2.1137418553680121e-02 1.1630846640416875e+01 -3.7197793265267592e-02
-1.1636416807806249e-02 1.1593420736631696e+01 2.7924902039357043e-02
ITEM: ATOMS id element xu yu zu
1 Al 1.44062 1.44746 1.36192
2 Ni -0.105279 0.044942 -0.0428418
3 Al 1.32845 1.40001 4.43362
4 Ni -0.106899 0.00392447 2.87122
5 Al 1.36173 1.46247 7.18465
6 Ni -0.149845 0.0852472 5.78966
7 Al 1.37595 1.5393 10.1568
8 Ni -0.0218257 -0.095085 8.78263
9 Al 1.49789 4.3438 1.4133
10 Ni -0.0509457 2.98334 -0.0383132
11 Al 1.57127 4.37535 4.34091
12 Ni 0.0625369 2.90422 2.95906
13 Al 1.40378 4.3852 7.26543
14 Ni -0.11089 2.95832 5.74927
15 Al 1.4467 4.4732 10.2103
16 Ni -0.12729 2.96293 8.54408
17 Al 1.50107 7.2248 1.5343
18 Ni 0.0537537 5.76099 0.0563827
19 Al 1.39017 7.27391 4.24766
20 Ni -0.0230493 5.8736 2.91191
21 Al 1.35632 7.21748 7.21753
22 Ni 0.0924307 5.79175 5.68397
23 Al 1.55119 7.22427 10.1085
24 Ni -0.0749977 5.83258 8.56401
25 Al 1.48262 10.2236 1.36588
26 Ni 0.042722 8.55115 0.0738305
27 Al 1.50058 10.1831 4.43178
28 Ni 0.0572088 8.71971 2.91743
29 Al 1.4005 10.1563 7.20332
30 Ni -0.0229596 8.66035 5.70375
31 Al 1.41217 10.115 10.1464
32 Ni 0.0323149 8.78289 8.7296
33 Al 4.33915 1.44183 1.45508
34 Ni 2.88319 -0.0788016 0.0643807
35 Al 4.27536 1.39571 4.44603
36 Ni 2.9168 0.0809503 2.7818
37 Al 4.26284 1.39175 7.31531
38 Ni 2.96962 0.117876 5.80997
39 Al 4.39845 1.39973 10.1595
40 Ni 2.77498 0.0381581 8.73277
41 Al 4.27833 4.23835 1.38308
42 Ni 2.96704 2.78154 -0.0534289
43 Al 4.29497 4.18009 4.22834
44 Ni 2.76066 2.68522 2.79282
45 Al 4.31563 4.27541 7.22562
46 Ni 2.77154 2.87088 5.883
47 Al 4.33938 4.33902 10.1326
48 Ni 2.81208 2.89331 8.7475
49 Al 4.42088 7.36322 1.47824
50 Ni 2.95668 5.77487 -0.00192079
51 Al 4.32742 7.11929 4.29156
52 Ni 3.04453 5.71425 2.76227
53 Al 4.39884 7.21536 7.28618
54 Ni 2.88421 5.94161 5.86172
55 Al 4.40556 7.26443 10.0955
56 Ni 2.897 5.82601 8.63006
57 Al 4.41592 10.2047 1.46057
58 Ni 2.97545 8.61741 -0.0985656
59 Al 4.37205 10.1151 4.47076
60 Ni 2.99851 8.86508 2.94172
61 Al 4.33218 10.1851 7.28147
62 Ni 2.92746 8.53957 5.80772
63 Al 4.35942 10.196 10.1433
64 Ni 2.93587 8.74378 8.75005
65 Al 7.15474 1.57739 1.37832
66 Ni 5.83383 -0.0577921 -0.136022
67 Al 7.15223 1.36087 4.43951
68 Ni 5.88193 0.0248947 2.84737
69 Al 7.22044 1.49216 7.29865
70 Ni 5.7679 -0.0100583 5.87975
71 Al 7.31344 1.53686 10.1156
72 Ni 5.78375 -0.0367363 8.68996
73 Al 7.23837 4.41482 1.39389
74 Ni 5.87321 2.98882 -0.0926905
75 Al 7.1825 4.39429 4.30899
76 Ni 5.78895 2.82692 2.95484
77 Al 7.22826 4.28963 7.35927
78 Ni 5.85216 2.84077 5.79804
79 Al 7.22808 4.44604 10.1118
80 Ni 5.8768 2.8244 8.77085
81 Al 7.22677 7.26395 1.40134
82 Ni 5.78092 5.80292 0.0128379
83 Al 7.26084 7.18062 4.42934
84 Ni 5.75934 5.79598 2.7331
85 Al 7.20649 7.30088 7.28896
86 Ni 5.82229 5.71284 5.82394
87 Al 7.16948 7.22665 10.0151
88 Ni 5.86971 5.72211 8.70166
89 Al 7.3707 10.1409 1.47762
90 Ni 5.78755 8.70278 0.0571752
91 Al 7.2876 10.2579 4.34383
92 Ni 5.91614 8.79127 3.06154
93 Al 7.32572 10.2562 7.23433
94 Ni 5.68686 8.7167 5.75207
95 Al 7.2009 10.1673 10.1275
96 Ni 5.79331 8.81122 8.6494
97 Al 10.1823 1.54026 1.48095
98 Ni 8.73512 -0.0208651 -0.0646627
99 Al 10.095 1.57157 4.25529
100 Ni 8.73119 0.167044 2.91401
101 Al 10.1472 1.25123 7.28723
102 Ni 8.87558 -0.137504 5.76746
103 Al 10.1897 1.46652 10.1394
104 Ni 8.68899 -0.0419603 8.6556
105 Al 10.1184 4.25689 1.5737
106 Ni 8.71352 2.93121 0.0677683
107 Al 10.0621 4.40209 4.42859
108 Ni 8.63014 2.87206 2.97451
109 Al 10.2449 4.35814 7.15622
110 Ni 8.6979 2.92334 5.89471
111 Al 10.0644 4.36673 10.1719
112 Ni 8.68598 2.84481 8.68406
113 Al 10.1847 7.19314 1.48269
114 Ni 8.80671 5.80849 -0.142188
115 Al 10.1816 7.27368 4.20065
116 Ni 8.74838 5.79236 2.93543
117 Al 10.1442 7.22693 7.20264
118 Ni 8.56798 5.7434 5.82731
119 Al 10.24 7.28217 10.1486
120 Ni 8.78061 5.80186 8.72598
121 Al 10.2364 10.1971 1.41388
122 Ni 8.69221 8.80379 -0.0321989
123 Al 10.2685 10.0343 4.26644
124 Ni 8.72553 8.73475 2.94064
125 Al 10.2007 9.96856 7.19284
126 Ni 8.7977 8.75141 5.71626
127 Al 10.0742 10.0718 10.054
128 Ni 8.66557 8.73482 8.65606
ITEM: TIMESTEP
4200
ITEM: NUMBER OF ATOMS
128
ITEM: BOX BOUNDS xy xz yz pp pp pp
-2.8770479672255753e-02 1.1643053136106035e+01 3.9720512324043514e-02
-1.3314979557682194e-01 1.1602932938714963e+01 -7.2221757140556861e-03
-5.0145666812602130e-03 1.1586798886505161e+01 -1.1200117668569322e-01
ITEM: ATOMS id element xu yu zu
1 Al 1.61222 1.54616 1.48811
2 Ni 0.000507813 -0.0282971 0.103046
3 Al 1.46427 1.42433 4.37942
4 Ni 0.0438688 -0.0121638 2.88757
5 Al 1.49051 1.39968 7.12756
6 Ni 0.0753668 -0.224867 5.77471
7 Al 1.39427 1.36508 10.1938
8 Ni -0.0467904 -0.0400824 8.63859
9 Al 1.53074 4.40264 1.36036
10 Ni -0.0378606 2.79435 0.00204175
11 Al 1.49216 4.27409 4.34307
12 Ni 0.00336902 2.82542 2.84873
13 Al 1.45587 4.34242 7.27105
14 Ni 0.129086 2.91177 5.809
15 Al 1.4005 4.25591 10.1753
16 Ni -0.0569655 2.76843 8.74791
17 Al 1.32478 7.21168 1.48539
18 Ni -0.0947557 5.77922 -0.0265319
19 Al 1.3718 7.10612 4.3171
20 Ni 0.0155811 5.62456 2.80496
21 Al 1.47571 7.12439 7.19264
22 Ni 0.019601 5.73694 5.77739
23 Al 1.45112 7.20392 10.2188
24 Ni 0.0301431 5.72502 8.77336
25 Al 1.53219 10.2624 1.34282
26 Ni -0.0261084 8.85157 0.0703603
27 Al 1.44879 10.0297 4.28631
28 Ni 0.00321585 8.698 2.84856
29 Al 1.35012 10.0709 7.29484
30 Ni 0.0796781 8.59963 5.75454
31 Al 1.43637 10.0898 10.054
32 Ni 0.017065 8.55585 8.60909
33 Al 4.28908 1.39828 1.52898
34 Ni 2.93045 0.0802971 -0.0684147
35 Al 4.39327 1.4027 4.45864
36 Ni 2.7832 -0.0881486 2.95014
37 Al 4.36669 1.29238 7.2397
38 Ni 2.77052 -0.159506 5.83034
39 Al 4.33149 1.26804 10.0692
40 Ni 2.91265 -0.189014 8.68573
41 Al 4.33784 4.30569 1.3444
42 Ni 2.86256 2.97376 -0.157482
43 Al 4.41819 4.30851 4.24894
44 Ni 3.08257 2.95285 2.98752
45 Al 4.32186 4.37412 7.25243
46 Ni 3.04893 2.8626 5.72873
47 Al 4.38533 4.25566 10.0854
48 Ni 3.01887 2.83486 8.56493
49 Al 4.40059 7.20561 1.38284
50 Ni 2.86275 5.78524 -0.117115
51 Al 4.30318 7.27496 4.36874
52 Ni 2.85088 5.7857 2.81244
53 Al 4.30372 7.14515 7.23478
54 Ni 2.94615 5.63173 5.73806
55 Al 4.29751 7.15784 10.1885
56 Ni 2.81912 5.73274 8.75818
57 Al 4.26528 10.1167 1.36693
58 Ni 2.84027 8.729 0.0305087
59 Al 4.35314 10.0967 4.31048
60 Ni 2.81598 8.54941 2.80485
61 Al 4.31178 10.0116 7.22471
62 Ni 2.84975 8.77178 5.67684
63 Al 4.42027 10.0088 10.1222
64 Ni 2.83571 8.57015 8.72879
65 Al 7.22776 1.41488 1.3865
66 Ni 5.73907 -0.0652704 0.0986686
67 Al 7.16004 1.4168 4.28453
68 Ni 5.76019 -0.0390752 2.98383
69 Al 7.17323 1.35349 7.32029
70 Ni 5.68539 -0.164947 5.81348
71 Al 7.22287 1.35767 10.0381
72 Ni 5.70949 -0.210928 8.65152
73 Al 7.20487 4.29714 1.41147
74 Ni 5.82577 2.69188 -0.0402699
75 Al 7.23514 4.30083 4.37511
76 Ni 5.8513 2.85624 2.7283
77 Al 7.23208 4.36467 7.26721
78 Ni 5.80682 2.90544 5.89239
79 Al 7.20351 4.28477 10.1666
80 Ni 5.89378 2.95497 8.62659
81 Al 7.14805 7.22216 1.47992
82 Ni 5.90906 5.88162 0.0350867
83 Al 7.23359 7.15467 4.36528
84 Ni 5.80209 5.70502 2.97041
85 Al 7.26902 7.20237 7.29336
86 Ni 5.77177 5.8475 5.747
87 Al 7.21748 7.10197 10.0861
88 Ni 5.86229 5.80815 8.72501
89 Al 7.28382 10.0763 1.51118
90 Ni 5.91894 8.7616 -0.00882554
91 Al 7.183 10.0879 4.35241
92 Ni 5.6935 8.6754 2.81164
93 Al 7.2261 10.1009 7.3779
94 Ni 5.86276 8.61292 5.87428
95 Al 7.32137 10.0915 10.2742
96 Ni 5.80283 8.48768 8.72313
97 Al 10.1859 1.3935 1.54573
98 Ni 8.77465 -0.0344964 0.0358388
99 Al 10.2242 1.40624 4.31338
100 Ni 8.60425 -0.212619 2.97589
101 Al 10.2001 1.40821 7.0763
102 Ni 8.61727 0.0647694 5.78733
103 Al 10.1203 1.28854 10.1123
104 Ni 8.73166 -0.238008 8.77859
105 Al 10.0673 4.26223 1.38042
106 Ni 8.74469 2.76704 -0.0231293
107 Al 10.0834 4.27492 4.27035
108 Ni 8.71019 2.84489 2.81027
109 Al 10.2606 4.3432 7.15467
110 Ni 8.69261 2.8357 5.66287
111 Al 9.99027 4.31657 10.1553
112 Ni 8.68222 2.88843 8.66218
113 Al 10.236 7.26904 1.57098
114 Ni 8.71127 5.843 0.158696
115 Al 10.2651 7.15316 4.19172
116 Ni 8.64884 5.79395 2.90479
117 Al 10.2036 7.13025 7.25939
118 Ni 8.7513 5.80561 5.6855
119 Al 10.1755 7.19389 10.2148
120 Ni 8.65538 5.87499 8.7525
121 Al 10.2008 10.2399 1.58847
122 Ni 8.80256 8.66497 0.134004
123 Al 10.1793 9.9067 4.47487
124 Ni 8.69628 8.64733 2.97222
125 Al 10.1388 10.0409 7.21211
126 Ni 8.7099 8.52987 5.83477
127 Al 10.1781 10.0586 10.0891
128 Ni 8.82727 8.59943 8.70088
ITEM: TIMESTEP
4300
ITEM: NUMBER OF ATOMS
128
ITEM: BOX BOUNDS xy xz yz pp pp pp
-8.7611139428299151e-02 1.1638031571368256e+01 -5.1848812326836718e-02
-5.4715102128265691e-02 1.1639151222863186e+01 2.0484924443002071e-02
-3.3324215250005729e-02 1.1615108535073926e+01 2.6518009110904459e-03
ITEM: ATOMS id element xu yu zu
1 Al 1.44803 1.30218 1.47394
2 Ni -0.0298043 0.0165345 -0.148352
3 Al 1.5218 1.4694 4.33777
4 Ni 0.0100073 0.0390282 2.98399
5 Al 1.48439 1.38507 7.13917
6 Ni -0.0448225 0.117766 5.78561
7 Al 1.37428 1.40955 10.1921
8 Ni -0.0269108 -0.0822405 8.66094
9 Al 1.45412 4.34153 1.43722
10 Ni 0.00654291 2.78398 -0.0733132
11 Al 1.35289 4.2662 4.36303
12 Ni -0.1456 2.75679 2.90174
13 Al 1.35032 4.41985 7.21279
14 Ni -0.157763 2.74989 5.82154
15 Al 1.52926 4.26112 10.2131
16 Ni 0.0250831 2.86008 8.62738
17 Al 1.3934 7.18412 1.51752
18 Ni -0.0136793 5.67295 -0.0149296
19 Al 1.34586 7.21582 4.39231
20 Ni -0.0489623 5.88467 2.96508
21 Al 1.28741 7.23979 7.31391
22 Ni -0.0754125 5.71344 5.82822
23 Al 1.39574 7.15212 10.129
24 Ni -0.168836 5.68868 8.66253
25 Al 1.38533 10.1418 1.48928
26 Ni -0.0272579 8.63284 -0.0843295
27 Al 1.46356 10.1621 4.46823
28 Ni -0.0634916 8.62143 2.92175
29 Al 1.39976 10.2577 7.24848
30 Ni -0.0852701 8.76368 5.85533
31 Al 1.3972 10.1722 10.0745
32 Ni -0.144349 8.75618 8.78479
33 Al 4.39044 1.40734 1.39828
34 Ni 2.82145 -0.0822157 -0.0369112
35 Al 4.42684 1.54577 4.30748
36 Ni 2.98896 -0.0138794 2.92223
37 Al 4.40204 1.42284 7.12448
38 Ni 3.00491 -0.0344395 5.7345
39 Al 4.24276 1.36628 10.1382
40 Ni 2.94722 0.00318846 8.67321
41 Al 4.38752 4.35505 1.53431
42 Ni 2.96732 2.82663 0.102273
43 Al 4.22512 4.3982 4.31631
44 Ni 2.80655 2.84066 2.77925
45 Al 4.2547 4.37998 7.30483
46 Ni 2.84021 2.92574 5.8823
47 Al 4.35224 4.35292 10.1863
48 Ni 2.89185 2.91767 8.76881
49 Al 4.32348 7.23535 1.39796
50 Ni 2.8259 5.69558 0.0181304
51 Al 4.37946 7.32697 4.36419
52 Ni 2.79894 5.71897 2.949
53 Al 4.3862 7.23817 7.32057
54 Ni 2.77653 5.8742 5.86677
55 Al 4.20724 7.28231 10.1717
56 Ni 2.94835 5.79535 8.74408
57 Al 4.21503 10.2163 1.31572
58 Ni 2.76917 8.76889 -0.0424382
59 Al 4.33194 10.1495 4.36124
60 Ni 2.87773 8.74516 2.93747
61 Al 4.33299 10.2636 7.21966
62 Ni 2.84569 8.53717 5.90562
63 Al 4.30684 10.2377 10.1019
64 Ni 2.82002 8.71831 8.77015
65 Al 7.14758 1.4503 1.38449
66 Ni 5.80076 -0.0672731 -0.142162
67 Al 7.25154 1.37515 4.2803
68 Ni 5.74258 -0.125503 2.86083
69 Al 7.12522 1.39419 7.22486
70 Ni 5.91379 -0.0741377 5.78853
71 Al 7.17612 1.45481 10.1699
72 Ni 5.90333 -0.0225861 8.66082
73 Al 7.27431 4.30895 1.46883
74 Ni 5.81681 3.04134 0.0396159
75 Al 7.23296 4.3851 4.35762
76 Ni 5.73488 2.90715 3.04036
77 Al 7.04143 4.26179 7.27692
78 Ni 5.78711 2.89497 5.6957
79 Al 7.14308 4.3147 10.1711
80 Ni 5.70332 2.7769 8.6627
81 Al 7.30446 7.24941 1.3279
82 Ni 5.7454 5.78458 -0.103067
83 Al 7.31109 7.20532 4.34226
84 Ni 5.89704 5.94385 2.69917
85 Al 7.27669 7.17851 7.27126
86 Ni 5.82552 5.85991 5.84836
87 Al 7.10882 7.18635 10.0675
88 Ni 5.77326 5.85426 8.71045
89 Al 7.14796 10.1175 1.35329
90 Ni 5.58207 8.76024 -0.0170367
91 Al 7.19473 10.1784 4.15058
92 Ni 5.78251 8.66121 2.83875
93 Al 7.18121 10.0865 7.29587
94 Ni 5.71064 8.67686 5.75641
95 Al 7.30637 10.2267 10.162
96 Ni 5.76808 8.83353 8.74767
97 Al 10.1421 1.37826 1.43228
98 Ni 8.59755 -0.128706 -0.0751427
99 Al 10.165 1.45279 4.40046
100 Ni 8.72322 0.0419074 2.85717
101 Al 10.0945 1.54966 7.25883
102 Ni 8.70375 -0.150545 5.75137
103 Al 10.0893 1.43869 10.1025
104 Ni 8.66966 0.109086 8.55349
105 Al 10.115 4.33456 1.3295
106 Ni 8.61312 2.8454 -0.00983358
107 Al 10.1196 4.33402 4.26734
108 Ni 8.68284 2.83373 2.94605
109 Al 10.2254 4.37815 7.14754
110 Ni 8.6918 2.92579 5.81413
111 Al 10.1949 4.26163 10.1849
112 Ni 8.60608 2.7462 8.75366
113 Al 10.2019 7.31871 1.42836
114 Ni 8.65263 5.6985 -0.173107
115 Al 10.1946 7.24921 4.31982
116 Ni 8.79549 5.70978 2.86309
117 Al 10.1721 7.26705 7.23694
118 Ni 8.73965 5.69304 5.80661
119 Al 10.0738 7.22101 10.1905
120 Ni 8.77226 5.62248 8.65016
121 Al 10.2333 10.3103 1.4542
122 Ni 8.73775 8.85788 -0.0525728
123 Al 10.2654 10.1239 4.41046
124 Ni 8.80718 8.78563 2.86393
125 Al 10.1135 10.2028 7.25668
126 Ni 8.73805 8.77599 5.72226
127 Al 10.1245 10.3073 10.106
128 Ni 8.6658 8.63413 8.65275
ITEM: TIMESTEP
4400
ITEM: NUMBER OF ATOMS
128
ITEM: BOX BOUNDS xy xz yz pp pp pp
-4.2382675319229540e-04 1.1607556211410383e+01 3.2457309018813656e-02
-2.1882138026716902e-02 1.1706360732531843e+01 -7.1092441854082519e-03
-5.6634316580783661e-04 1.1582350662989729e+01 1.0269427468129423e-01
ITEM: ATOMS id element xu yu zu
1 Al 1.41443 1.37841 1.51161
2 Ni -0.00138032 -0.0102425 0.0141771
3 Al 1.40909 1.39586 4.36903
4 Ni -0.0406759 -0.0701293 2.71529
5 Al 1.37772 1.40041 7.12313
6 Ni -0.123746 -0.202307 5.76282
7 Al 1.50507 1.46917 10.2502
8 Ni 0.067634 0.109431 8.82052
9 Al 1.5813 4.40647 1.45464
10 Ni -0.0342576 3.04575 0.0333689
11 Al 1.5596 4.50714 4.31003
12 Ni 0.113939 2.92159 3.03962
13 Al 1.46602 4.38099 7.14268
14 Ni 0.128563 3.04511 5.7768
15 Al 1.54971 4.38746 10.1431
16 Ni -0.0186639 2.89095 8.74612
17 Al 1.38779 7.20749 1.44839
18 Ni 0.00651738 5.84942 0.00432413
19 Al 1.47865 7.28928 4.27642
20 Ni -0.0382599 5.81609 2.8803
21 Al 1.4971 7.31022 7.1545
22 Ni 0.0714619 5.9202 5.79073
23 Al 1.53191 7.35112 10.0132
24 Ni 0.118369 5.87255 8.6561
25 Al 1.53294 10.065 1.41833
26 Ni -0.00512455 8.66803 -0.09812
27 Al 1.48404 10.2285 4.46898
28 Ni 0.0723974 8.88476 2.91472
29 Al 1.54181 10.239 7.27839
30 Ni 0.00932158 8.69576 5.80453
31 Al 1.50611 10.2375 10.1509
32 Ni 0.0447618 8.70829 8.5971
33 Al 4.33415 1.46986 1.47283
34 Ni 3.0297 -0.0361879 0.122685
35 Al 4.46841 1.5249 4.21544
36 Ni 2.75304 -0.0842176 2.89173
37 Al 4.43353 1.52082 7.11853
38 Ni 2.85464 0.0261704 5.91725
39 Al 4.32809 1.48439 10.1949
40 Ni 2.82013 -0.0389971 8.68293
41 Al 4.35046 4.36773 1.50822
42 Ni 2.79781 2.896 0.00363939
43 Al 4.36723 4.36862 4.26403
44 Ni 2.84719 2.80905 3.07156
45 Al 4.31823 4.29521 7.26382
46 Ni 2.91999 2.84666 5.65545
47 Al 4.28891 4.48179 10.174
48 Ni 2.94248 2.87218 8.66199
49 Al 4.44669 7.34249 1.46199
50 Ni 2.90382 5.86983 0.0407031
51 Al 4.41687 7.37397 4.42006
52 Ni 2.91328 5.94856 2.80298
53 Al 4.3663 7.19403 7.17452
54 Ni 2.9582 5.77022 5.81942
55 Al 4.40741 7.27273 9.99038
56 Ni 2.86863 5.8224 8.61414
57 Al 4.40836 10.1482 1.47146
58 Ni 2.97977 8.66156 -0.0789954
59 Al 4.37348 10.1976 4.32223
60 Ni 2.83557 8.75219 2.92831
61 Al 4.44835 10.3324 7.27014
62 Ni 2.91696 8.858 5.7725
63 Al 4.34286 10.2068 10.2121
64 Ni 3.02351 8.75812 8.61536
65 Al 7.25571 1.5459 1.38294
66 Ni 5.74124 -0.118335 0.180571
67 Al 7.2259 1.46372 4.28063
68 Ni 5.94177 0.0155457 2.88661
69 Al 7.17132 1.35749 7.30485
70 Ni 5.69993 0.0373147 5.73683
71 Al 7.23048 1.512 10.172
72 Ni 5.69052 0.12223 8.73019
73 Al 7.24461 4.38788 1.38715
74 Ni 5.7043 2.89993 0.0511552
75 Al 7.38295 4.42869 4.26609
76 Ni 5.88481 2.96685 2.72705
77 Al 7.10505 4.32239 7.20232
78 Ni 5.82269 2.93147 5.75709
79 Al 7.1991 4.36576 10.136
80 Ni 5.79414 2.99857 8.81399
81 Al 7.17925 7.22826 1.547
82 Ni 5.73177 5.84188 0.132214
83 Al 7.24655 7.21953 4.3827
84 Ni 5.71217 5.8137 3.00826
85 Al 7.21435 7.28875 7.31847
86 Ni 5.80421 5.78453 5.765
87 Al 7.25455 7.25324 10.1932
88 Ni 5.6978 5.66202 8.6305
89 Al 7.29551 10.1233 1.32551
90 Ni 5.9317 8.63449 -0.0937819
91 Al 7.29996 10.2171 4.24414
92 Ni 5.85078 8.70434 2.99213
93 Al 7.18895 10.2152 7.29195
94 Ni 5.89246 8.73103 5.78821
95 Al 7.22101 10.3186 10.2112
96 Ni 5.83119 8.69644 8.60275
97 Al 10.124 1.4758 1.49172
98 Ni 8.75118 0.120992 0.0300616
99 Al 10.2049 1.5952 4.4227
100 Ni 8.66302 -0.0526437 2.74964
101 Al 10.0876 1.54116 7.21733
102 Ni 8.71737 0.0649518 5.75982
103 Al 10.1074 1.55028 10.099
104 Ni 8.61278 -0.0397953 8.84835
105 Al 10.125 4.43337 1.50298
106 Ni 8.72 2.96866 0.00749579
107 Al 10.1703 4.46442 4.40784
108 Ni 8.67001 2.96898 2.85264
109 Al 10.2003 4.52232 7.20483
110 Ni 8.62001 2.88399 5.71785
111 Al 10.1816 4.5033 10.1856
112 Ni 8.69252 2.89678 8.60469
113 Al 10.2154 7.30235 1.43944
114 Ni 8.7955 5.73688 -0.0260642
115 Al 10.151 7.31721 4.32305
116 Ni 8.65724 6.00962 2.86953
117 Al 10.1577 7.28897 7.20188
118 Ni 8.60891 5.90718 5.89584
119 Al 10.1685 7.2777 10.0356
120 Ni 8.57168 5.97081 8.70288
121 Al 10.2135 10.0751 1.37703
122 Ni 8.712 8.62131 -0.0604249
123 Al 10.0415 10.1655 4.28427
124 Ni 8.68189 8.59625 2.77801
125 Al 10.1324 10.2215 7.25583
126 Ni 8.67795 8.73608 5.87289
127 Al 10.2571 10.276 10.1719
128 Ni 8.64795 8.93305 8.73333
ITEM: TIMESTEP
4500
ITEM: NUMBER OF ATOMS
128
ITEM: BOX BOUNDS xy xz yz pp pp pp
-4.8952530911889940e-02 1.1721948332473229e+01 1.0056558906558528e-01
-9.0190706955125044e-02 1.1639524883781407e+01 -9.3541073280217144e-03
-4.9093009826406409e-02 1.1630877329650318e+01 -3.2450142997556497e-02
ITEM: ATOMS id element xu yu zu
1 Al 1.37294 1.32175 1.4543
2 Ni -0.0597615 -0.0620307 -0.048977
3 Al 1.34116 1.52039 4.26385
4 Ni -0.0154499 -0.0744173 2.97766
5 Al 1.42926 1.2534 7.2032
6 Ni 0.00345742 -0.00181006 5.81694
7 Al 1.49766 1.34421 10.1005
8 Ni -0.158362 -0.144687 8.61725
9 Al 1.5655 4.4306 1.38424
10 Ni 0.0682385 2.81571 -0.126504
11 Al 1.48913 4.30415 4.34493
12 Ni -0.079018 2.99212 2.78736
13 Al 1.52585 4.33206 7.09297
14 Ni -0.156699 2.80541 5.7105
15 Al 1.4994 4.32701 10.192
16 Ni 0.00413066 2.94666 8.63836
17 Al 1.4461 7.23968 1.38859
18 Ni 0.00492461 5.83808 -0.103009
19 Al 1.53839 7.27865 4.3354
20 Ni 0.135485 5.87011 2.92214
21 Al 1.43378 7.18504 7.25175
22 Ni -0.00574445 5.76224 5.80515
23 Al 1.58057 7.24341 10.1092
24 Ni 0.00519518 5.84035 8.6513
25 Al 1.49024 10.156 1.51354
26 Ni 0.0231421 8.74638 -0.024431
27 Al 1.50534 10.1014 4.3169
28 Ni -0.0989827 8.51815 2.80493
29 Al 1.61861 10.1646 7.26735
30 Ni 5.52516e-05 8.70806 5.79117
31 Al 1.44521 10.2238 10.1694
32 Ni 0.107414 8.69693 8.81787
33 Al 4.33113 1.40186 1.36398
34 Ni 2.72839 -0.0540394 -0.138021
35 Al 4.22009 1.30626 4.35427
36 Ni 2.88074 -0.0616471 2.77872
37 Al 4.46785 1.3601 7.27339
38 Ni 2.67024 -0.170143 5.64538
39 Al 4.37306 1.42211 10.1901
40 Ni 2.94031 -0.0649416 8.79841
41 Al 4.45029 4.33323 1.3665
42 Ni 2.92416 2.90102 -0.0748583
43 Al 4.36826 4.19332 4.27369
44 Ni 2.88158 2.94031 2.72042
45 Al 4.51848 4.26596 7.2752
46 Ni 2.8144 2.73231 5.84532
47 Al 4.3259 4.30173 10.0531
48 Ni 2.74182 2.88827 8.77718
49 Al 4.45008 7.16376 1.41422
50 Ni 2.94907 5.76115 -0.07168
51 Al 4.44885 7.25729 4.32404
52 Ni 2.90927 5.70061 3.00128
53 Al 4.347 7.19656 7.19874
54 Ni 2.93347 5.7768 5.70424
55 Al 4.45354 7.21026 10.1059
56 Ni 3.03207 5.74445 8.68573
57 Al 4.4285 10.296 1.31909
58 Ni 2.98177 8.73115 0.0150377
59 Al 4.4099 10.1385 4.34884
60 Ni 2.98588 8.72047 2.83311
61 Al 4.38809 10.3085 7.32109
62 Ni 2.96132 8.72308 5.7399
63 Al 4.29849 10.2009 10.2576
64 Ni 2.88598 8.69121 8.75073
65 Al 7.35942 1.43362 1.48911
66 Ni 5.81728 0.0347158 -0.118555
67 Al 7.237 1.40206 4.32676
68 Ni 5.70624 -0.0862823 2.85566
69 Al 7.33583 1.46603 7.34342
70 Ni 6.01515 0.0535639 5.83658
71 Al 7.32266 1.35089 10.2787
72 Ni 5.91835 -0.0686113 8.73581
73 Al 7.2471 4.22081 1.36137
74 Ni 5.85288 2.87838 -0.0313243
75 Al 7.34257 4.2909 4.29049
76 Ni 5.76392 2.74855 2.9395
77 Al 7.25657 4.41185 7.10906
78 Ni 5.78645 2.66879 5.81714
79 Al 7.32018 4.2526 10.182
80 Ni 5.78973 2.81887 8.68108
81 Al 7.25191 7.26606 1.55085
82 Ni 5.82336 5.67439 -0.176762
83 Al 7.2157 7.1493 4.28102
84 Ni 5.83599 5.71963 2.81654
85 Al 7.23828 7.23108 7.19161
86 Ni 5.71157 5.68946 5.76388
87 Al 7.36095 7.23639 10.19
88 Ni 5.85457 5.84143 8.68786
89 Al 7.26136 10.304 1.35747
90 Ni 5.74037 8.71674 0.0351216
91 Al 7.34323 10.2095 4.34003
92 Ni 5.83281 8.81404 2.84837
93 Al 7.37346 10.1731 7.35831
94 Ni 5.78652 8.86794 5.83512
95 Al 7.29418 10.1875 10.1787
96 Ni 5.78412 8.72066 8.72778
97 Al 10.1597 1.24521 1.39219
98 Ni 8.68349 -0.115741 -0.0460169
99 Al 10.1333 1.47344 4.34616
100 Ni 8.76575 -0.152529 2.95989
101 Al 10.1379 1.40668 7.27191
102 Ni 8.72734 -0.0275998 5.85705
103 Al 10.2601 1.32977 10.1304
104 Ni 8.75064 0.131981 8.72084
105 Al 10.1906 4.43694 1.37461
106 Ni 8.87826 2.91478 -0.0207045
107 Al 10.2752 4.34356 4.3734
108 Ni 8.79202 2.92169 2.87424
109 Al 10.2679 4.27456 7.20078
110 Ni 8.84113 2.83914 5.81698
111 Al 10.3362 4.31419 10.3291
112 Ni 8.78357 2.90163 8.85503
113 Al 10.1576 7.14203 1.44663
114 Ni 8.64202 5.8677 0.0356938
115 Al 10.2068 7.26659 4.36152
116 Ni 8.70975 5.64777 2.94742
117 Al 10.2974 7.18576 7.16928
118 Ni 8.88429 5.79355 5.75502
119 Al 10.229 7.13768 10.1382
120 Ni 8.85285 5.69301 8.57626
121 Al 10.1826 9.96538 1.43296
122 Ni 8.58738 8.73178 0.0173235
123 Al 10.2693 10.1765 4.32143
124 Ni 8.70208 8.75325 3.04532
125 Al 10.2401 10.0415 7.2014
126 Ni 8.71496 8.67692 5.88616
127 Al 10.2723 10.1156 10.1765
128 Ni 8.70344 8.46878 8.6618
ITEM: TIMESTEP
4600
ITEM: NUMBER OF ATOMS
128
ITEM: BOX BOUNDS xy xz yz pp pp pp
-2.3545111935194901e-02 1.1613533258056705e+01 -1.6406900381544437e-02
-1.4673893352407025e-01 1.1604075397821230e+01 2.4610726679263426e-02
7.1517277020518577e-03 1.1574632592121874e+01 -1.2444785552667853e-01
ITEM: ATOMS id element xu yu zu
1 Al 1.43449 1.3685 1.41802
2 Ni -0.0781201 -0.0682694 -0.0893961
3 Al 1.39374 1.38555 4.43927
4 Ni 0.0102816 -0.0401807 2.88974
5 Al 1.43759 1.31142 7.29182
6 Ni -0.0112869 -0.0746781 5.7513
7 Al 1.51838 1.27469 10.143
8 Ni 0.0397345 -0.135526 8.80919
9 Al 1.49983 4.29236 1.56449
10 Ni -0.160205 2.94288 0.048916
11 Al 1.46684 4.24235 4.33948
12 Ni 0.0635355 2.64171 2.88264
13 Al 1.46718 4.34424 7.27949
14 Ni 0.192439 2.90597 5.92383
15 Al 1.45608 4.16558 10.1942
16 Ni -0.0668217 2.79016 8.81914
17 Al 1.43519 7.21865 1.53989
18 Ni -0.0280292 5.81362 0.123278
19 Al 1.54343 7.11585 4.25878
20 Ni -0.159775 5.69632 2.78721
21 Al 1.38578 7.19145 7.41622
22 Ni 0.104421 5.7715 5.68808
23 Al 1.4511 7.14664 10.1603
24 Ni -0.0791544 5.7409 8.8443
25 Al 1.45206 10.2409 1.43691
26 Ni -0.00121353 8.5549 0.157875
27 Al 1.57436 10.1643 4.3233
28 Ni 0.116265 8.76815 2.9457
29 Al 1.42574 10.1062 7.08752
30 Ni 0.0738033 8.49245 5.77424
31 Al 1.4154 9.93665 10.0987
32 Ni -0.166948 8.55562 8.57563
33 Al 4.39298 1.36617 1.43771
34 Ni 2.88713 -0.011403 -0.0104845
35 Al 4.36425 1.49828 4.44278
36 Ni 2.88489 0.0270227 2.95832
37 Al 4.4554 1.34352 7.39613
38 Ni 3.00121 0.0668326 5.92305
39 Al 4.40215 1.27748 10.1819
40 Ni 2.71108 -0.229517 8.68124
41 Al 4.40355 4.20272 1.37227
42 Ni 2.85137 2.83073 -0.0945545
43 Al 4.27209 4.29226 4.31002
44 Ni 2.90437 2.75556 2.91728
45 Al 4.46391 4.36596 7.25025
46 Ni 2.84975 2.95965 5.80465
47 Al 4.29871 4.23053 10.0269
48 Ni 3.01079 2.78744 8.65749
49 Al 4.41754 7.198 1.4649
50 Ni 2.96402 5.7034 -0.00811173
51 Al 4.30174 7.11459 4.36601
52 Ni 3.02702 5.6416 2.75832
53 Al 4.34179 7.1237 7.27517
54 Ni 2.81042 5.82314 5.90527
55 Al 4.37821 7.12681 10.158
56 Ni 2.84504 5.82817 8.77234
57 Al 4.39606 10.1972 1.43189
58 Ni 2.84286 8.71349 0.0154993
59 Al 4.31574 10.1005 4.35869
60 Ni 2.93687 8.70603 2.91738
61 Al 4.16148 10.0229 7.25225
62 Ni 2.85726 8.57899 5.83973
63 Al 4.31734 10.1216 10.147
64 Ni 3.00721 8.71 8.71359
65 Al 7.26588 1.39682 1.4403
66 Ni 5.88243 -0.0318085 -0.0775623
67 Al 7.13414 1.39553 4.36604
68 Ni 5.78582 0.0927905 2.91193
69 Al 7.27134 1.34486 7.12335
70 Ni 5.63467 -0.154873 5.89162
71 Al 7.32392 1.28439 10.0642
72 Ni 5.84478 -0.0528761 8.60495
73 Al 7.15325 4.1946 1.48165
74 Ni 5.8198 2.86731 -0.132123
75 Al 7.26465 4.31043 4.28262
76 Ni 5.80185 2.85876 2.89713
77 Al 7.23557 4.31599 7.27118
78 Ni 5.76547 2.98913 5.85472
79 Al 7.19851 4.19426 10.2014
80 Ni 5.80247 2.76414 8.60635
81 Al 7.27068 7.29537 1.44023
82 Ni 5.82145 5.83631 0.138149
83 Al 7.17928 7.27063 4.1348
84 Ni 5.79959 5.7579 3.00759
85 Al 7.34068 7.25041 7.17808
86 Ni 5.86214 5.79811 5.81916
87 Al 7.25319 7.2639 10.1265
88 Ni 5.69111 5.62538 8.65675
89 Al 7.2456 10.1954 1.44999
90 Ni 5.86004 8.7662 -0.0124109
91 Al 7.22663 10.092 4.35099
92 Ni 5.70671 8.65447 2.9218
93 Al 7.18608 10.0769 7.19013
94 Ni 5.78549 8.52801 5.76476
95 Al 7.29012 10.1367 10.077
96 Ni 5.8622 8.60476 8.58932
97 Al 10.086 1.37284 1.3142
98 Ni 8.68521 -0.013144 -0.0185284
99 Al 10.1525 1.43093 4.42734
100 Ni 8.6603 0.0162367 2.88778
101 Al 10.1481 1.29739 7.21557
102 Ni 8.71649 -0.161914 5.74891
103 Al 10.0665 1.26374 10.0493
104 Ni 8.69353 -0.215801 8.60985
105 Al 10.0045 4.36257 1.42413
106 Ni 8.53856 2.85677 0.00254178
107 Al 10.1375 4.17885 4.31566
108 Ni 8.66861 2.71858 2.86908
109 Al 10.1917 4.27667 7.1814
110 Ni 8.68989 2.84829 5.74296
111 Al 10.1734 4.17209 10.2164
112 Ni 8.77052 2.79025 8.50711
113 Al 10.1286 7.19798 1.5263
114 Ni 8.69245 5.70176 -0.028448
115 Al 10.127 7.0683 4.42801
116 Ni 8.62969 5.88821 2.86304
117 Al 10.1818 7.02753 7.17539
118 Ni 8.55453 5.5908 5.79088
119 Al 10.1394 7.1196 10.1211
120 Ni 8.60729 5.81983 8.78025
121 Al 10.0959 10.1085 1.46572
122 Ni 8.76555 8.7449 0.0802435
123 Al 10.1553 10.084 4.21669
124 Ni 8.70558 8.73245 2.82817
125 Al 10.1951 10.041 7.06686
126 Ni 8.80088 8.67888 5.67658
127 Al 10.2693 10.0111 10.1214
128 Ni 8.71684 8.64333 8.68736
ITEM: TIMESTEP
4700
ITEM: NUMBER OF ATOMS
128
ITEM: BOX BOUNDS xy xz yz pp pp pp
-8.8242633040367724e-02 1.1625700674313856e+01 -4.7631666959961787e-02
-5.5692698034548904e-02 1.1695143248838137e+01 3.3053884096580690e-03
-1.8182428327298439e-02 1.1599966748151234e+01 5.7666230979750981e-02
ITEM: ATOMS id element xu yu zu
1 Al 1.49894 1.45687 1.48892
2 Ni 0.0439383 0.0124463 0.106855
3 Al 1.42588 1.41107 4.37895
4 Ni 0.13264 0.0047497 2.91638
5 Al 1.39848 1.42236 7.23372
6 Ni 0.0556783 -0.074301 5.89975
7 Al 1.45816 1.40383 10.129
8 Ni -0.0748472 0.0469598 8.58765
9 Al 1.42899 4.33578 1.48799
10 Ni -0.0323273 2.76793 -0.0564015
11 Al 1.41709 4.28702 4.39917
12 Ni -0.0683442 3.05907 2.99003
13 Al 1.32044 4.34118 7.11235
14 Ni -0.150906 2.98926 5.68425
15 Al 1.38014 4.32479 10.1858
16 Ni -0.108968 2.93844 8.59504
17 Al 1.25243 7.30592 1.45452
18 Ni -0.166569 5.60521 -0.030249
19 Al 1.39049 7.21348 4.35602
20 Ni 0.0161348 5.67684 2.85734
21 Al 1.38549 7.13625 7.23916
22 Ni -0.160195 5.77013 5.80469
23 Al 1.3054 7.22745 10.2242
24 Ni -0.0365842 5.81182 8.6784
25 Al 1.43459 10.2791 1.41949
26 Ni -0.0301729 8.92675 -0.0554117
27 Al 1.41996 10.1825 4.22917
28 Ni -0.0195823 8.85653 2.78763
29 Al 1.3694 10.1214 7.30748
30 Ni -0.147817 8.82708 5.72472
31 Al 1.46343 10.3339 10.1358
32 Ni 0.0732161 8.63295 8.78511
33 Al 4.37818 1.36743 1.49976
34 Ni 2.96579 -0.0962344 -0.0554635
35 Al 4.36113 1.45778 4.33022
36 Ni 2.93567 -0.0711327 2.83119
37 Al 4.27221 1.38123 7.324
38 Ni 2.69015 -0.321073 5.89082
39 Al 4.3739 1.43865 10.1241
40 Ni 3.03141 -0.0549792 8.66439
41 Al 4.25102 4.33696 1.49101
42 Ni 2.97972 2.84945 0.00227008
43 Al 4.28637 4.37313 4.30228
44 Ni 2.91187 2.95757 2.95252
45 Al 4.45465 4.47463 7.40381
46 Ni 2.87077 2.97738 5.73127
47 Al 4.29952 4.36571 10.219
48 Ni 2.7655 2.93872 8.85705
49 Al 4.30179 7.29285 1.43008
50 Ni 2.82058 5.90208 0.0304709
51 Al 4.30615 7.25533 4.32025
52 Ni 2.78146 5.96998 2.88315
53 Al 4.3026 7.20557 7.22821
54 Ni 2.89616 5.69017 5.68931
55 Al 4.17521 7.26218 10.1921
56 Ni 2.89619 5.76582 8.85391
57 Al 4.30304 10.1356 1.43496
58 Ni 2.87553 8.78698 -0.0660687
59 Al 4.19762 10.1536 4.34573
60 Ni 2.7575 8.70704 2.91631
61 Al 4.1283 10.024 7.21365
62 Ni 2.81807 8.67144 5.76773
63 Al 4.2988 10.2036 10.1302
64 Ni 2.70173 8.49017 8.71052
65 Al 7.27037 1.3726 1.47953
66 Ni 5.69136 -0.101212 0.0504236
67 Al 7.2318 1.35796 4.22855
68 Ni 5.75128 -0.21163 2.90505
69 Al 7.11917 1.37771 7.19758
70 Ni 5.87169 -0.0207827 5.67395
71 Al 7.138 1.35114 10.2161
72 Ni 5.7815 -0.218071 8.61128
73 Al 7.24255 4.23805 1.45901
74 Ni 5.75517 2.75673 -0.0068226
75 Al 7.15405 4.44567 4.33018
76 Ni 5.81872 2.95483 2.85739
77 Al 7.24438 4.36368 7.17372
78 Ni 5.78398 2.93658 5.79361
79 Al 7.23603 4.35752 10.2948
80 Ni 5.74129 3.0431 8.77136
81 Al 7.20918 7.30394 1.45224
82 Ni 5.73142 5.87927 -0.107083
83 Al 7.16455 7.23619 4.16328
84 Ni 5.70147 5.87291 2.69178
85 Al 7.19528 7.27976 7.19016
86 Ni 5.74064 5.79784 5.7712
87 Al 7.29583 7.43762 10.1459
88 Ni 5.90424 5.9562 8.79668
89 Al 7.17188 10.1597 1.46156
90 Ni 5.72615 8.74071 -0.00251689
91 Al 7.23492 10.1227 4.41066
92 Ni 5.7813 8.73015 2.92201
93 Al 7.22946 10.2074 7.18157
94 Ni 5.7841 8.74385 5.76537
95 Al 7.2552 10.2844 10.1638
96 Ni 5.77369 8.69505 8.73443
97 Al 10.0957 1.5125 1.43999
98 Ni 8.67222 0.0252424 0.0172344
99 Al 10.2596 1.40595 4.35903
100 Ni 8.68348 -0.0719161 2.89648
101 Al 10.1273 1.50883 7.19195
102 Ni 8.73545 0.0181783 5.74457
103 Al 10.188 1.46569 10.1558
104 Ni 8.71492 0.0500836 8.66368
105 Al 10.1516 4.39866 1.37259
106 Ni 8.73462 2.82984 -0.0905243
107 Al 9.90642 4.31628 4.37922
108 Ni 8.58311 2.90374 3.03467
109 Al 10.0003 4.34415 7.12733
110 Ni 8.61549 2.78402 5.87249
111 Al 10.1648 4.35273 10.1038
112 Ni 8.57749 2.82158 8.68991
113 Al 10.1935 7.30912 1.41242
114 Ni 8.69537 5.90891 0.0854936
115 Al 10.1935 7.28066 4.25925
116 Ni 8.81333 5.7565 2.86815
117 Al 10.1943 7.43293 7.26529
118 Ni 8.92646 6.12015 5.72602
119 Al 10.1218 7.33393 10.1068
120 Ni 8.77719 5.87124 8.56933
121 Al 10.046 10.257 1.4785
122 Ni 8.61838 8.71185 0.014916
123 Al 10.0953 10.2016 4.3265
124 Ni 8.65427 8.7006 2.87088
125 Al 10.1449 10.3151 7.24745
126 Ni 8.6561 8.76133 5.73533
127 Al 10.1634 10.3847 10.1935
128 Ni 8.69352 8.73368 8.68657
ITEM: TIMESTEP
4800
ITEM: NUMBER OF ATOMS
128
ITEM: BOX BOUNDS xy xz yz pp pp pp
-7.1201413150781864e-02 1.1696143292884756e+01 9.1904567703726001e-02
-3.8582709800214054e-02 1.1728081119571065e+01 -4.8747007793548999e-02
-2.3698863943977244e-04 1.1582021308463379e+01 1.0771408994701030e-01
ITEM: ATOMS id element xu yu zu
1 Al 1.46105 1.28786 1.43667
2 Ni -0.0230427 -0.00401482 -0.123347
3 Al 1.38094 1.45261 4.28695
4 Ni -0.12401 -0.0140775 2.9232
5 Al 1.40875 1.43701 7.17867
6 Ni -0.169454 0.0754937 5.70129
7 Al 1.39765 1.61693 10.1199
8 Ni 0.0411327 0.0584221 8.67834
9 Al 1.36684 4.26659 1.55083
10 Ni 0.0156508 2.89355 0.0457765
11 Al 1.51147 4.29743 4.36416
12 Ni 0.0143703 2.72835 2.89382
13 Al 1.35458 4.3755 7.03244
14 Ni 0.0029197 2.78716 5.8608
15 Al 1.48517 4.38132 9.97734
16 Ni 0.160113 2.85881 8.62596
17 Al 1.43912 7.19473 1.43437
18 Ni 0.06793 5.80107 -0.0293441
19 Al 1.47569 7.34814 4.28273
20 Ni -0.123244 5.98819 2.88319
21 Al 1.37254 7.39562 7.27561
22 Ni 0.0480928 5.89999 5.81483
23 Al 1.44724 7.33876 9.94327
24 Ni -0.0414676 5.71351 8.62917
25 Al 1.44862 10.1628 1.51763
26 Ni 0.0452452 8.69007 -0.0505646
27 Al 1.49417 10.2426 4.3508
28 Ni -0.0886672 8.67905 2.85062
29 Al 1.6189 10.4161 7.25467
30 Ni 0.0323832 8.73122 5.90556
31 Al 1.46982 10.3122 10.2053
32 Ni -0.089398 8.94882 8.69606
33 Al 4.32841 1.4338 1.37106
34 Ni 2.85526 0.0605004 0.0259857
35 Al 4.4524 1.45593 4.22086
36 Ni 2.76282 -0.0759904 3.00004
37 Al 4.31383 1.41518 7.2242
38 Ni 3.01266 0.143962 5.72597
39 Al 4.29259 1.58541 10.1083
40 Ni 2.86517 0.188885 8.71812
41 Al 4.29578 4.33562 1.58772
42 Ni 2.82008 2.88586 0.0611219
43 Al 4.32547 4.3937 4.38391
44 Ni 2.91656 2.85908 2.86717
45 Al 4.44364 4.50444 7.18492
46 Ni 3.00719 2.83753 5.67904
47 Al 4.31224 4.36388 10.1291
48 Ni 3.07825 2.91554 8.53037
49 Al 4.40585 7.18387 1.45178
50 Ni 2.91472 5.65876 -0.0903996
51 Al 4.40885 7.25686 4.29203
52 Ni 2.89157 5.7696 2.93331
53 Al 4.36583 7.37283 7.23093
54 Ni 2.91128 6.01467 5.79665
55 Al 4.21659 7.2504 10.1901
56 Ni 2.83355 5.89258 8.52415
57 Al 4.4025 10.2082 1.40505
58 Ni 2.86521 8.61965 -0.0433505
59 Al 4.34555 10.1209 4.29467
60 Ni 2.94564 8.67233 2.88054
61 Al 4.3159 10.2315 7.21612
62 Ni 2.89852 8.7782 5.84337
63 Al 4.36636 10.3263 10.1651
64 Ni 2.98454 8.87601 8.68689
65 Al 7.1759 1.44227 1.48789
66 Ni 5.79304 -0.0302026 0.00126183
67 Al 7.23791 1.39086 4.30977
68 Ni 5.73088 0.0309483 2.88504
69 Al 7.23846 1.4973 7.219
70 Ni 5.78464 -0.0713344 5.96599
71 Al 7.1804 1.52313 10.2761
72 Ni 5.75652 0.167669 8.79602
73 Al 7.39773 4.37355 1.45338
74 Ni 5.84291 3.00268 0.0192401
75 Al 7.21309 4.33451 4.26112
76 Ni 5.74691 2.89682 2.92957
77 Al 7.19956 4.21732 7.1615
78 Ni 5.84786 2.90602 5.68816
79 Al 7.20054 4.42589 10.177
80 Ni 5.85096 2.9428 8.7048
81 Al 7.36034 7.38839 1.4976
82 Ni 5.90174 5.79578 0.0578798
83 Al 7.27797 7.39232 4.42456
84 Ni 5.98711 5.81238 3.00246
85 Al 7.19408 7.26669 7.33292
86 Ni 5.82428 5.88102 5.80977
87 Al 7.27942 7.38549 10.1929
88 Ni 5.69651 5.73681 8.55553
89 Al 7.3324 10.1767 1.4918
90 Ni 5.84331 8.62356 -0.00965232
91 Al 7.2626 10.1772 4.41724
92 Ni 5.84204 8.68321 2.85654
93 Al 7.35577 10.1961 7.24457
94 Ni 5.82582 8.73024 5.85341
95 Al 7.23515 10.2261 10.143
96 Ni 5.83857 8.79495 8.66512
97 Al 10.0726 1.44587 1.38512
98 Ni 8.67608 -0.0557632 0.00938278
99 Al 10.1417 1.51897 4.38109
100 Ni 8.66463 0.0494597 2.87556
101 Al 10.0764 1.47324 7.29064
102 Ni 8.60049 -0.0235075 5.85828
103 Al 10.0096 1.57056 10.2155
104 Ni 8.6088 0.0640833 8.77198
105 Al 10.2691 4.43431 1.40833
106 Ni 8.68637 2.84947 0.0825358
107 Al 10.1509 4.41196 4.33685
108 Ni 8.75085 2.89159 2.80167
109 Al 10.1074 4.26654 7.20254
110 Ni 8.73169 3.00505 5.67866
111 Al 10.2539 4.38171 10.1527
112 Ni 8.72471 3.02148 8.75958
113 Al 10.1178 7.2605 1.32048
114 Ni 8.89995 5.65772 -0.120205
115 Al 10.0282 7.24918 4.48331
116 Ni 8.66659 5.90319 2.92699
117 Al 10.1032 7.30246 7.26082
118 Ni 8.57383 5.61111 5.84736
119 Al 10.2173 7.35041 10.0608
120 Ni 8.73312 5.86491 8.74502
121 Al 10.2192 10.2499 1.50978
122 Ni 8.85658 8.77475 -0.0802091
123 Al 10.1225 10.2118 4.45097
124 Ni 8.80325 8.83435 2.88575
125 Al 10.2775 10.3848 7.3062
126 Ni 8.82982 8.79772 5.83148
127 Al 10.1122 10.3524 10.2253
128 Ni 8.71233 8.69826 8.73238
ITEM: TIMESTEP
4900
ITEM: NUMBER OF ATOMS
128
ITEM: BOX BOUNDS xy xz yz pp pp pp
-2.4333006715345849e-02 1.1656178938823107e+01 6.3422099562947948e-02
-1.4191457333078869e-01 1.1618016662989703e+01 -1.3360487278982836e-02
-1.4809999453425426e-02 1.1596594319277376e+01 -1.0568223016492048e-01
ITEM: ATOMS id element xu yu zu
1 Al 1.52723 1.4369 1.43367
2 Ni 0.0676697 -0.144186 0.0807122
3 Al 1.36538 1.35283 4.25449
4 Ni 0.0112586 -0.210675 2.83357
5 Al 1.3747 1.28047 7.27704
6 Ni -0.0219346 -0.200091 5.80557
7 Al 1.40394 1.38722 10.1988
8 Ni 0.00480268 -0.102697 8.73645
9 Al 1.35582 4.34698 1.4861
10 Ni 0.0443432 2.95329 0.00321335
11 Al 1.60714 4.35355 4.34004
12 Ni -0.0581438 2.8978 2.89079
13 Al 1.33886 4.24531 7.23839
14 Ni 0.027062 2.86113 5.6992
15 Al 1.36958 4.27511 10.1835
16 Ni -0.108411 2.7774 8.68658
17 Al 1.4323 7.22936 1.51218
18 Ni 0.000500064 5.78128 -0.0190566
19 Al 1.55121 7.27 4.41207
20 Ni 0.0366149 5.71657 2.99079
21 Al 1.59336 7.29491 7.18939
22 Ni 0.0475629 5.70279 5.83295
23 Al 1.59958 7.17956 10.1171
24 Ni 0.233462 5.84615 8.66536
25 Al 1.53008 10.0898 1.44711
26 Ni 0.030204 8.58552 0.0128473
27 Al 1.5887 10.1942 4.29934
28 Ni 0.129576 8.68236 2.95106
29 Al 1.49907 10.1348 7.29668
30 Ni -0.138839 8.70048 5.74615
31 Al 1.4192 10.025 10.228
32 Ni -0.00768062 8.46323 8.5618
33 Al 4.31552 1.46812 1.43226
34 Ni 2.92808 -0.14351 0.0378468
35 Al 4.35259 1.37928 4.21582
36 Ni 2.95096 -0.104858 2.72745
37 Al 4.24602 1.32116 7.20076
38 Ni 2.89811 -0.267963 5.85184
39 Al 4.26062 1.33783 10.1287
40 Ni 2.85867 -0.246137 8.7618
41 Al 4.28151 4.34436 1.55907
42 Ni 2.93185 2.98701 0.0508466
43 Al 4.42911 4.28785 4.30842
44 Ni 2.80901 2.89762 3.0009
45 Al 4.43043 4.39455 7.18572
46 Ni 2.76359 2.78227 5.7896
47 Al 4.29614 4.19725 10.1508
48 Ni 2.76814 2.66148 8.7627
49 Al 4.36229 7.3038 1.45095
50 Ni 2.88496 5.8625 0.0761457
51 Al 4.3892 7.31086 4.38158
52 Ni 2.95652 5.86462 2.94527
53 Al 4.42437 7.18828 7.15019
54 Ni 2.84744 5.67082 5.80951
55 Al 4.27301 7.15882 10.2521
56 Ni 2.9895 5.70163 8.72945
57 Al 4.48326 10.1617 1.40938
58 Ni 3.03433 8.67759 -0.0170063
59 Al 4.43183 10.1153 4.28039
60 Ni 2.93164 8.73988 2.89166
61 Al 4.42663 10.1293 7.2998
62 Ni 3.03334 8.81362 5.81592
63 Al 4.44949 10.1024 10.1666
64 Ni 3.00166 8.62917 8.70277
65 Al 7.31429 1.40447 1.36777
66 Ni 5.77941 -0.0204107 0.0374692
67 Al 7.23351 1.42029 4.24819
68 Ni 5.90961 -0.0936443 2.75445
69 Al 7.2376 1.45353 7.26549
70 Ni 5.87098 -0.0083056 5.588
71 Al 7.27078 1.39136 10.2202
72 Ni 5.81237 -0.0217741 8.80174
73 Al 7.33761 4.37922 1.45795
74 Ni 5.76882 2.85567 0.04747
75 Al 7.28379 4.35672 4.31738
76 Ni 5.89091 2.80686 2.81874
77 Al 7.26686 4.26123 7.13751
78 Ni 5.81441 2.89961 5.74454
79 Al 7.19504 4.12475 10.1558
80 Ni 5.64639 2.8484 8.71459
81 Al 7.18143 7.27869 1.49691
82 Ni 5.70216 5.7885 -0.0671631
83 Al 7.22459 7.28841 4.38088
84 Ni 5.67942 5.91953 2.86512
85 Al 7.20657 7.24438 7.30087
86 Ni 5.91108 5.74397 5.74648
87 Al 7.30477 7.19133 10.1232
88 Ni 5.79656 5.7463 8.70232
89 Al 7.33257 10.0427 1.37937
90 Ni 5.82699 8.66718 -0.0349441
91 Al 7.32187 10.1293 4.29479
92 Ni 5.8141 8.68167 2.90479
93 Al 7.27709 10.2644 7.16448
94 Ni 5.88735 8.73573 5.85481
95 Al 7.22697 10.0383 10.1493
96 Ni 5.81236 8.54583 8.75722
97 Al 10.1144 1.34528 1.42797
98 Ni 8.74919 -0.0311068 -0.132574
99 Al 10.1963 1.29841 4.30319
100 Ni 8.69641 -0.242542 2.77592
101 Al 10.2249 1.31113 7.16771
102 Ni 8.67472 -0.075028 5.75579
103 Al 10.1355 1.33036 10.2659
104 Ni 8.66382 -0.0930927 8.71119
105 Al 10.1826 4.28138 1.45457
106 Ni 8.76572 3.00062 -0.0752885
107 Al 10.1057 4.30379 4.40698
108 Ni 8.72234 2.75032 2.85143
109 Al 10.196 4.22056 7.23269
110 Ni 8.69809 2.73408 5.87558
111 Al 10.1184 4.28522 10.2055
112 Ni 8.75578 2.82141 8.5598
113 Al 10.1715 7.16046 1.45893
114 Ni 8.61577 5.84614 0.00404285
115 Al 10.0591 7.33041 4.34516
116 Ni 8.79853 5.75687 2.92419
117 Al 10.1128 7.17987 7.23824
118 Ni 8.84795 5.82392 5.72752
119 Al 10.1515 7.13218 10.1056
120 Ni 8.71961 5.60217 8.62974
121 Al 10.1721 10.087 1.35684
122 Ni 8.66912 8.55711 -0.0211519
123 Al 10.0712 10.1339 4.34552
124 Ni 8.60957 8.55823 2.81704
125 Al 10.1769 10.1375 7.28363
126 Ni 8.55894 8.72319 5.89785
127 Al 10.1174 10.0079 10.17
128 Ni 8.6998 8.71359 8.66211
ITEM: TIMESTEP
5000
ITEM: NUMBER OF ATOMS
128
ITEM: BOX BOUNDS xy xz yz pp pp pp
-9.8099635136856114e-02 1.1641776048805701e+01 -7.7678924684196196e-02
-1.3688311681940851e-01 1.1635157721330486e+01 3.9571018529256638e-02
-3.7890639967799622e-02 1.1619674959791757e+01 -8.3509715312758692e-02
ITEM: ATOMS id element xu yu zu
1 Al 1.43492 1.41021 1.40329
2 Ni -0.133681 -0.0263185 -0.0407183
3 Al 1.38134 1.42508 4.3804
4 Ni -0.0226779 -0.0123057 2.89488
5 Al 1.4187 1.37258 7.38429
6 Ni -0.0100123 -0.0803116 5.80288
7 Al 1.45271 1.36207 10.1103
8 Ni -0.0349295 -0.216516 8.65129
9 Al 1.36664 4.29844 1.4222
10 Ni -0.0605472 2.89395 -0.0855207
11 Al 1.50621 4.3118 4.41196
12 Ni 0.0103646 2.91354 2.88494
13 Al 1.32186 4.32088 7.20908
14 Ni -0.0895951 2.712 5.88164
15 Al 1.38721 4.21594 10.2675
16 Ni 0.126662 2.86397 8.76754
17 Al 1.46157 7.35242 1.4503
18 Ni -0.0312966 5.82101 0.0310958
19 Al 1.50627 7.1678 4.39286
20 Ni 0.0380001 5.81674 2.80443
21 Al 1.42541 7.17296 7.31886
22 Ni -0.13791 5.85486 5.76541
23 Al 1.45491 7.11822 10.1735
24 Ni -0.258948 5.68662 8.67177
25 Al 1.28679 10.2485 1.44695
26 Ni -0.089446 8.7805 -0.0631783
27 Al 1.48563 10.1403 4.2911
28 Ni -0.0978998 8.66625 2.83071
29 Al 1.40591 10.1487 7.19148
30 Ni 0.0864338 8.62512 5.74948
31 Al 1.46078 10.1284 10.1272
32 Ni 0.0322648 8.71016 8.93103
33 Al 4.37586 1.33016 1.39342
34 Ni 2.83758 -0.0520648 -0.101098
35 Al 4.29758 1.39134 4.37602
36 Ni 2.83821 -0.0310856 2.95883
37 Al 4.37519 1.37844 7.36398
38 Ni 2.86489 0.0476953 5.88415
39 Al 4.36752 1.31428 10.1963
40 Ni 2.90981 -0.00128779 8.65679
41 Al 4.27171 4.22452 1.31419
42 Ni 2.75598 2.71551 -0.0421697
43 Al 4.2333 4.24301 4.1829
44 Ni 2.94713 2.68749 2.71087
45 Al 4.3289 4.24093 7.25174
46 Ni 2.89437 2.8411 5.82306
47 Al 4.3923 4.2882 10.0996
48 Ni 2.87092 2.86897 8.81817
49 Al 4.37875 7.22901 1.43582
50 Ni 2.93575 5.79737 -0.0633412
51 Al 4.41573 7.19717 4.30214
52 Ni 2.84041 5.72339 2.89834
53 Al 4.39349 7.17535 7.21326
54 Ni 2.9461 5.71709 5.86709
55 Al 4.31792 7.25551 10.1897
56 Ni 2.79244 5.75841 8.70886
57 Al 4.23666 10.1795 1.4961
58 Ni 2.79988 8.72046 -0.0445881
59 Al 4.19844 10.1329 4.4108
60 Ni 2.96753 8.61846 2.98208
61 Al 4.16863 10.1523 7.16316
62 Ni 2.87495 8.53196 5.78865
63 Al 4.32021 10.1001 10.1359
64 Ni 2.77838 8.49353 8.66776
65 Al 7.17558 1.45323 1.41389
66 Ni 5.85927 -0.0448115 -0.162325
67 Al 7.13035 1.41948 4.29444
68 Ni 5.72049 0.00593581 2.98678
69 Al 7.48891 1.37597 7.26015
70 Ni 5.7736 -0.069027 5.88024
71 Al 7.33653 1.33057 10.1539
72 Ni 5.72853 -0.185013 8.68426
73 Al 7.25381 4.29531 1.41867
74 Ni 5.8054 2.8442 -0.174226
75 Al 7.22158 4.25071 4.54793
76 Ni 5.70401 2.86729 2.93352
77 Al 7.24527 4.23137 7.18404
78 Ni 5.73683 2.72277 5.83671
79 Al 7.31921 4.26005 10.172
80 Ni 5.86017 2.72813 8.75039
81 Al 7.27161 7.3173 1.44186
82 Ni 5.80464 5.77655 -0.00224531
83 Al 7.19889 7.28544 4.26129
84 Ni 5.79661 5.57693 2.93631
85 Al 7.07077 7.29823 7.07662
86 Ni 5.59747 5.51504 5.83984
87 Al 7.26589 7.23597 10.1337
88 Ni 5.78208 5.60835 8.62846
89 Al 7.13645 10.1588 1.49818
90 Ni 5.78107 8.74012 -0.10402
91 Al 7.24394 10.2251 4.30496
92 Ni 5.81915 8.6997 2.85965
93 Al 7.21849 10.0902 7.08908
94 Ni 5.72209 8.70319 5.69002
95 Al 7.22004 10.1048 10.1903
96 Ni 5.82121 8.75045 8.61843
97 Al 10.1022 1.47044 1.46303
98 Ni 8.73921 -0.029412 0.0562122
99 Al 10.243 1.35327 4.28847
100 Ni 8.78824 0.0832538 2.87364
101 Al 10.2399 1.31366 7.24201
102 Ni 8.74944 -0.110881 5.78959
103 Al 10.2099 1.2817 10.2198
104 Ni 8.80445 -0.133579 8.71054
105 Al 10.1277 4.2399 1.39806
106 Ni 8.64417 2.84026 -0.0432577
107 Al 10.0857 4.3651 4.38361
108 Ni 8.68843 3.06441 2.88252
109 Al 10.1574 4.17509 7.32544
110 Ni 8.72451 2.74994 5.72024
111 Al 10.1066 4.26244 10.2073
112 Ni 8.6879 2.84292 8.79261
113 Al 10.1399 7.20406 1.4582
114 Ni 8.73797 5.70228 0.00198213
115 Al 10.0235 7.22658 4.34157
116 Ni 8.5832 5.78844 2.84044
117 Al 10.1649 7.27775 7.2448
118 Ni 8.59805 5.7696 5.73308
119 Al 10.1115 7.19819 10.2527
120 Ni 8.64387 5.89288 8.57983
121 Al 10.0401 10.2771 1.33503
122 Ni 8.6648 8.76056 -0.0415029
123 Al 10.1172 10.2189 4.28242
124 Ni 8.68705 8.7337 2.895
125 Al 10.0266 10.142 7.18404
126 Ni 8.76854 8.66334 5.60486
127 Al 10.0027 10.0409 10.0935
128 Ni 8.59221 8.52115 8.6771
ITEM: TIMESTEP
5100
ITEM: NUMBER OF ATOMS
128
ITEM: BOX BOUNDS xy xz yz pp pp pp
-5.4990130250330373e-02 1.1589884700910751e+01 -3.3954708362002713e-02
-2.4474258934110260e-02 1.1705479752778579e+01 -1.2935040801373003e-02
3.6057482361373516e-03 1.1578178571587822e+01 9.9221174020638472e-02
ITEM: ATOMS id element xu yu zu
1 Al 1.56616 1.51001 1.44214
2 Ni 0.0422083 -0.0166379 0.000851379
3 Al 1.45326 1.47115 4.3544
4 Ni -0.00867847 0.0574908 3.03328
5 Al 1.32585 1.4899 7.34304
6 Ni 0.00738949 0.186232 5.82612
7 Al 1.51912 1.63319 10.0604
8 Ni 0.0351376 0.0804477 8.71819
9 Al 1.39886 4.34657 1.34928
10 Ni 0.0382884 2.8219 0.026026
11 Al 1.4322 4.40856 4.26157
12 Ni 0.00617446 2.84098 2.77377
13 Al 1.46231 4.38795 7.37191
14 Ni 0.0259525 3.15868 5.8127
15 Al 1.31045 4.30261 10.1747
16 Ni -0.263357 3.01942 8.62539
17 Al 1.43208 7.20183 1.34253
18 Ni -0.115325 5.79154 -0.0347651
19 Al 1.47119 7.24822 4.21996
20 Ni -0.0778892 5.77969 2.79091
21 Al 1.51825 7.28471 7.37436
22 Ni 0.073334 5.75791 5.73597
23 Al 1.43513 7.32546 10.137
24 Ni 0.0312643 5.87538 8.76084
25 Al 1.41851 10.1923 1.39938
26 Ni -0.0348508 8.72502 0.118086
27 Al 1.40706 10.1893 4.30971
28 Ni 0.0170558 8.73307 2.89605
29 Al 1.37082 10.1161 7.18997
30 Ni -0.130419 8.62775 5.71082
31 Al 1.40405 10.1395 10.0877
32 Ni -0.118928 8.75328 8.51945
33 Al 4.25167 1.42918 1.54726
34 Ni 2.94586 0.0109218 -0.0246739
35 Al 4.4001 1.53419 4.36396
36 Ni 2.89599 -0.0208951 2.88374
37 Al 4.35336 1.45574 7.28232
38 Ni 2.88485 0.0208098 5.79272
39 Al 4.40929 1.44559 10.159
40 Ni 2.81644 -0.0174078 8.67602
41 Al 4.41364 4.30358 1.39199
42 Ni 2.97091 2.95886 -0.139599
43 Al 4.35013 4.45152 4.30297
44 Ni 2.82785 3.03147 2.95485
45 Al 4.44885 4.42281 7.20889
46 Ni 2.8387 3.00877 5.8604
47 Al 4.45577 4.43305 10.0781
48 Ni 2.84625 2.87622 8.60119
49 Al 4.32813 7.3109 1.43433
50 Ni 2.89532 5.79183 -0.0772748
51 Al 4.25471 7.33007 4.3944
52 Ni 2.9941 5.74006 2.7071
53 Al 4.29722 7.20036 7.08675
54 Ni 2.67225 5.84644 5.7648
55 Al 4.34937 7.39919 10.1667
56 Ni 3.01197 5.85017 8.73559
57 Al 4.24122 10.1751 1.52646
58 Ni 2.91812 8.6251 -0.028006
59 Al 4.15471 10.1795 4.42867
60 Ni 2.8133 8.69917 2.75898
61 Al 4.21577 10.2311 7.23658
62 Ni 2.71488 8.65788 5.71717
63 Al 4.44464 10.2383 10.1272
64 Ni 2.87242 8.86646 8.76703
65 Al 7.23579 1.38783 1.44428
66 Ni 5.7426 -0.141277 0.0472838
67 Al 7.12363 1.43861 4.42018
68 Ni 5.75494 0.0137726 2.81903
69 Al 7.33592 1.43397 7.1835
70 Ni 5.69086 -0.0499321 5.77628
71 Al 7.28459 1.49586 10.1439
72 Ni 5.83392 -0.0419824 8.66231
73 Al 7.27823 4.33795 1.49255
74 Ni 5.86026 2.8615 0.00799722
75 Al 7.23494 4.30568 4.37124
76 Ni 5.75688 2.7777 2.81081
77 Al 7.23945 4.45512 7.27061
78 Ni 5.84299 3.06354 5.86702
79 Al 7.31354 4.30636 10.1651
80 Ni 5.85047 2.99531 8.70084
81 Al 7.19203 7.27752 1.58517
82 Ni 5.7626 5.84715 0.019878
83 Al 7.28445 7.34632 4.292
84 Ni 5.69239 5.85887 2.82794
85 Al 7.28024 7.34014 7.20853
86 Ni 6.0319 5.95423 5.78511
87 Al 7.24407 7.4795 10.0906
88 Ni 5.79969 5.99247 8.68069
89 Al 7.17331 10.1074 1.59773
90 Ni 5.76399 8.73715 0.17125
91 Al 7.17386 10.1152 4.41746
92 Ni 5.60866 8.81965 2.9664
93 Al 7.1005 10.0561 7.18701
94 Ni 5.67374 8.69205 5.83408
95 Al 7.19143 10.2424 10.2794
96 Ni 5.67751 8.65671 8.6545
97 Al 10.1633 1.36717 1.42154
98 Ni 8.63641 -0.00760476 -0.00260795
99 Al 10.2241 1.41803 4.34731
100 Ni 8.64052 -0.0515504 3.05091
101 Al 10.0757 1.553 7.07153
102 Ni 8.75116 0.00196582 5.82541
103 Al 10.1796 1.47142 10.1394
104 Ni 8.66131 -0.0397358 8.58145
105 Al 10.0434 4.21479 1.35499
106 Ni 8.63134 2.83392 0.00687095
107 Al 10.0146 4.30761 4.25679
108 Ni 8.72017 2.68217 2.90994
109 Al 10.2306 4.50481 7.26296
110 Ni 8.62187 3.0906 5.90205
111 Al 10.0707 4.43145 10.1463
112 Ni 8.63999 2.81596 8.6507
113 Al 10.1205 7.29668 1.47216
114 Ni 8.59312 5.8893 0.00328776
115 Al 10.0385 7.27237 4.34075
116 Ni 8.66379 5.73333 2.92286
117 Al 10.1581 7.23871 7.21156
118 Ni 8.65888 5.73677 5.73036
119 Al 10.0556 7.48294 10.1971
120 Ni 8.71342 5.82416 8.85592
121 Al 10.1473 10.3342 1.42257
122 Ni 8.63768 8.83188 0.104329
123 Al 10.0478 10.2237 4.33204
124 Ni 8.59225 8.76125 2.97939
125 Al 10.033 10.3478 7.15567
126 Ni 8.59536 8.77422 5.83555
127 Al 10.1204 10.2602 10.1323
128 Ni 8.82405 8.90365 8.72447
ITEM: TIMESTEP
5200
ITEM: NUMBER OF ATOMS
128
ITEM: BOX BOUNDS xy xz yz pp pp pp
-1.2007791537353471e-01 1.1735457739066559e+01 8.5946962655968323e-02
-5.9475371558074919e-02 1.1680951231235012e+01 -5.2351458786727728e-02
-1.6977172724319090e-02 1.1598761492548263e+01 3.9691539853106382e-02
ITEM: ATOMS id element xu yu zu
1 Al 1.39174 1.44237 1.40404
2 Ni -0.0712817 -0.0681564 0.00856325
3 Al 1.38226 1.30519 4.27859
4 Ni -0.00838095 -0.0795396 2.79878
5 Al 1.4238 1.39367 7.24789
6 Ni -0.0493568 -0.079235 5.7112
7 Al 1.44396 1.49593 10.0797
8 Ni -0.111158 0.0082387 8.608
9 Al 1.43251 4.1912 1.3757
10 Ni -0.14284 2.81035 -0.0136184
11 Al 1.36455 4.27991 4.36479
12 Ni -0.174449 2.92157 2.95478
13 Al 1.35696 4.32341 7.24464
14 Ni -0.0923956 2.67987 5.80404
15 Al 1.33971 4.33575 10.1861
16 Ni 0.161201 2.81144 8.75478
17 Al 1.3944 7.1591 1.40216
18 Ni 0.0348303 5.71786 0.0214062
19 Al 1.43889 7.29684 4.36302
20 Ni -0.0850636 5.7216 2.92191
21 Al 1.39653 7.20347 7.24689
22 Ni -0.247336 5.79866 5.85604
23 Al 1.38595 7.26351 10.2747
24 Ni -0.129994 5.82751 8.73183
25 Al 1.46772 10.1628 1.50995
26 Ni -0.0062745 8.71704 -0.0186843
27 Al 1.44177 10.1286 4.33424
28 Ni -0.0562868 8.72984 2.88769
29 Al 1.53102 10.1501 7.36084
30 Ni 0.0768642 8.78972 5.88719
31 Al 1.40837 10.1912 10.119
32 Ni 0.0631127 8.69222 8.82087
33 Al 4.27348 1.36683 1.49192
34 Ni 2.7884 -0.139562 -0.0182368
35 Al 4.42658 1.41401 4.23426
36 Ni 2.85157 0.0364408 2.87471
37 Al 4.22154 1.42676 7.10158
38 Ni 2.86521 -0.149135 5.78497
39 Al 4.22326 1.40433 10.2005
40 Ni 2.9037 -7.54313e-05 8.69146
41 Al 4.46993 4.42035 1.55141
42 Ni 2.8927 2.87823 0.015522
43 Al 4.3833 4.36986 4.29418
44 Ni 2.99065 2.86496 2.84428
45 Al 4.29899 4.38498 7.34911
46 Ni 2.93312 3.06855 5.74724
47 Al 4.38057 4.40808 10.2081
48 Ni 2.94893 3.01657 8.70913
49 Al 4.29269 7.29442 1.4305
50 Ni 2.86275 5.75723 0.0217365
51 Al 4.32765 7.38015 4.43233
52 Ni 2.71578 5.82414 3.05722
53 Al 4.34164 7.29608 7.22173
54 Ni 2.98328 5.82085 5.81159
55 Al 4.31095 7.31556 10.1534
56 Ni 2.71951 5.91807 8.66033
57 Al 4.47571 10.1464 1.49622
58 Ni 2.77431 8.7788 0.0652093
59 Al 4.39165 10.1534 4.35786
60 Ni 2.91867 8.67544 3.01385
61 Al 4.53541 10.3226 7.16065
62 Ni 2.97182 8.78086 5.83269
63 Al 4.34265 10.1647 10.0838
64 Ni 2.76707 8.60168 8.67073
65 Al 7.21623 1.33727 1.4539
66 Ni 5.7313 0.0254508 -0.0516898
67 Al 7.22865 1.45397 4.27486
68 Ni 5.70725 -0.0910206 2.9878
69 Al 7.22281 1.39428 7.23298
70 Ni 5.78095 0.050531 5.7001
71 Al 7.13066 1.59578 10.0943
72 Ni 5.59658 0.0309707 8.74208
73 Al 7.30915 4.27305 1.30846
74 Ni 5.76984 2.81801 0.02593
75 Al 7.40886 4.3935 4.39532
76 Ni 5.85899 3.02966 2.94947
77 Al 7.10389 4.33975 7.1228
78 Ni 5.78087 2.88181 5.71087
79 Al 7.31589 4.30891 10.1
80 Ni 5.66188 2.90555 8.56227
81 Al 7.31534 7.23418 1.49774
82 Ni 5.89688 5.84919 -0.00610662
83 Al 7.38256 7.28329 4.36939
84 Ni 5.85173 5.8603 2.89757
85 Al 7.17715 7.23146 7.10168
86 Ni 5.6134 5.8316 5.7983
87 Al 7.28571 7.30496 10.1026
88 Ni 5.82546 5.8417 8.79531
89 Al 7.28879 10.1587 1.35953
90 Ni 5.84168 8.73312 -0.161142
91 Al 7.37155 10.0407 4.26392
92 Ni 5.91748 8.62668 2.78553
93 Al 7.39303 10.0988 7.19087
94 Ni 5.90273 8.72053 5.77822
95 Al 7.30213 10.2242 10.133
96 Ni 5.82564 8.91109 8.70194
97 Al 10.2226 1.36734 1.48354
98 Ni 8.81252 -0.232674 -0.00575752
99 Al 10.2048 1.30066 4.31462
100 Ni 8.76089 -0.129955 2.8515
101 Al 10.0116 1.36541 7.2137
102 Ni 8.5725 -0.0239094 5.73235
103 Al 10.1969 1.39832 10.1279
104 Ni 8.67147 0.0433089 8.7704
105 Al 10.1491 4.25493 1.36202
106 Ni 8.73937 2.69512 -0.0121467
107 Al 10.0639 4.31682 4.36654
108 Ni 8.68367 3.02367 2.78714
109 Al 10.264 4.24419 7.2892
110 Ni 8.63396 2.82389 5.77722
111 Al 10.2196 4.40785 10.1044
112 Ni 8.67575 3.03493 8.75994
113 Al 10.2473 7.26189 1.34302
114 Ni 8.80346 5.7673 0.000868967
115 Al 10.2334 7.33009 4.28286
116 Ni 8.80954 5.91186 2.85634
117 Al 10.258 7.28979 7.22214
118 Ni 8.76768 5.92406 5.77169
119 Al 10.1404 7.33911 10.1185
120 Ni 8.72236 5.88752 8.76891
121 Al 10.375 10.2692 1.41432
122 Ni 8.82355 8.68784 -0.110123
123 Al 10.1933 10.2859 4.34979
124 Ni 8.82214 8.71342 2.90115
125 Al 10.1969 10.2179 7.26705
126 Ni 8.87388 8.72145 5.73914
127 Al 10.2291 10.1597 10.1084
128 Ni 8.71265 8.6648 8.61784
ITEM: TIMESTEP
5300
ITEM: NUMBER OF ATOMS
128
ITEM: BOX BOUNDS xy xz yz pp pp pp
-4.1329801466491053e-02 1.1638306765291830e+01 -8.8351187702732936e-04
-1.0587852076269602e-01 1.1587708390068901e+01 1.6076155878576640e-02
2.8261976668833455e-02 1.1553522343155120e+01 -9.9954450517620225e-02
ITEM: ATOMS id element xu yu zu
1 Al 1.36401 1.35549 1.50623
2 Ni -0.10985 0.0455283 -0.0190675
3 Al 1.30667 1.25123 4.34683
4 Ni -0.198622 -0.00061813 2.99786
5 Al 1.4227 1.46142 7.19036
6 Ni -0.1496 -0.0376335 5.81167
7 Al 1.33349 1.45046 10.069
8 Ni 0.0427152 -0.121012 8.75542
9 Al 1.42462 4.30498 1.39598
10 Ni 0.0516895 2.94983 0.0759636
11 Al 1.45758 4.31429 4.34056
12 Ni -0.0408762 2.75907 2.97322
13 Al 1.43762 4.22508 7.1906
14 Ni -0.0809549 2.84836 5.74773
15 Al 1.31465 4.32841 10.0955
16 Ni -0.113721 2.87811 8.58854
17 Al 1.38468 7.23087 1.37669
18 Ni -0.0143349 5.75791 0.0881434
19 Al 1.49634 7.36395 4.29276
20 Ni -0.00926807 5.89924 3.0914
21 Al 1.38793 7.21133 7.33442
22 Ni 0.0435083 5.79769 5.86538
23 Al 1.42616 7.17751 10.0877
24 Ni -0.00819778 5.57786 8.52387
25 Al 1.43127 10.1172 1.49825
26 Ni 0.0186856 8.69951 -0.030721
27 Al 1.43506 10.1347 4.4666
28 Ni -0.0136748 8.67377 2.9228
29 Al 1.45759 10.0877 7.26895
30 Ni -0.12913 8.72459 5.76927
31 Al 1.4486 10.0472 10.1451
32 Ni -0.0438217 8.77252 8.5794
33 Al 4.34319 1.42455 1.48565
34 Ni 2.95912 0.0912037 0.167966
35 Al 4.55543 1.32916 4.14399
36 Ni 2.89119 -0.127363 2.93652
37 Al 4.38884 1.34198 7.25505
38 Ni 3.02975 0.101034 5.81183
39 Al 4.28188 1.31655 10.1777
40 Ni 2.84671 0.024305 8.64131
41 Al 4.34222 4.35236 1.58725
42 Ni 2.77445 2.80071 0.127819
43 Al 4.39646 4.21463 4.40081
44 Ni 2.77362 2.84332 2.9829
45 Al 4.26755 4.12136 7.23711
46 Ni 2.92898 2.70393 5.75987
47 Al 4.2657 4.19964 10.1582
48 Ni 2.69117 2.75212 8.70179
49 Al 4.36844 7.24759 1.50683
50 Ni 2.80325 5.88381 0.126531
51 Al 4.26183 7.15028 4.48312
52 Ni 2.87709 5.81791 2.88061
53 Al 4.3181 7.09101 7.15725
54 Ni 2.81391 5.778 5.79813
55 Al 4.42063 7.08557 10.0115
56 Ni 2.93914 5.57661 8.61295
57 Al 4.40333 10.056 1.47568
58 Ni 2.93639 8.56312 -0.0484608
59 Al 4.4185 10.1181 4.35064
60 Ni 2.97907 8.66287 2.92976
61 Al 4.4187 10.1044 7.21558
62 Ni 2.88913 8.55371 5.75242
63 Al 4.38398 10.0764 10.0538
64 Ni 2.91174 8.6755 8.72313
65 Al 7.32247 1.64228 1.49773
66 Ni 5.76867 -0.104931 0.034633
67 Al 7.18352 1.40061 4.38039
68 Ni 5.90282 -0.0704427 2.67657
69 Al 7.23685 1.37358 7.16821
70 Ni 5.75931 -0.0420943 5.81781
71 Al 7.16535 1.42342 10.1746
72 Ni 5.8471 -0.033198 8.68952
73 Al 7.2657 4.36252 1.37414
74 Ni 5.80805 3.04401 0.0371165
75 Al 7.3759 4.26398 4.38975
76 Ni 5.76109 2.86727 2.77261
77 Al 7.13081 4.14057 7.20472
78 Ni 5.77596 2.83776 5.77985
79 Al 7.29425 4.33632 10.0269
80 Ni 5.92758 2.86902 8.87119
81 Al 7.20437 7.19377 1.55265
82 Ni 5.59033 5.76377 -0.00753271
83 Al 7.28454 7.22709 4.43916
84 Ni 5.90221 5.77116 2.83275
85 Al 7.19473 7.22493 7.17
86 Ni 5.96961 5.71201 5.85837
87 Al 7.27219 7.00626 10.0948
88 Ni 5.73769 5.5433 8.53737
89 Al 7.28507 10.147 1.29478
90 Ni 5.78141 8.67097 0.053687
91 Al 7.33066 10.0649 4.2721
92 Ni 5.82743 8.75192 2.91095
93 Al 7.25296 10.077 7.24302
94 Ni 5.78882 8.71903 5.80158
95 Al 7.26979 9.99247 10.1536
96 Ni 5.80943 8.57299 8.70528
97 Al 10.2534 1.48611 1.50833
98 Ni 8.68819 0.20601 0.0133798
99 Al 10.2008 1.31584 4.35673
100 Ni 8.65733 0.00685344 2.74788
101 Al 10.1587 1.2678 7.30721
102 Ni 8.80438 -0.0746532 5.80951
103 Al 10.1405 1.38624 10.1596
104 Ni 8.7472 -0.0701267 8.63633
105 Al 10.1373 4.3028 1.5404
106 Ni 8.66002 3.11455 -0.0187657
107 Al 10.158 4.32079 4.36759
108 Ni 8.73541 2.90996 3.02509
109 Al 10.1652 4.16873 7.23833
110 Ni 8.73365 2.82236 5.81342
111 Al 10.2282 4.24517 9.98125
112 Ni 8.68199 2.60695 8.66297
113 Al 10.162 7.23197 1.35857
114 Ni 8.83386 5.77399 -0.086074
115 Al 10.1003 7.27342 4.36882
116 Ni 8.67684 5.71753 2.97655
117 Al 10.1263 7.12596 7.20167
118 Ni 8.70173 5.66708 5.87341
119 Al 10.2034 7.09985 9.95535
120 Ni 8.73393 5.5808 8.61308
121 Al 10.2597 10.2001 1.45889
122 Ni 8.74776 8.61325 -0.0935537
123 Al 10.0824 10.16 4.3279
124 Ni 8.70812 8.56461 2.84634
125 Al 10.1058 10.0261 7.33417
126 Ni 8.57413 8.73332 5.84904
127 Al 10.1823 10.0823 10.1709
128 Ni 8.684 8.68814 8.77181
ITEM: TIMESTEP
5400
ITEM: NUMBER OF ATOMS
128
ITEM: BOX BOUNDS xy xz yz pp pp pp
-1.1945804134368117e-01 1.1673216935788020e+01 -6.2840470702144338e-02
-2.8430486766192864e-02 1.1633763619420916e+01 3.4815045322690689e-02
-3.3335252517312952e-02 1.1615119572341278e+01 2.3548812830907633e-02
ITEM: ATOMS id element xu yu zu
1 Al 1.35561 1.4733 1.44031
2 Ni -0.00534687 -0.0881976 0.0980845
3 Al 1.25403 1.38391 4.30431
4 Ni 0.0250973 -0.132688 2.82857
5 Al 1.554 1.4901 7.23277
6 Ni -0.0279174 -0.155667 5.64181
7 Al 1.41142 1.47992 10.135
8 Ni -0.138673 0.00979635 8.64347
9 Al 1.39557 4.42979 1.25534
10 Ni -0.057661 2.87118 0.023416
11 Al 1.44464 4.37015 4.24765
12 Ni 0.0087738 3.05665 2.8749
13 Al 1.35337 4.41176 7.36139
14 Ni 0.0240139 2.94842 5.72121
15 Al 1.26854 4.40134 10.1134
16 Ni 0.00598436 2.8268 8.6995
17 Al 1.45125 7.29408 1.36127
18 Ni -0.00968274 5.91505 -0.106105
19 Al 1.42674 7.38764 4.26843
20 Ni -0.100942 5.81446 2.72043
21 Al 1.38117 7.26043 7.21871
22 Ni -0.078203 5.79787 5.73992
23 Al 1.42384 7.36603 10.2567
24 Ni -0.0401529 5.97773 8.74407
25 Al 1.30941 10.1397 1.35432
26 Ni -0.181074 8.70305 0.049381
27 Al 1.37087 10.1294 4.29478
28 Ni -0.200359 8.71704 2.87177
29 Al 1.23627 10.1266 7.29457
30 Ni -0.0414432 8.67333 5.77422
31 Al 1.23143 10.08 10.0434
32 Ni -0.0269013 8.642 8.7113
33 Al 4.3125 1.38937 1.4205
34 Ni 2.82184 -0.13652 -0.131691
35 Al 4.34263 1.37243 4.37619
36 Ni 2.89043 0.0426798 2.81301
37 Al 4.30055 1.26602 7.13918
38 Ni 2.75673 -0.200873 5.76313
39 Al 4.35343 1.4101 10.2158
40 Ni 2.87053 -0.0974373 8.76266
41 Al 4.30188 4.33795 1.40421
42 Ni 2.87003 2.9697 -0.149267
43 Al 4.24793 4.21055 4.35335
44 Ni 2.93939 2.84253 2.85977
45 Al 4.36042 4.40473 7.19739
46 Ni 2.82303 2.93747 5.8629
47 Al 4.40183 4.39496 10.0246
48 Ni 2.99097 2.84169 8.64672
49 Al 4.28502 7.17666 1.38214
50 Ni 2.81282 5.68654 -0.161935
51 Al 4.16586 7.32301 4.45183
52 Ni 2.87497 5.88749 2.94436
53 Al 4.26393 7.23178 7.21054
54 Ni 2.9262 5.81345 5.76689
55 Al 4.31028 7.30226 10.1343
56 Ni 2.8055 5.79587 8.6206
57 Al 4.3456 10.1663 1.43613
58 Ni 2.75168 8.81325 -0.0101799
59 Al 4.39021 10.2149 4.27996
60 Ni 2.78408 8.77325 2.85018
61 Al 4.39946 10.2549 7.21833
62 Ni 2.93122 8.81043 5.82048
63 Al 4.34487 10.1964 10.1533
64 Ni 2.82013 8.72762 8.67069
65 Al 7.31193 1.4586 1.45718
66 Ni 5.8284 0.0478948 -0.0190728
67 Al 7.23012 1.47277 4.38838
68 Ni 5.80644 0.0420707 2.9712
69 Al 7.23833 1.57099 7.27746
70 Ni 5.81769 0.0181294 5.84086
71 Al 7.30858 1.58004 10.129
72 Ni 5.84345 -0.0634319 8.84629
73 Al 7.22794 4.25301 1.46096
74 Ni 5.76068 2.86127 0.0188326
75 Al 7.29012 4.36918 4.38091
76 Ni 5.83886 2.84141 2.94189
77 Al 7.19061 4.47349 7.31479
78 Ni 5.81005 2.78316 5.76477
79 Al 7.25613 4.37053 10.2131
80 Ni 5.72979 2.90732 8.5811
81 Al 7.1402 7.16026 1.57717
82 Ni 5.8667 5.76389 -0.00158968
83 Al 7.18813 7.26348 4.38532
84 Ni 5.60842 5.73583 2.87378
85 Al 7.21288 7.2871 7.15239
86 Ni 5.68484 5.73997 5.71012
87 Al 7.28249 7.21515 10.0957
88 Ni 5.79142 5.89542 8.81324
89 Al 7.01861 10.2541 1.40453
90 Ni 5.76529 8.63361 -0.0669619
91 Al 7.18176 10.1127 4.45231
92 Ni 5.77544 8.66277 2.81712
93 Al 7.22588 10.1685 7.32139
94 Ni 5.78104 8.62766 5.81755
95 Al 7.19587 9.97546 10.2293
96 Ni 5.67905 8.71694 8.65346
97 Al 10.2926 1.33424 1.50299
98 Ni 8.77732 -0.15046 -0.0068823
99 Al 10.2811 1.31908 4.3029
100 Ni 8.78463 -0.0450829 2.93412
101 Al 10.1781 1.46927 7.23544
102 Ni 8.58655 -0.0376042 5.83615
103 Al 10.2015 1.39038 10.2012
104 Ni 8.71391 -0.0142205 8.8598
105 Al 10.0726 4.34763 1.41928
106 Ni 8.85011 2.79068 0.0266997
107 Al 10.0396 4.305 4.33497
108 Ni 8.71694 2.86125 2.78098
109 Al 10.2473 4.4556 7.29859
110 Ni 8.63105 2.92387 5.77751
111 Al 10.2617 4.3545 10.11
112 Ni 8.83471 3.13753 8.71558
113 Al 10.1102 7.28142 1.42803
114 Ni 8.63323 5.8331 0.00817172
115 Al 10.1638 7.26925 4.35331
116 Ni 8.73942 5.85769 2.89054
117 Al 10.1866 7.27406 7.27451
118 Ni 8.59916 5.84687 5.698
119 Al 10.1114 7.25014 10.2554
120 Ni 8.86547 5.9675 8.79071
121 Al 10.0317 10.1046 1.5206
122 Ni 8.639 8.58834 0.0279661
123 Al 10.1 10.1959 4.35508
124 Ni 8.57193 8.71471 2.95129
125 Al 10.1277 10.1354 7.26844
126 Ni 8.68283 8.65856 5.80593
127 Al 10.1817 10.1518 10.1869
128 Ni 8.7714 8.71542 8.62333
ITEM: TIMESTEP
5500
ITEM: NUMBER OF ATOMS
128
ITEM: BOX BOUNDS xy xz yz pp pp pp
-6.0503536819620916e-02 1.1631003341196489e+01 4.2670104334707991e-02
-2.0643015841227630e-02 1.1711653108137469e+01 -5.3954619781655798e-02
-2.8375304485395603e-02 1.1610159624309350e+01 1.0922577247243800e-01
ITEM: ATOMS id element xu yu zu
1 Al 1.28091 1.41921 1.45532
2 Ni -0.108166 0.0164032 -0.102509
3 Al 1.29295 1.52735 4.38252
4 Ni -0.019752 0.201814 3.02055
5 Al 1.55271 1.61237 7.31605
6 Ni -0.046784 0.136443 5.82022
7 Al 1.39518 1.44697 10.1341
8 Ni -0.0494108 0.0173569 8.73152
9 Al 1.40995 4.32058 1.31991
10 Ni -0.00666462 2.85118 -0.182642
11 Al 1.36493 4.33299 4.40467
12 Ni -0.0754214 2.72364 2.80718
13 Al 1.42873 4.48909 7.43194
14 Ni -0.0391838 2.91246 5.87076
15 Al 1.37909 4.43436 10.2709
16 Ni -0.0811115 3.01759 8.69993
17 Al 1.56278 7.23439 1.37948
18 Ni 0.0341632 5.68005 0.0143491
19 Al 1.53596 7.29381 4.30933
20 Ni 0.109412 5.74645 2.94226
21 Al 1.34189 7.29505 7.35546
22 Ni -0.0173186 5.86955 5.78145
23 Al 1.27676 7.29501 10.2681
24 Ni -0.0906426 5.79165 8.74818
25 Al 1.41825 10.2342 1.36596
26 Ni 0.132988 8.71465 0.0031014
27 Al 1.4382 10.2235 4.34829
28 Ni 0.140606 8.57272 2.87291
29 Al 1.35511 10.1987 7.22515
30 Ni 0.00484524 8.73548 5.73983
31 Al 1.42426 10.1169 10.0767
32 Ni -0.101269 8.80529 8.69116
33 Al 4.35205 1.40142 1.45503
34 Ni 2.92056 0.0346906 -0.000127958
35 Al 4.40151 1.57227 4.42589
36 Ni 2.86842 0.0271335 2.98389
37 Al 4.30972 1.59419 7.22088
38 Ni 2.90889 0.189052 5.86057
39 Al 4.36235 1.54803 10.1219
40 Ni 2.87765 0.0738763 8.63093
41 Al 4.41874 4.35287 1.37375
42 Ni 2.93722 2.76511 -0.0262887
43 Al 4.23726 4.41195 4.35707
44 Ni 2.91761 2.86968 2.80424
45 Al 4.37073 4.56491 7.2622
46 Ni 2.87766 2.96244 5.88255
47 Al 4.29864 4.47288 10.0165
48 Ni 2.76454 3.07006 8.69761
49 Al 4.47789 7.19843 1.39502
50 Ni 2.96183 5.79538 0.0207202
51 Al 4.29961 7.24623 4.40547
52 Ni 2.92839 5.67058 2.78644
53 Al 4.35225 7.41545 7.27512
54 Ni 2.83903 5.83971 5.83042
55 Al 4.32926 7.3908 10.1287
56 Ni 2.86982 5.99448 8.81572
57 Al 4.36586 10.281 1.44804
58 Ni 2.95167 8.66384 0.00803852
59 Al 4.27896 10.2958 4.38242
60 Ni 2.99287 8.60511 2.83141
61 Al 4.37056 10.2367 7.25765
62 Ni 2.75874 8.62703 5.79084
63 Al 4.34806 10.2948 10.1034
64 Ni 2.83609 8.79237 8.74658
65 Al 7.1963 1.40831 1.449
66 Ni 5.78433 -0.0686055 -0.163191
67 Al 7.16371 1.55531 4.38603
68 Ni 5.68349 -0.0105403 2.92098
69 Al 7.22096 1.5577 7.0951
70 Ni 5.81975 0.0786571 5.77973
71 Al 7.27346 1.47233 10.0163
72 Ni 5.7346 0.13416 8.51152
73 Al 7.18358 4.23311 1.46711
74 Ni 5.87441 2.78362 -0.092576
75 Al 7.1932 4.38906 4.4277
76 Ni 5.68621 2.84538 2.85048
77 Al 7.2701 4.43664 7.25853
78 Ni 5.74439 3.03084 5.858
79 Al 7.1334 4.43723 10.256
80 Ni 5.8706 2.99461 8.73234
81 Al 7.2358 7.25366 1.44393
82 Ni 5.78279 5.80969 -0.0657263
83 Al 7.31041 7.30921 4.32162
84 Ni 5.887 5.81892 2.83694
85 Al 7.30391 7.27627 7.1222
86 Ni 5.78248 5.97025 5.86726
87 Al 7.22803 7.30998 10.1546
88 Ni 5.83615 5.84048 8.71015
89 Al 7.17379 10.2589 1.54278
90 Ni 5.80398 8.87127 0.0416912
91 Al 7.2532 10.1641 4.37304
92 Ni 5.69397 8.80617 2.87698
93 Al 7.29317 10.1521 7.16692
94 Ni 5.70503 8.81701 5.77136
95 Al 7.25341 10.2316 10.0887
96 Ni 5.9314 8.77866 8.76509
97 Al 10.0566 1.37336 1.37637
98 Ni 8.68645 0.0774427 -0.0434524
99 Al 10.1647 1.46391 4.29628
100 Ni 8.67727 0.00825061 2.95445
101 Al 10.1209 1.54035 7.29996
102 Ni 8.84529 0.0543849 5.70998
103 Al 10.0686 1.54361 10.0768
104 Ni 8.77808 -0.032931 8.49637
105 Al 10.1173 4.31413 1.48706
106 Ni 8.55288 2.88248 -0.0663021
107 Al 10.0752 4.34065 4.30274
108 Ni 8.71637 2.98446 2.91152
109 Al 10.1191 4.47385 7.38537
110 Ni 8.7524 3.00751 5.78989
111 Al 10.0176 4.35739 10.1051
112 Ni 8.60289 2.86259 8.68435
113 Al 10.1911 7.26076 1.43715
114 Ni 8.68539 5.74041 0.0217495
115 Al 10.1548 7.26887 4.33905
116 Ni 8.60917 5.6911 2.83649
117 Al 10.1498 7.32386 7.36007
118 Ni 8.78364 5.7729 5.72649
119 Al 10.0146 7.21662 10.2509
120 Ni 8.57061 5.75452 8.6612
121 Al 10.1912 10.1433 1.47786
122 Ni 8.70051 8.88477 0.00477363
123 Al 10.2329 10.2611 4.22706
124 Ni 8.84786 8.68048 2.88763
125 Al 10.1849 10.1636 7.15694
126 Ni 8.68304 8.67422 5.70706
127 Al 10.1543 10.2662 10.1175
128 Ni 8.65168 8.68703 8.68843
ITEM: TIMESTEP
5600
ITEM: NUMBER OF ATOMS
128
ITEM: BOX BOUNDS xy xz yz pp pp pp
-2.4810491211699356e-02 1.1627455929811706e+01 5.8024642141656937e-02
-6.7397259211127408e-02 1.1625537609531861e+01 -3.7163523365473281e-02
-2.8342697587858900e-02 1.1610127017411804e+01 -2.3643969503062166e-02
ITEM: ATOMS id element xu yu zu
1 Al 1.41236 1.41504 1.48302
2 Ni 0.0776186 -0.00772558 -0.0125294
3 Al 1.32593 1.40412 4.31754
4 Ni 0.0528128 -0.145896 2.83863
5 Al 1.49693 1.43027 7.22686
6 Ni 0.011859 -0.117604 5.78568
7 Al 1.3377 1.39821 10.1297
8 Ni -0.00652768 -0.170018 8.67254
9 Al 1.48285 4.42784 1.28447
10 Ni 0.0212657 2.83921 0.0517633
11 Al 1.4696 4.39669 4.41442
12 Ni 0.107211 3.00021 2.97897
13 Al 1.50869 4.25877 7.42614
14 Ni 0.0310758 2.93679 5.72698
15 Al 1.44925 4.3806 10.2338
16 Ni -0.034291 2.93617 8.72423
17 Al 1.47718 7.31937 1.38563
18 Ni -0.0962107 5.75069 -0.0714697
19 Al 1.44893 7.25505 4.29758
20 Ni -0.0283106 5.70109 2.71166
21 Al 1.47441 7.1549 7.30719
22 Ni 0.056451 5.72214 5.82119
23 Al 1.46459 7.22305 10.176
24 Ni -0.010729 5.79749 8.75513
25 Al 1.51426 10.1599 1.32527
26 Ni -0.0137102 8.71826 -0.0209693
27 Al 1.45442 10.1758 4.46565
28 Ni 0.019438 8.86841 2.82594
29 Al 1.45164 10.0608 7.30774
30 Ni 0.125162 8.5793 5.83014
31 Al 1.49257 10.0983 10.1412
32 Ni 0.105488 8.69724 8.75197
33 Al 4.37741 1.41251 1.50298
34 Ni 2.99945 -0.0892669 -0.0531038
35 Al 4.39366 1.47135 4.39044
36 Ni 2.86296 -0.032911 2.84734
37 Al 4.23589 1.41721 7.2018
38 Ni 2.85388 -0.0406203 5.83497
39 Al 4.39389 1.29138 10.1567
40 Ni 2.825 -0.0332004 8.6836
41 Al 4.33621 4.30527 1.47208
42 Ni 2.87757 2.8884 -0.0810824
43 Al 4.31657 4.39334 4.41607
44 Ni 2.91671 2.87209 2.96623
45 Al 4.44797 4.33463 7.27198
46 Ni 2.94703 2.91849 5.76283
47 Al 4.40661 4.37815 10.1282
48 Ni 2.92481 2.77057 8.79269
49 Al 4.348 7.34055 1.38578
50 Ni 2.97445 5.86376 -0.0251164
51 Al 4.35178 7.22897 4.31986
52 Ni 2.94825 5.79876 2.83289
53 Al 4.43519 7.18902 7.16413
54 Ni 2.91106 5.77977 5.84994
55 Al 4.29873 7.16848 10.104
56 Ni 2.97167 5.63131 8.71915
57 Al 4.5036 10.2508 1.49924
58 Ni 2.90324 8.73092 -0.103929
59 Al 4.32762 10.173 4.34693
60 Ni 2.76221 8.82472 3.02491
61 Al 4.36581 10.1379 7.21903
62 Ni 2.94663 8.60022 5.81797
63 Al 4.37322 10.1118 10.1996
64 Ni 2.97255 8.66642 8.67395
65 Al 7.22267 1.39166 1.39562
66 Ni 5.74695 -0.0674161 0.119434
67 Al 7.1863 1.34814 4.46295
68 Ni 5.87945 -0.0830272 2.88705
69 Al 7.04248 1.37884 7.23007
70 Ni 5.60206 -0.07973 5.8056
71 Al 7.25772 1.43274 10.1747
72 Ni 5.76618 -0.230268 8.65427
73 Al 7.2609 4.32647 1.38305
74 Ni 5.76353 2.85481 -0.0307895
75 Al 7.28949 4.32013 4.2453
76 Ni 5.91234 2.91697 2.88456
77 Al 7.30316 4.36308 7.28207
78 Ni 5.80176 2.83709 5.72231
79 Al 7.2344 4.33991 10.1244
80 Ni 5.71437 2.85417 8.73629
81 Al 7.16152 7.18472 1.41205
82 Ni 5.81923 5.84067 0.0822041
83 Al 7.37264 7.23364 4.30787
84 Ni 5.71586 5.78837 2.81002
85 Al 7.33667 7.19694 7.26549
86 Ni 5.85581 5.68929 5.77083
87 Al 7.24057 7.35992 10.0652
88 Ni 5.78759 5.83063 8.72409
89 Al 7.30723 10.1328 1.46322
90 Ni 5.8332 8.69112 -0.0528199
91 Al 7.24061 10.1573 4.37707
92 Ni 5.88196 8.71473 2.95033
93 Al 7.23194 10.0209 7.11053
94 Ni 5.91438 8.54671 5.73298
95 Al 7.18804 10.1899 10.1644
96 Ni 5.7239 8.74012 8.55067
97 Al 10.1258 1.38472 1.46721
98 Ni 8.63165 -0.0302779 0.0336868
99 Al 10.2389 1.36248 4.2832
100 Ni 8.73669 -0.010326 2.79356
101 Al 9.98819 1.39184 7.22974
102 Ni 8.62549 -0.187924 5.79194
103 Al 10.1022 1.45213 10.1124
104 Ni 8.52637 -0.0416258 8.73735
105 Al 10.0786 4.32723 1.50323
106 Ni 8.69233 2.77575 -0.0733982
107 Al 10.0282 4.38007 4.35178
108 Ni 8.60931 2.78089 2.91816
109 Al 10.0835 4.43249 7.32188
110 Ni 8.55059 2.85415 5.76092
111 Al 10.0901 4.30107 10.063
112 Ni 8.61731 2.80679 8.61646
113 Al 10.1437 7.26401 1.41936
114 Ni 8.67815 5.78186 -0.0840524
115 Al 10.1256 7.26655 4.28389
116 Ni 8.73284 5.84958 2.86926
117 Al 10.2142 7.3157 7.27767
118 Ni 8.61659 5.86847 5.80844
119 Al 10.165 7.24443 10.1474
120 Ni 8.75363 5.94817 8.74924
121 Al 10.1409 10.1665 1.38452
122 Ni 8.83522 8.54567 -0.00658571
123 Al 10.188 10.2454 4.30232
124 Ni 8.76782 8.72254 2.77232
125 Al 10.2099 10.1433 7.24207
126 Ni 8.83061 8.707 5.70486
127 Al 10.154 10.2896 10.1457
128 Ni 8.72735 8.8601 8.7513
ITEM: TIMESTEP
5700
ITEM: NUMBER OF ATOMS
128
ITEM: BOX BOUNDS xy xz yz pp pp pp
-7.7060681469504733e-02 1.1665097743153247e+01 -5.8041066635736709e-02
-1.4325402051286634e-01 1.1641488537384960e+01 6.4293808495673316e-02
-1.9300626800687226e-02 1.1601084946624635e+01 -8.3549802951690191e-02
ITEM: ATOMS id element xu yu zu
1 Al 1.43716 1.29841 1.43254
2 Ni -0.031715 -0.0631589 0.0147181
3 Al 1.34794 1.39696 4.25008
4 Ni -0.0723293 -0.0351377 2.90917
5 Al 1.66112 1.29546 7.15754
6 Ni -0.0151955 -0.0805208 5.77336
7 Al 1.40975 1.41933 10.0912
8 Ni 0.0603202 0.0384387 8.67573
9 Al 1.39806 4.34782 1.38242
10 Ni -0.000327361 2.93606 -0.0947098
11 Al 1.40975 4.2585 4.34355
12 Ni -0.120617 2.77861 2.84789
13 Al 1.37285 4.32078 7.1459
14 Ni -0.0112105 2.75029 5.77494
15 Al 1.54413 4.27255 9.99735
16 Ni 0.0180439 2.73221 8.63202
17 Al 1.40458 7.24876 1.38232
18 Ni 0.131508 5.80291 -0.0264908
19 Al 1.39883 7.2643 4.46663
20 Ni 0.0179563 5.93918 3.02148
21 Al 1.39525 7.25384 7.17735
22 Ni -0.138733 5.85749 5.80936
23 Al 1.5243 7.21224 10.0736
24 Ni 0.0333321 5.66209 8.59001
25 Al 1.35431 10.054 1.48229
26 Ni 0.0845099 8.74675 -0.087629
27 Al 1.36923 10.089 4.34094
28 Ni -0.0974238 8.5621 2.8756
29 Al 1.38133 10.1701 7.35682
30 Ni -0.0799572 8.79328 5.88686
31 Al 1.44822 10.1489 10.1544
32 Ni -0.0156518 8.61072 8.62407
33 Al 4.34968 1.32676 1.46238
34 Ni 2.80465 -0.0967005 0.0915039
35 Al 4.37997 1.34452 4.4682
36 Ni 2.89232 -0.18765 2.90251
37 Al 4.39587 1.28055 7.15779
38 Ni 2.89807 -0.149872 5.67547
39 Al 4.32518 1.39852 10.1689
40 Ni 3.03944 -0.101128 8.7052
41 Al 4.33122 4.36601 1.50861
42 Ni 2.86663 2.92784 0.0479114
43 Al 4.34635 4.31267 4.39828
44 Ni 2.87252 2.88764 2.85172
45 Al 4.31797 4.28289 7.26252
46 Ni 2.84521 2.77656 5.67316
47 Al 4.40394 4.28008 10.0889
48 Ni 2.98112 2.80291 8.58294
49 Al 4.29918 7.09273 1.35061
50 Ni 2.79039 5.71789 -0.0842011
51 Al 4.34258 7.23949 4.35333
52 Ni 2.83052 5.8597 2.91213
53 Al 4.3484 7.17282 7.26671
54 Ni 3.00173 5.67491 5.70074
55 Al 4.32344 7.05724 10.1851
56 Ni 2.87531 5.80892 8.66085
57 Al 4.41851 10.2325 1.36384
58 Ni 2.84037 8.64013 -0.0302469
59 Al 4.31574 10.0857 4.26691
60 Ni 2.97493 8.57299 2.79334
61 Al 4.37655 10.0967 7.29555
62 Ni 2.80264 8.79422 5.68828
63 Al 4.2989 10.1135 10.2152
64 Ni 2.83 8.70504 8.69605
65 Al 7.30056 1.39097 1.40967
66 Ni 5.78648 -0.00556976 -0.0579469
67 Al 7.24666 1.43527 4.31014
68 Ni 5.68167 -0.106121 2.83039
69 Al 7.32599 1.34027 7.37169
70 Ni 6.04743 -0.069057 5.72461
71 Al 7.38704 1.36727 10.2118
72 Ni 5.7831 -0.00412801 8.83867
73 Al 7.28246 4.43593 1.42628
74 Ni 5.79964 2.91161 0.0869015
75 Al 7.3279 4.16291 4.32777
76 Ni 5.66024 2.75928 2.8654
77 Al 7.24539 4.26407 7.15725
78 Ni 5.85239 2.75202 5.80597
79 Al 7.2997 4.20379 10.1447
80 Ni 5.86949 2.77862 8.65865
81 Al 7.18081 7.23288 1.47096
82 Ni 5.79528 5.74031 -0.0876382
83 Al 7.25882 7.1874 4.44985
84 Ni 5.83802 5.78167 2.93461
85 Al 7.20419 7.12444 7.30965
86 Ni 5.71272 5.86871 5.7798
87 Al 7.31598 7.13509 10.1315
88 Ni 5.76811 5.65401 8.67059
89 Al 7.22142 10.2405 1.48809
90 Ni 5.71663 8.60036 0.0847822
91 Al 7.19506 10.1384 4.33924
92 Ni 5.73549 8.62662 2.79453
93 Al 7.16267 10.1179 7.23495
94 Ni 5.6851 8.83897 5.81708
95 Al 7.13039 10.1746 10.0429
96 Ni 5.77387 8.58775 8.82369
97 Al 10.1091 1.4139 1.47082
98 Ni 8.70064 -0.071439 -0.0960107
99 Al 10.2091 1.29277 4.31027
100 Ni 8.64545 -0.165872 2.92933
101 Al 10.0539 1.30221 7.29167
102 Ni 8.71976 -0.00354995 5.79386
103 Al 10.167 1.40282 10.2116
104 Ni 8.82721 -0.202542 8.84749
105 Al 10.2853 4.4994 1.41125
106 Ni 8.72356 2.86255 0.0203191
107 Al 10.2591 4.37328 4.27601
108 Ni 8.79181 2.95233 2.82505
109 Al 10.1008 4.25354 7.25563
110 Ni 8.72082 2.75353 5.85751
111 Al 10.3041 4.34127 10.066
112 Ni 8.78377 2.86863 8.8376
113 Al 10.0595 7.36743 1.30343
114 Ni 8.72356 5.84408 -0.000342563
115 Al 9.98227 7.27185 4.37053
116 Ni 8.79823 5.71584 2.89684
117 Al 10.0977 7.16171 7.25301
118 Ni 8.75302 5.70949 5.78744
119 Al 10.2614 7.10318 10.0787
120 Ni 8.63797 5.57483 8.64614
121 Al 10.0724 10.1517 1.49068
122 Ni 8.50084 8.8703 -0.0655263
123 Al 10.1659 10.1305 4.4484
124 Ni 8.68936 8.67314 3.03402
125 Al 10.1754 10.1122 7.34596
126 Ni 8.54776 8.67112 5.93321
127 Al 10.241 10.1049 10.1165
128 Ni 8.65208 8.49153 8.69534
ITEM: TIMESTEP
5800
ITEM: NUMBER OF ATOMS
128
ITEM: BOX BOUNDS xy xz yz pp pp pp
-9.0976616881318556e-02 1.1634787541980337e+01 -6.2685508953457841e-02
-2.0426709214938832e-02 1.1656844035220081e+01 2.4712114228665961e-02
2.3649567909053815e-02 1.1558134751914913e+01 5.4633006181357385e-02
ITEM: ATOMS id element xu yu zu
1 Al 1.50758 1.28337 1.45707
2 Ni 0.0197595 -0.121651 -0.0502279
3 Al 1.37533 1.45818 4.38774
4 Ni -0.105619 -0.0786864 2.85903
5 Al 1.45147 1.39434 7.30893
6 Ni -0.133535 0.00652708 5.76586
7 Al 1.29766 1.505 10.0923
8 Ni -0.0251343 -0.203167 8.75168
9 Al 1.36883 4.35897 1.48798
10 Ni 0.00881776 2.88209 0.11649
11 Al 1.46647 4.3018 4.45208
12 Ni -0.0171652 2.8163 2.91021
13 Al 1.34983 4.36291 7.17888
14 Ni 0.00482461 2.85304 5.75971
15 Al 1.47145 4.46658 10.094
16 Ni 0.0359879 3.01245 8.70929
17 Al 1.35426 7.19128 1.42368
18 Ni -0.238648 5.79702 -0.073834
19 Al 1.41517 7.32019 4.34053
20 Ni -0.093494 5.79917 3.03851
21 Al 1.33119 7.45029 7.24093
22 Ni 0.129281 5.81116 5.79708
23 Al 1.53835 7.29456 10.0419
24 Ni 0.0303164 5.90686 8.64458
25 Al 1.30472 10.0953 1.43408
26 Ni -0.14492 8.55765 0.100664
27 Al 1.48952 10.1881 4.37717
28 Ni -0.0878786 8.85648 2.94875
29 Al 1.38185 10.2303 7.25482
30 Ni -0.032758 8.75446 5.78084
31 Al 1.45225 10.0825 10.1755
32 Ni -0.136775 8.77795 8.66351
33 Al 4.48279 1.41525 1.45522
34 Ni 2.94288 0.0574889 -0.0298765
35 Al 4.35782 1.47167 4.36493
36 Ni 2.89085 0.0651895 2.79738
37 Al 4.33333 1.51793 7.25507
38 Ni 2.96163 0.0594697 5.79512
39 Al 4.30457 1.52552 10.029
40 Ni 2.80828 0.0484399 8.707
41 Al 4.24822 4.28234 1.46406
42 Ni 2.74397 2.91241 0.0654795
43 Al 4.29534 4.32757 4.41754
44 Ni 2.78 2.90569 2.99622
45 Al 4.28287 4.32629 7.25594
46 Ni 2.9405 2.84903 5.79564
47 Al 4.27769 4.42824 10.0769
48 Ni 2.81378 2.82712 8.68598
49 Al 4.27194 7.27175 1.50149
50 Ni 2.874 5.79671 0.076028
51 Al 4.36484 7.19403 4.40573
52 Ni 2.90877 5.68657 3.00494
53 Al 4.40875 7.11012 7.31154
54 Ni 2.75117 5.93777 5.82319
55 Al 4.30701 7.20801 10.1595
56 Ni 2.92771 5.70103 8.57479
57 Al 4.34844 10.1933 1.39612
58 Ni 2.81798 8.64573 0.0169383
59 Al 4.33347 10.1352 4.32294
60 Ni 2.806 8.81186 2.90564
61 Al 4.31458 10.1981 7.26632
62 Ni 2.97213 8.85722 5.93783
63 Al 4.32412 10.3314 10.0232
64 Ni 2.97326 8.83913 8.68022
65 Al 7.3517 1.43806 1.29959
66 Ni 5.79807 -0.00136606 0.0528245
67 Al 7.2506 1.46869 4.36911
68 Ni 5.96132 0.0664133 2.88173
69 Al 7.35596 1.5215 7.19063
70 Ni 5.66022 0.0625729 5.85348
71 Al 7.36007 1.49242 10.1201
72 Ni 5.83669 0.162404 8.62328
73 Al 7.22755 4.47613 1.46096
74 Ni 5.74045 2.85165 -0.013192
75 Al 7.24399 4.27531 4.35643
76 Ni 5.90676 2.93648 2.88697
77 Al 7.23891 4.38842 7.27078
78 Ni 5.76409 2.86449 5.6926
79 Al 7.23614 4.36294 10.0606
80 Ni 5.73561 2.95304 8.73739
81 Al 7.15589 7.23527 1.38699
82 Ni 5.647 5.74036 0.0939919
83 Al 7.19045 7.27971 4.38365
84 Ni 5.70847 5.82697 2.93173
85 Al 7.28326 7.27148 7.29264
86 Ni 5.8034 5.72057 5.79301
87 Al 7.20144 7.22435 10.0843
88 Ni 5.75218 5.79041 8.66689
89 Al 7.22443 10.1522 1.46196
90 Ni 5.72558 8.73734 -0.115571
91 Al 7.23585 10.2463 4.32223
92 Ni 5.7274 8.7754 2.91387
93 Al 7.12587 10.2992 7.21811
94 Ni 5.85727 8.73236 5.89256
95 Al 7.20864 10.2546 10.0814
96 Ni 5.84108 8.71795 8.62743
97 Al 10.1649 1.47347 1.43421
98 Ni 8.69505 -0.103574 0.0790187
99 Al 10.2136 1.33403 4.33284
100 Ni 8.71446 0.00509854 2.78968
101 Al 10.1099 1.45711 7.23253
102 Ni 8.6337 -0.0560124 5.78577
103 Al 10.1462 1.4853 10.1352
104 Ni 8.73342 0.188765 8.62938
105 Al 10.2231 4.35999 1.52538
106 Ni 8.67804 2.94146 0.0407801
107 Al 10.1667 4.44121 4.28284
108 Ni 8.69895 2.81212 2.90182
109 Al 10.1295 4.40925 7.24226
110 Ni 8.69641 3.01121 5.7516
111 Al 10.1734 4.34049 9.98905
112 Ni 8.70185 2.87724 8.57548
113 Al 10.1469 7.10584 1.54781
114 Ni 8.6912 5.68533 0.0425527
115 Al 9.95678 7.19305 4.30429
116 Ni 8.54863 5.87507 2.97497
117 Al 10.1223 7.2221 7.19411
118 Ni 8.60844 5.76564 5.84732
119 Al 10.1649 7.23716 10.0106
120 Ni 8.73276 5.83758 8.68858
121 Al 10.073 10.0824 1.43062
122 Ni 8.74964 8.52989 0.0760343
123 Al 10.104 10.0913 4.38187
124 Ni 8.58514 8.70474 2.74213
125 Al 10.1434 10.1366 7.24293
126 Ni 8.63863 8.77314 5.77227
127 Al 10.0813 10.1934 10.09
128 Ni 8.6404 8.89411 8.70005
ITEM: TIMESTEP
5900
ITEM: NUMBER OF ATOMS
128
ITEM: BOX BOUNDS xy xz yz pp pp pp
-1.4709464228903782e-01 1.1706956508114544e+01 4.5776862527056386e-02
-4.4407069772509189e-02 1.1675090413553916e+01 -6.7699316525380998e-02
-1.8205678950211635e-02 1.1599989998774205e+01 4.8899023957623959e-02
ITEM: ATOMS id element xu yu zu
1 Al 1.35907 1.43663 1.42434
2 Ni -0.187995 0.0171968 0.0500201
3 Al 1.37573 1.51216 4.41362
4 Ni 0.0521159 -0.0613306 2.83531
5 Al 1.3763 1.4125 7.34712
6 Ni 0.0123913 -0.145679 5.8139
7 Al 1.37776 1.42496 10.167
8 Ni -0.133261 0.0768305 8.63747
9 Al 1.49992 4.239 1.43957
10 Ni -0.262243 2.95377 -0.0781447
11 Al 1.41662 4.42551 4.43936
12 Ni -0.0918049 3.01482 2.98371
13 Al 1.34421 4.40269 7.17585
14 Ni -0.0945431 3.00954 5.79288
15 Al 1.24179 4.33025 10.1557
16 Ni -0.217644 2.8524 8.65628
17 Al 1.45263 7.34726 1.35282
18 Ni 0.0593689 5.78566 0.180756
19 Al 1.47058 7.21844 4.44796
20 Ni -0.018142 5.76713 2.82351
21 Al 1.27243 7.22872 7.21469
22 Ni -0.229708 5.88253 5.78061
23 Al 1.35174 7.25276 10.2257
24 Ni -0.182606 5.84178 8.74332
25 Al 1.38058 10.1334 1.39241
26 Ni -0.0245415 8.82532 -0.0277088
27 Al 1.41844 10.1331 4.25028
28 Ni 0.0725183 8.74268 2.8198
29 Al 1.44248 10.0571 7.23232
30 Ni -0.0704973 8.76248 5.73392
31 Al 1.36847 10.1747 10.1322
32 Ni -0.00583996 8.66095 8.74027
33 Al 4.30405 1.28381 1.32659
34 Ni 2.7912 -0.18077 -0.0110715
35 Al 4.26725 1.44991 4.44853
36 Ni 2.82407 -0.0918598 2.92918
37 Al 4.20119 1.57729 7.29141
38 Ni 2.74796 -0.00800886 5.92979
39 Al 4.30576 1.3673 10.0405
40 Ni 2.81843 -0.0928454 8.70179
41 Al 4.24543 4.38889 1.28262
42 Ni 2.91973 2.81664 -0.0234428
43 Al 4.23076 4.28944 4.2207
44 Ni 2.86445 2.75494 2.82072
45 Al 4.27618 4.43467 7.38719
46 Ni 2.75646 2.87847 5.76002
47 Al 4.23101 4.46209 10.1476
48 Ni 2.78539 3.05178 8.82598
49 Al 4.41268 7.28601 1.38845
50 Ni 2.92613 5.91116 0.0270965
51 Al 4.39981 7.18007 4.23399
52 Ni 2.83702 5.95931 2.80037
53 Al 4.38059 7.23821 7.35204
54 Ni 3.0848 5.71506 5.78137
55 Al 4.26787 7.2433 10.2057
56 Ni 2.77964 5.93811 8.89952
57 Al 4.35209 10.1237 1.41661
58 Ni 2.98442 8.71714 -0.0916476
59 Al 4.27963 10.1252 4.41532
60 Ni 2.86976 8.80459 2.99268
61 Al 4.32251 10.1637 7.23138
62 Ni 2.81946 8.6565 5.71116
63 Al 4.29678 10.228 10.0743
64 Ni 2.76599 8.61543 8.72201
65 Al 7.22322 1.31165 1.39385
66 Ni 5.80824 -0.0373937 -0.0482514
67 Al 7.19958 1.47616 4.30167
68 Ni 5.67118 -0.146453 2.87274
69 Al 7.36518 1.36664 7.30093
70 Ni 5.87181 -0.0249756 5.72917
71 Al 7.26431 1.44071 10.0948
72 Ni 5.7572 -0.129491 8.69988
73 Al 7.25784 4.37137 1.45921
74 Ni 5.79121 2.88593 0.0209026
75 Al 7.22646 4.3235 4.42601
76 Ni 5.71386 2.82889 2.98644
77 Al 7.31017 4.41943 7.22488
78 Ni 5.71337 3.00849 5.8064
79 Al 7.22838 4.33804 10.1335
80 Ni 5.72297 2.9275 8.71985
81 Al 7.3571 7.20605 1.44944
82 Ni 5.82803 5.86722 -0.0295462
83 Al 7.24384 7.19113 4.31767
84 Ni 5.67467 5.78564 2.841
85 Al 7.19273 7.27382 7.19893
86 Ni 5.70584 5.87329 5.77337
87 Al 7.08901 7.24985 10.1003
88 Ni 5.83129 5.78239 8.76028
89 Al 7.35903 10.167 1.5256
90 Ni 5.80288 8.68823 0.0404123
91 Al 7.36782 10.2494 4.38375
92 Ni 5.78456 8.71601 2.90351
93 Al 7.22279 10.1827 7.16024
94 Ni 5.72359 8.70314 5.63713
95 Al 7.30769 10.1658 10.1962
96 Ni 5.78383 8.84249 8.69544
97 Al 10.0928 1.48852 1.49669
98 Ni 8.69843 0.163529 -0.0951958
99 Al 10.3367 1.42949 4.35893
100 Ni 8.63374 -0.0396516 2.88655
101 Al 10.0529 1.38147 7.22466
102 Ni 8.82631 0.0203463 5.7515
103 Al 10.1236 1.34919 10.0719
104 Ni 8.62256 -0.130858 8.6872
105 Al 10.2155 4.28927 1.43383
106 Ni 8.81197 2.80922 -0.0833065
107 Al 10.1484 4.48075 4.3111
108 Ni 8.62493 2.94931 2.97201
109 Al 10.1457 4.41758 7.26147
110 Ni 8.67081 2.73517 5.83917
111 Al 10.0857 4.47818 10.1511
112 Ni 8.7845 2.96628 8.7024
113 Al 10.3137 7.3016 1.4225
114 Ni 8.67608 5.91326 0.00280709
115 Al 10.2155 7.21699 4.26312
116 Ni 8.84355 5.85055 2.81786
117 Al 10.1986 7.26327 7.30137
118 Ni 8.81209 5.97535 5.68266
119 Al 10.165 7.21785 10.2379
120 Ni 8.69565 5.87096 8.59592
121 Al 10.166 10.0994 1.4006
122 Ni 8.60364 8.77956 -0.0260919
123 Al 10.2596 10.1453 4.30547
124 Ni 8.72764 8.67373 2.98091
125 Al 10.2977 10.1054 7.22046
126 Ni 8.80571 8.67268 5.6981
127 Al 10.1813 10.1825 9.98603
128 Ni 8.72244 8.61989 8.62678
ITEM: TIMESTEP
6000
ITEM: NUMBER OF ATOMS
128
ITEM: BOX BOUNDS xy xz yz pp pp pp
-1.8227226896447832e-02 1.1609714415774404e+01 1.2670818777307757e-02
-5.3575519070415425e-02 1.1583879286995263e+01 -2.9679497231871331e-03
1.0846169657332538e-03 1.1580699702858251e+01 -5.1480551898933372e-02
ITEM: ATOMS id element xu yu zu
1 Al 1.46284 1.47788 1.4333
2 Ni 0.0434464 0.0398465 -0.0483254
3 Al 1.48766 1.53223 4.40214
4 Ni -0.0824469 0.0841787 3.04203
5 Al 1.42481 1.3792 7.23537
6 Ni -0.0967983 0.145048 5.85493
7 Al 1.59574 1.36074 10.0259
8 Ni 0.0018111 0.00732056 8.68136
9 Al 1.42494 4.34477 1.43532
10 Ni 0.11275 2.79096 0.0514674
11 Al 1.39967 4.26542 4.33812
12 Ni 0.000547129 2.71729 2.74901
13 Al 1.4917 4.26353 7.16856
14 Ni 0.0681307 2.91139 5.82957
15 Al 1.51229 4.1271 10.0936
16 Ni 0.0142772 3.0059 8.72709
17 Al 1.33813 7.18411 1.33713
18 Ni -0.129371 5.76288 -0.13807
19 Al 1.46643 7.24489 4.33763
20 Ni -0.0725739 5.84319 2.79703
21 Al 1.36338 7.14006 7.3149
22 Ni 0.0758026 5.65009 5.7609
23 Al 1.47721 7.21914 10.1155
24 Ni -0.0312841 5.75143 8.66415
25 Al 1.40519 10.2074 1.50176
26 Ni 0.0225123 8.78359 0.06282
27 Al 1.38012 10.0203 4.2442
28 Ni -0.0883876 8.71109 2.84019
29 Al 1.42773 10.0883 7.15595
30 Ni 0.048433 8.54621 5.88863
31 Al 1.42151 10.1019 10.1453
32 Ni -0.130745 8.72059 8.66224
33 Al 4.30824 1.40476 1.37998
34 Ni 2.9591 0.121699 -0.0742195
35 Al 4.29403 1.61832 4.41583
36 Ni 2.87794 0.0926581 2.93556
37 Al 4.26149 1.52204 7.1999
38 Ni 2.87918 0.00314431 5.71715
39 Al 4.41936 1.32702 10.0465
40 Ni 2.87711 0.0255295 8.62251
41 Al 4.36278 4.40473 1.29613
42 Ni 2.93651 2.85242 -0.0108465
43 Al 4.40464 4.40518 4.30208
44 Ni 2.88289 2.92947 2.89951
45 Al 4.39881 4.38174 7.237
46 Ni 2.94463 2.97134 5.81825
47 Al 4.35489 4.31014 10.103
48 Ni 3.02655 2.81377 8.63828
49 Al 4.37791 7.19442 1.27753
50 Ni 2.82213 5.71229 -0.0464819
51 Al 4.41762 7.18216 4.31778
52 Ni 2.90388 5.60341 2.87386
53 Al 4.37896 7.18755 7.23141
54 Ni 2.6103 5.76885 5.68239
55 Al 4.27757 7.06584 10.1598
56 Ni 2.95248 5.66338 8.6623
57 Al 4.28453 10.1402 1.5037
58 Ni 2.77738 8.75831 0.030416
59 Al 4.22625 10.0625 4.40154
60 Ni 2.90184 8.50531 2.7163
61 Al 4.2678 10.1239 7.27031
62 Ni 2.79603 8.64891 5.886
63 Al 4.32563 10.0545 10.0757
64 Ni 2.8575 8.68665 8.71192
65 Al 7.23449 1.25147 1.49527
66 Ni 5.77629 -0.00284482 -0.054649
67 Al 7.19645 1.4104 4.41188
68 Ni 5.81992 0.0887825 3.02439
69 Al 7.40678 1.3591 7.2781
70 Ni 5.72065 -0.198088 5.8739
71 Al 7.25547 1.33342 10.161
72 Ni 5.69463 -0.076016 8.61325
73 Al 7.26413 4.27205 1.49573
74 Ni 5.81584 2.81808 8.38186e-05
75 Al 7.23788 4.19164 4.34765
76 Ni 5.81026 2.84499 2.89572
77 Al 7.30612 4.33373 7.22057
78 Ni 5.82536 2.72829 5.79647
79 Al 7.18507 4.3102 10.074
80 Ni 5.84305 2.8857 8.6014
81 Al 7.37938 7.22455 1.4378
82 Ni 5.92869 5.79079 0.0761355
83 Al 7.31674 7.28584 4.30712
84 Ni 5.95281 5.7936 2.90465
85 Al 7.32978 7.12963 7.2596
86 Ni 5.83049 5.75914 5.82183
87 Al 7.202 7.1914 10.2299
88 Ni 5.79706 5.82816 8.61022
89 Al 7.23653 10.1659 1.5349
90 Ni 5.88122 8.76153 0.014378
91 Al 7.21587 10.1103 4.33249
92 Ni 5.66786 8.71029 2.92536
93 Al 7.20948 10.1588 7.30298
94 Ni 5.74697 8.64113 5.89656
95 Al 7.29936 10.078 10.113
96 Ni 5.85686 8.46699 8.63429
97 Al 10.0061 1.44796 1.28242
98 Ni 8.61114 -0.119595 0.106183
99 Al 10.1784 1.56853 4.43024
100 Ni 8.74911 0.0181599 3.00344
101 Al 10.0369 1.55056 7.25533
102 Ni 8.57344 -0.0777823 5.84019
103 Al 10.0661 1.40207 10.1072
104 Ni 8.80319 -0.0134908 8.62604
105 Al 10.2864 4.25179 1.45725
106 Ni 8.54055 2.87565 0.0430547
107 Al 10.2542 4.45576 4.26323
108 Ni 8.87809 2.86883 2.84618
109 Al 10.1672 4.37356 7.34778
110 Ni 8.66519 2.97565 5.74444
111 Al 10.13 4.22455 10.1679
112 Ni 8.50047 2.84407 8.66701
113 Al 10.1489 7.19037 1.52083
114 Ni 8.76223 5.75369 0.0285496
115 Al 10.0744 7.11702 4.43654
116 Ni 8.62473 5.74409 2.96024
117 Al 10.1329 7.14868 7.28296
118 Ni 8.64874 5.63308 5.77228
119 Al 10.1336 7.1858 10.1902
120 Ni 8.66593 5.72547 8.76773
121 Al 10.2829 10.1571 1.49392
122 Ni 8.79087 8.81848 0.107266
123 Al 10.1466 10.0885 4.46142
124 Ni 8.78048 8.87943 2.83453
125 Al 10.2371 10.107 7.15555
126 Ni 8.72316 8.66137 5.78253
127 Al 10.1425 10.1333 10.1226
128 Ni 8.73989 8.76365 8.72448
ITEM: TIMESTEP
6100
ITEM: NUMBER OF ATOMS
128
ITEM: BOX BOUNDS xy xz yz pp pp pp
-1.0250025924807285e-01 1.1677925473602858e+01 -7.4261284917465559e-02
-8.0621305883455230e-02 1.1642592692177917e+01 6.7902179448424832e-02
-4.7280076714081964e-02 1.1629064396538061e+01 -1.9812933529316849e-02
ITEM: ATOMS id element xu yu zu
1 Al 1.45995 1.53418 1.39397
2 Ni 0.126499 -0.041401 -0.0889008
3 Al 1.45346 1.44032 4.28386
4 Ni 0.155867 -0.207716 2.81567
5 Al 1.44145 1.41758 7.14897
6 Ni 0.0530087 -0.104631 5.742
7 Al 1.59656 1.35699 10.08
8 Ni 0.0154311 -0.0523265 8.71493
9 Al 1.41353 4.37769 1.43225
10 Ni -0.0279279 2.89506 -0.0756856
11 Al 1.41015 4.36863 4.48122
12 Ni -0.0612258 3.00149 2.91447
13 Al 1.40758 4.37455 7.16069
14 Ni -0.104224 2.85588 5.80143
15 Al 1.56453 4.2614 10.1675
16 Ni -0.026282 2.67153 8.67838
17 Al 1.26781 7.23437 1.46424
18 Ni -0.121398 5.79758 0.00323241
19 Al 1.38939 7.23486 4.50707
20 Ni -0.138398 5.6487 2.92514
21 Al 1.36591 7.21577 7.27603
22 Ni -0.129155 5.86136 5.84114
23 Al 1.4883 7.28049 10.1893
24 Ni -0.0951975 5.78392 8.758
25 Al 1.36606 10.123 1.3852
26 Ni -0.124709 8.63294 -0.0500925
27 Al 1.32694 10.1102 4.42282
28 Ni 0.0136277 8.75666 2.89854
29 Al 1.37402 10.1941 7.21139
30 Ni -0.109055 8.75258 5.72356
31 Al 1.39555 10.0981 10.1911
32 Ni 0.0411097 8.6789 8.65354
33 Al 4.24849 1.42218 1.35393
34 Ni 2.86602 -0.141549 0.00729567
35 Al 4.33528 1.52485 4.38828
36 Ni 2.93878 -0.180985 2.86715
37 Al 4.21985 1.34808 7.37841
38 Ni 2.99013 -0.1787 5.80907
39 Al 4.32917 1.36938 10.2236
40 Ni 2.97688 -0.167534 8.77653
41 Al 4.30156 4.40553 1.50265
42 Ni 2.91321 2.99503 -0.0152954
43 Al 4.3411 4.40306 4.31235
44 Ni 2.84099 2.86773 2.88848
45 Al 4.33068 4.24884 7.298
46 Ni 2.83075 2.80666 5.6786
47 Al 4.38354 4.35278 10.2209
48 Ni 2.89135 2.93178 8.64565
49 Al 4.16311 7.29838 1.42481
50 Ni 3.01761 5.82242 -0.00170685
51 Al 4.29827 7.37102 4.26712
52 Ni 2.80289 5.88732 2.8915
53 Al 4.49307 7.31891 7.35554
54 Ni 2.98922 5.78972 5.88196
55 Al 4.34051 7.16828 10.1165
56 Ni 2.93782 5.80346 8.73189
57 Al 4.2334 10.0299 1.44844
58 Ni 2.88791 8.59236 -0.0714047
59 Al 4.35316 10.1525 4.36697
60 Ni 2.74936 8.88992 2.98508
61 Al 4.37668 10.1569 7.2032
62 Ni 2.82433 8.72702 5.75298
63 Al 4.27313 10.1632 10.1586
64 Ni 2.88573 8.71279 8.69063
65 Al 7.24999 1.29711 1.36911
66 Ni 5.77755 -0.0391048 0.00522575
67 Al 7.15352 1.3135 4.33031
68 Ni 5.83221 -0.248889 2.811
69 Al 7.38353 1.42714 7.2553
70 Ni 5.8169 -0.0252503 5.63287
71 Al 7.17254 1.44237 10.1664
72 Ni 5.86668 -0.0749644 8.7338
73 Al 7.15826 4.38876 1.35394
74 Ni 5.76667 2.88754 -0.0302718
75 Al 7.35342 4.36378 4.24237
76 Ni 5.92752 2.79291 2.9537
77 Al 7.2689 4.33915 7.29056
78 Ni 5.8691 3.11604 5.62467
79 Al 7.27271 4.28833 10.064
80 Ni 5.71464 2.75823 8.72084
81 Al 7.18584 7.26047 1.35086
82 Ni 5.66046 5.86484 -0.0434722
83 Al 7.248 7.21645 4.29644
84 Ni 5.66813 5.87768 2.89193
85 Al 7.19687 7.14913 7.35808
86 Ni 5.83949 5.82549 5.71617
87 Al 7.26076 7.30817 10.2151
88 Ni 5.74654 5.79725 8.81404
89 Al 7.28417 10.2044 1.25967
90 Ni 5.64598 8.64904 -0.0669117
91 Al 7.24267 10.1044 4.24169
92 Ni 5.80517 8.64685 2.85437
93 Al 7.18644 10.2887 7.23082
94 Ni 5.82872 8.60977 5.7394
95 Al 7.28681 10.1417 10.1647
96 Ni 5.71014 8.84526 8.78379
97 Al 10.2416 1.45991 1.36757
98 Ni 8.6524 0.0382074 -0.142922
99 Al 10.1171 1.3598 4.32597
100 Ni 8.67467 -0.156679 2.72198
101 Al 10.1064 1.33511 7.25727
102 Ni 8.81409 -0.0537171 5.82706
103 Al 10.1118 1.36386 10.1463
104 Ni 8.59076 -0.0376017 8.75484
105 Al 10.0703 4.33839 1.50635
106 Ni 8.71309 2.74414 -0.108288
107 Al 10.1069 4.30771 4.34662
108 Ni 8.59562 2.75312 2.78291
109 Al 10.1935 4.33076 7.34396
110 Ni 8.65058 2.81901 5.92607
111 Al 10.3167 4.28951 10.2183
112 Ni 8.8284 2.84219 8.72609
113 Al 10.1199 7.24301 1.44759
114 Ni 8.60297 5.80638 -0.132177
115 Al 10.1451 7.18265 4.36983
116 Ni 8.80722 5.88425 2.84067
117 Al 10.1634 7.26393 7.23529
118 Ni 8.75749 5.89848 5.78396
119 Al 10.2225 7.23391 10.129
120 Ni 8.78172 5.7492 8.70515
121 Al 10.1781 10.0148 1.45298
122 Ni 8.60364 8.69201 -0.0656798
123 Al 10.0454 10.1261 4.3463
124 Ni 8.6776 8.6023 2.91358
125 Al 10.1714 10.1639 7.31679
126 Ni 8.70688 8.7764 5.84515
127 Al 10.1042 10.1437 10.2166
128 Ni 8.70899 8.68898 8.655
ITEM: TIMESTEP
6200
ITEM: NUMBER OF ATOMS
128
ITEM: BOX BOUNDS xy xz yz pp pp pp
-3.0643944021994454e-02 1.1572461059778359e+01 -6.6978875854504334e-04
-4.3520049168696673e-02 1.1671260656007384e+01 -3.9297415308926310e-02
-9.2632822970477591e-03 1.1591047602121039e+01 4.5956287014909912e-02
ITEM: ATOMS id element xu yu zu
1 Al 1.43124 1.43593 1.50586
2 Ni -0.0884189 -0.0674979 0.028145
3 Al 1.51168 1.45301 4.39757
4 Ni -0.158013 -0.012891 2.80308
5 Al 1.44849 1.57174 7.3188
6 Ni -0.0914309 -0.0808686 5.84761
7 Al 1.36407 1.45644 10.1431
8 Ni 0.106361 -0.109486 8.72991
9 Al 1.43502 4.28107 1.5167
10 Ni -0.00419259 2.87454 0.0381055
11 Al 1.43246 4.30856 4.39075
12 Ni 0.0446688 2.87701 2.9319
13 Al 1.37891 4.39279 7.14653
14 Ni 0.0391172 2.80826 5.72877
15 Al 1.43227 4.37478 10.2066
16 Ni 0.0283251 2.99222 8.70214
17 Al 1.4421 7.27864 1.4937
18 Ni 0.0800488 5.78778 0.0946008
19 Al 1.37623 7.27898 4.43885
20 Ni 0.0842777 5.95335 2.89862
21 Al 1.40318 7.32046 7.21588
22 Ni -0.0402016 5.82631 5.7902
23 Al 1.48337 7.40678 10.1183
24 Ni 0.0507339 5.85475 8.52246
25 Al 1.43941 10.1609 1.54935
26 Ni 0.0556862 8.70288 -0.0901489
27 Al 1.47823 10.0557 4.39216
28 Ni -0.0535555 8.68308 2.84345
29 Al 1.42145 10.2518 7.20219
30 Ni 0.00910764 8.76489 5.86592
31 Al 1.46849 10.2271 10.1708
32 Ni 0.0218889 8.72563 8.76564
33 Al 4.29842 1.47819 1.35675
34 Ni 2.8779 -0.0169899 0.0296395
35 Al 4.40809 1.33193 4.24704
36 Ni 2.83487 0.0080205 2.82138
37 Al 4.29821 1.3853 7.38461
38 Ni 2.88355 0.117914 5.76025
39 Al 4.2197 1.52908 10.1648
40 Ni 2.87584 0.0544612 8.63927
41 Al 4.19348 4.45712 1.46843
42 Ni 2.79385 2.76985 0.0670096
43 Al 4.34455 4.25652 4.46118
44 Ni 2.88234 2.82347 2.89994
45 Al 4.21806 4.19471 7.31756
46 Ni 2.83969 2.93389 5.87466
47 Al 4.17241 4.48272 10.2287
48 Ni 2.82395 2.86941 8.77189
49 Al 4.35565 7.21636 1.37164
50 Ni 2.74826 5.84023 -0.00268444
51 Al 4.39827 7.20007 4.43566
52 Ni 2.95323 5.82527 2.96574
53 Al 4.37105 7.26386 7.35079
54 Ni 2.77798 5.73702 5.74858
55 Al 4.36166 7.20825 10.1182
56 Ni 2.80943 5.7681 8.60396
57 Al 4.30702 10.0607 1.4467
58 Ni 2.90043 8.73992 -0.0420868
59 Al 4.34652 10.1178 4.2456
60 Ni 2.98813 8.52947 2.9407
61 Al 4.37706 10.2053 7.24013
62 Ni 2.99199 8.79841 5.80556
63 Al 4.26888 10.2056 10.0639
64 Ni 2.92067 8.67227 8.69503
65 Al 7.31094 1.54243 1.38581
66 Ni 5.74338 0.0106368 -0.0334703
67 Al 7.07977 1.50478 4.22544
68 Ni 5.87206 -0.0120898 2.84218
69 Al 7.38485 1.43846 7.18479
70 Ni 5.8644 -0.0459898 5.853
71 Al 7.15945 1.46125 10.0989
72 Ni 5.67328 0.0494364 8.74465
73 Al 7.22036 4.38361 1.4021
74 Ni 5.65746 2.87649 -4.18002e-05
75 Al 7.18974 4.38209 4.44491
76 Ni 5.62301 3.04218 2.81947
77 Al 7.19779 4.24906 7.27084
78 Ni 5.76501 2.73263 5.81464
79 Al 7.154 4.37144 10.1267
80 Ni 5.8104 2.98601 8.71307
81 Al 7.24548 7.33021 1.38653
82 Ni 5.7813 5.69717 -0.0399484
83 Al 7.22731 7.32548 4.2714
84 Ni 5.88766 5.73318 2.88934
85 Al 7.09032 7.22281 7.24705
86 Ni 5.77805 5.77622 5.86171
87 Al 7.19559 7.25652 10.2067
88 Ni 5.7868 5.68839 8.6097
89 Al 7.27431 10.343 1.32807
90 Ni 5.83956 8.65637 0.0220805
91 Al 7.29791 10.1787 4.2626
92 Ni 5.8773 8.73145 2.94759
93 Al 7.25766 10.296 7.34835
94 Ni 5.77527 8.86073 5.75987
95 Al 7.19157 10.2553 10.1266
96 Ni 5.80851 8.71396 8.62817
97 Al 10.1575 1.64441 1.46719
98 Ni 8.67887 -0.103614 -0.026998
99 Al 10.1551 1.3425 4.38538
100 Ni 8.64765 -0.0232568 2.8758
101 Al 10.1016 1.44647 7.2769
102 Ni 8.5983 0.0142338 5.67003
103 Al 10.0167 1.51127 10.1345
104 Ni 8.75427 -0.0917385 8.74064
105 Al 10.2522 4.46797 1.52894
106 Ni 8.69057 2.99977 0.00967848
107 Al 10.1538 4.37833 4.26987
108 Ni 8.73489 3.05786 2.90012
109 Al 10.0817 4.28508 7.16526
110 Ni 8.74821 2.763 5.65148
111 Al 10.1592 4.49142 9.99607
112 Ni 8.6119 2.86131 8.69305
113 Al 10.1583 7.27186 1.43172
114 Ni 8.72464 5.78701 0.048699
115 Al 10.0655 7.1672 4.35056
116 Ni 8.63061 5.72655 2.90172
117 Al 10.0783 7.33867 7.18467
118 Ni 8.65822 5.83432 5.87508
119 Al 10.1389 7.29882 10.0096
120 Ni 8.49716 5.85468 8.61583
121 Al 10.1134 9.98355 1.4295
122 Ni 8.69412 8.62108 -0.115771
123 Al 10.1127 10.1218 4.28719
124 Ni 8.72488 8.76644 2.77691
125 Al 10.0511 10.1653 7.22735
126 Ni 8.6783 8.70135 5.74083
127 Al 10.0903 10.167 10.2188
128 Ni 8.52444 8.80878 8.7999
ITEM: TIMESTEP
6300
ITEM: NUMBER OF ATOMS
128
ITEM: BOX BOUNDS xy xz yz pp pp pp
-7.9290801700671154e-02 1.1651780026893556e+01 5.1832187371955121e-02
-6.3240423407459223e-02 1.1635056224245368e+01 -6.1127282002908616e-02
-8.5532506417589360e-03 1.1590337570465744e+01 -9.9685189858686532e-03
ITEM: ATOMS id element xu yu zu
1 Al 1.56292 1.43746 1.4483
2 Ni 0.00564722 -0.123062 -0.116539
3 Al 1.43629 1.48299 4.3804
4 Ni -0.0125131 -0.0927467 2.93279
5 Al 1.43306 1.44709 7.2607
6 Ni -0.0607411 -0.024098 5.74953
7 Al 1.39678 1.47413 10.1416
8 Ni -0.195994 -0.0224783 8.64538
9 Al 1.40121 4.31063 1.38405
10 Ni 0.0438714 2.89807 -0.000769125
11 Al 1.38114 4.27273 4.38094
12 Ni -0.0480123 2.80013 2.77306
13 Al 1.46495 4.31817 7.2126
14 Ni -0.0566765 2.91972 5.85958
15 Al 1.38047 4.38343 10.1533
16 Ni -0.178294 2.88164 8.68845
17 Al 1.51405 7.17771 1.4599
18 Ni -0.040187 5.86578 -0.0272289
19 Al 1.41783 7.26572 4.21908
20 Ni -0.0467204 5.7888 2.93314
21 Al 1.39064 7.18893 7.21539
22 Ni 0.125533 5.82351 5.73594
23 Al 1.39371 7.38813 10.1166
24 Ni -0.112111 5.7698 8.80555
25 Al 1.43791 10.1873 1.45512
26 Ni -0.0249073 8.74102 0.0613104
27 Al 1.51159 10.0919 4.38388
28 Ni -0.00647771 8.76732 2.94104
29 Al 1.31174 10.1745 7.18563
30 Ni 0.0256248 8.6409 5.72836
31 Al 1.38768 10.081 10.0759
32 Ni -0.0486537 8.69575 8.57891
33 Al 4.26 1.53658 1.32708
34 Ni 2.89097 -0.0252671 -0.0417334
35 Al 4.38365 1.3508 4.29643
36 Ni 2.92979 -0.0269556 2.93871
37 Al 4.2464 1.25637 7.31187
38 Ni 2.78465 -0.180409 5.77867
39 Al 4.32745 1.44457 10.1203
40 Ni 2.76953 -0.0754547 8.81082
41 Al 4.40607 4.29472 1.44327
42 Ni 2.92391 2.9335 -0.124459
43 Al 4.3081 4.19025 4.27457
44 Ni 2.82425 2.93549 2.824
45 Al 4.30389 4.28535 7.13146
46 Ni 2.79091 2.79741 5.71651
47 Al 4.33876 4.33016 10.0924
48 Ni 2.84973 2.80781 8.6557
49 Al 4.31092 7.21916 1.4514
50 Ni 3.04621 5.71229 -0.0624511
51 Al 4.24469 7.29212 4.30793
52 Ni 2.8906 5.72762 2.83671
53 Al 4.32825 7.27322 7.31481
54 Ni 2.89054 5.81294 5.76704
55 Al 4.2845 7.2308 10.116
56 Ni 2.96889 5.74451 8.70581
57 Al 4.38817 10.241 1.42734
58 Ni 2.96026 8.72041 -0.00240202
59 Al 4.39762 10.0969 4.29853
60 Ni 2.95984 8.94284 2.7724
61 Al 4.41633 10.1924 7.3022
62 Ni 2.87076 8.72595 5.75276
63 Al 4.32212 10.2375 10.1311
64 Ni 2.95443 8.79882 8.69292
65 Al 7.30854 1.41693 1.45563
66 Ni 5.94103 -0.0813442 0.0193639
67 Al 7.23824 1.36199 4.49752
68 Ni 5.77973 0.0110294 2.93706
69 Al 7.25167 1.39803 7.22125
70 Ni 5.65092 0.0264864 5.75994
71 Al 7.28237 1.44595 10.124
72 Ni 5.84812 -0.115449 8.71623
73 Al 7.33212 4.37355 1.46009
74 Ni 5.98176 2.89616 -0.0406213
75 Al 7.18338 4.28773 4.32334
76 Ni 5.8541 2.67707 2.93563
77 Al 7.18469 4.34147 7.43254
78 Ni 5.77972 2.91542 5.81543
79 Al 7.12746 4.32388 10.1179
80 Ni 5.80675 2.68753 8.68529
81 Al 7.21991 7.20661 1.39464
82 Ni 5.79226 5.78272 -0.00714145
83 Al 7.11998 7.33118 4.33464
84 Ni 5.68421 5.70994 2.92346
85 Al 7.18612 7.13359 7.28335
86 Ni 5.87992 5.69361 5.73512
87 Al 7.2685 7.28823 10.131
88 Ni 5.75939 5.88447 8.66623
89 Al 7.2475 10.1748 1.4746
90 Ni 5.79259 8.67472 -0.063032
91 Al 7.2073 10.1493 4.37395
92 Ni 5.681 8.70766 2.82711
93 Al 7.24902 10.2034 7.3826
94 Ni 5.7386 8.66662 5.8477
95 Al 7.33652 10.0862 10.164
96 Ni 5.69605 8.68351 8.72982
97 Al 10.2956 1.4552 1.41693
98 Ni 8.69431 -0.0513979 -0.0187648
99 Al 10.1581 1.39388 4.46153
100 Ni 8.66672 -0.0532701 2.89205
101 Al 10.0393 1.48583 7.17984
102 Ni 8.70241 -0.117994 5.89556
103 Al 10.1554 1.4037 10.123
104 Ni 8.60251 0.0379269 8.72447
105 Al 10.1829 4.39661 1.51446
106 Ni 8.74688 2.83809 0.0582412
107 Al 10.1314 4.35071 4.28909
108 Ni 8.72555 2.7566 2.87367
109 Al 10.2209 4.38852 7.1215
110 Ni 8.69811 3.00434 5.87667
111 Al 10.0996 4.31534 10.075
112 Ni 8.72834 2.91506 8.70274
113 Al 10.1662 7.29517 1.54313
114 Ni 8.69056 5.77118 -0.0581806
115 Al 10.1108 7.26893 4.40731
116 Ni 8.67328 5.77855 2.99613
117 Al 10.2537 7.21556 7.10941
118 Ni 8.65394 5.6902 5.71718
119 Al 10.0734 7.42313 10.1583
120 Ni 8.80572 5.75678 8.74463
121 Al 10.1142 10.0765 1.50008
122 Ni 8.71355 8.7427 0.145192
123 Al 10.0939 10.1924 4.29995
124 Ni 8.57758 8.63555 3.0294
125 Al 10.1617 10.1665 7.18155
126 Ni 8.61823 8.78417 5.81894
127 Al 10.1015 10.1372 10.1713
128 Ni 8.80267 8.6554 8.59753
ITEM: TIMESTEP
6400
ITEM: NUMBER OF ATOMS
128
ITEM: BOX BOUNDS xy xz yz pp pp pp
-7.1574328644191471e-02 1.1675851542574950e+01 -2.9404756493839137e-02
-9.1388839193532065e-02 1.1622972553418876e+01 5.1897650600782372e-02
-5.5482581257706443e-03 1.1587332577949738e+01 -5.0200605598424361e-02
ITEM: ATOMS id element xu yu zu
1 Al 1.40845 1.50891 1.40141
2 Ni -0.152395 0.0432141 0.0583619
3 Al 1.42464 1.54678 4.41523
4 Ni -0.0456914 0.0228086 2.84945
5 Al 1.52187 1.43349 7.28238
6 Ni -0.0232627 -0.133737 5.81714
7 Al 1.56076 1.417 10.1411
8 Ni 0.107696 -0.117204 8.75424
9 Al 1.38905 4.26736 1.38331
10 Ni -0.201035 2.82505 -0.0444032
11 Al 1.43572 4.32259 4.35917
12 Ni -0.0186138 2.92384 2.91067
13 Al 1.44158 4.30807 7.219
14 Ni -0.00163798 2.90609 5.75279
15 Al 1.45925 4.22911 10.2025
16 Ni 0.124155 2.79212 8.68411
17 Al 1.47215 7.14811 1.45672
18 Ni -0.0601727 5.71988 0.071405
19 Al 1.37166 7.18018 4.29819
20 Ni -0.0184302 5.70221 2.78227
21 Al 1.36531 7.10383 7.10933
22 Ni -0.162848 5.72764 5.76833
23 Al 1.37251 7.20052 10.2365
24 Ni 0.0884114 5.84424 8.69591
25 Al 1.36684 10.1334 1.42592
26 Ni -0.118733 8.71671 -6.45625e-05
27 Al 1.5297 10.1877 4.34547
28 Ni 0.0326806 8.66977 2.88044
29 Al 1.31852 10.0907 7.17575
30 Ni 0.0290546 8.67263 5.78186
31 Al 1.37733 10.0497 10.1338
32 Ni -0.0246116 8.56413 8.82217
33 Al 4.24377 1.43874 1.51236
34 Ni 2.82694 -0.0704592 -0.0561768
35 Al 4.46622 1.43638 4.34427
36 Ni 2.83364 -0.0375288 2.74216
37 Al 4.41295 1.52784 7.18772
38 Ni 2.98606 0.0462149 5.83734
39 Al 4.33594 1.37617 10.0724
40 Ni 2.96196 -0.0975697 8.63154
41 Al 4.3234 4.29489 1.44565
42 Ni 2.95084 2.81623 0.074668
43 Al 4.3174 4.33185 4.2583
44 Ni 2.91067 2.75233 2.86852
45 Al 4.38296 4.41709 7.21996
46 Ni 2.90994 3.00381 5.91192
47 Al 4.37109 4.28072 10.2049
48 Ni 2.91804 2.89918 8.67821
49 Al 4.37755 7.1935 1.39067
50 Ni 2.87035 5.78846 0.020116
51 Al 4.30593 7.34693 4.27202
52 Ni 2.89479 5.77351 2.79578
53 Al 4.2804 7.3309 7.37623
54 Ni 2.83783 5.72535 5.85582
55 Al 4.34504 7.24006 10.1253
56 Ni 2.88525 5.82207 8.76809
57 Al 4.31587 10.0909 1.49864
58 Ni 2.81458 8.73125 -0.06348
59 Al 4.18137 10.1609 4.31058
60 Ni 2.80438 8.56996 2.90356
61 Al 4.40733 10.0958 7.34094
62 Ni 2.86697 8.64672 5.82014
63 Al 4.32976 10.0796 10.1205
64 Ni 2.78031 8.57428 8.77938
65 Al 7.18555 1.28928 1.51146
66 Ni 5.75288 -0.0421741 -0.140235
67 Al 7.17689 1.39163 4.39917
68 Ni 5.73403 -0.137217 2.98205
69 Al 7.20506 1.30608 7.28765
70 Ni 5.86188 -0.167614 5.81893
71 Al 7.34694 1.34296 10.0624
72 Ni 5.77813 -0.0767238 8.65667
73 Al 7.30141 4.31708 1.34927
74 Ni 5.74095 2.76352 0.0504293
75 Al 7.24762 4.3679 4.29826
76 Ni 5.78197 2.97449 2.89093
77 Al 7.27773 4.41936 7.24186
78 Ni 5.84439 2.90157 5.73601
79 Al 7.2681 4.24839 10.2101
80 Ni 5.83594 2.9883 8.59944
81 Al 7.2001 7.21482 1.44756
82 Ni 5.86553 5.79667 -0.0190303
83 Al 7.32623 7.25015 4.34997
84 Ni 5.79982 5.8296 2.85231
85 Al 7.11624 7.15926 7.26084
86 Ni 5.65241 5.8927 5.75867
87 Al 7.25736 7.26538 10.185
88 Ni 5.84962 5.76644 8.78618
89 Al 7.27583 10.1068 1.47518
90 Ni 5.83585 8.76749 0.0964296
91 Al 7.24508 10.0167 4.34829
92 Ni 5.80708 8.72571 2.97676
93 Al 7.26772 10.1356 7.25785
94 Ni 5.73863 8.65264 5.69444
95 Al 7.29505 10.1345 10.1374
96 Ni 5.90672 8.70616 8.66705
97 Al 10.0777 1.46758 1.48997
98 Ni 8.72033 -0.187188 -0.0487007
99 Al 10.2138 1.41754 4.43445
100 Ni 8.70855 -0.135621 3.07342
101 Al 10.1779 1.45172 7.18464
102 Ni 8.71409 -0.00118871 5.7386
103 Al 10.2733 1.26748 10.0179
104 Ni 8.75418 -0.276378 8.56842
105 Al 10.1401 4.24851 1.53061
106 Ni 8.6408 2.79739 -0.0306326
107 Al 10.1135 4.42541 4.36302
108 Ni 8.67171 2.84652 2.85729
109 Al 10.2704 4.2808 7.20622
110 Ni 8.74131 2.79611 5.79829
111 Al 10.1959 4.36288 10.0577
112 Ni 8.68991 2.88666 8.66628
113 Al 10.2371 7.33188 1.47958
114 Ni 8.65718 5.9279 0.111401
115 Al 10.3111 7.31381 4.30068
116 Ni 8.74408 5.82308 2.79496
117 Al 10.3058 7.27349 7.24375
118 Ni 8.79549 5.80236 5.77613
119 Al 10.0802 7.24881 10.1684
120 Ni 8.59639 5.81257 8.68158
121 Al 10.1888 10.0641 1.4386
122 Ni 8.72709 8.73581 -0.0495855
123 Al 10.199 10.1916 4.26004
124 Ni 8.78585 8.75328 2.91862
125 Al 10.1731 10.1184 7.16716
126 Ni 8.74654 8.50929 5.72367
127 Al 10.2011 10.027 10.1249
128 Ni 8.66119 8.67701 8.69582
ITEM: TIMESTEP
6500
ITEM: NUMBER OF ATOMS
128
ITEM: BOX BOUNDS xy xz yz pp pp pp
-9.3188207173587723e-02 1.1636141096443858e+01 -6.5263351328521291e-02
-1.1815455158826538e-02 1.1631580804756783e+01 2.6431920774971127e-02
-3.2606403998389766e-03 1.1585044960223819e+01 3.7981029774190336e-02
ITEM: ATOMS id element xu yu zu
1 Al 1.48803 1.49432 1.42125
2 Ni -0.0549648 0.0177489 -0.0679557
3 Al 1.29779 1.49474 4.34842
4 Ni -0.0315238 0.00425603 2.91855
5 Al 1.50658 1.58153 7.22906
6 Ni 0.0105315 0.0872817 5.83895
7 Al 1.37756 1.47823 10.0486
8 Ni 0.00977091 0.0461523 8.60742
9 Al 1.31523 4.39015 1.38696
10 Ni -0.0236425 2.87765 -0.0140907
11 Al 1.43056 4.28901 4.38508
12 Ni 0.0271512 2.77088 2.92277
13 Al 1.45477 4.29606 7.16051
14 Ni -0.0859182 2.8409 5.8502
15 Al 1.45136 4.29953 10.1649
16 Ni -0.170625 3.01704 8.7036
17 Al 1.39333 7.19222 1.47985
18 Ni -0.0822198 5.69942 -0.0831599
19 Al 1.33028 7.29717 4.29444
20 Ni -0.0810927 5.72695 2.88497
21 Al 1.38296 7.18503 7.21343
22 Ni 0.0429244 5.75973 5.88792
23 Al 1.41348 7.21301 10.1101
24 Ni -0.177582 5.65109 8.68618
25 Al 1.40647 10.1421 1.44521
26 Ni -0.0394189 8.77598 -0.0923226
27 Al 1.38198 10.1794 4.33056
28 Ni -0.16176 8.6982 2.88677
29 Al 1.36305 10.1715 7.1803
30 Ni -0.0422564 8.68912 5.84986
31 Al 1.44614 10.128 10.0922
32 Ni 0.0130346 8.8841 8.67189
33 Al 4.27241 1.58004 1.61655
34 Ni 2.97246 0.0551782 0.129304
35 Al 4.44057 1.48231 4.37109
36 Ni 2.93171 -0.0305501 3.04945
37 Al 4.29927 1.48866 7.19419
38 Ni 2.87148 -0.0775112 5.77063
39 Al 4.27587 1.35487 10.2167
40 Ni 2.84864 0.179943 8.68602
41 Al 4.2713 4.26187 1.44683
42 Ni 2.85162 2.82096 -0.0307424
43 Al 4.40484 4.45948 4.33582
44 Ni 2.93828 2.98881 2.94729
45 Al 4.3334 4.29566 7.19835
46 Ni 2.9381 2.81809 5.67548
47 Al 4.42737 4.32836 10.1699
48 Ni 2.832 2.89113 8.80803
49 Al 4.29302 7.17168 1.4982
50 Ni 2.80698 5.79391 0.0766988
51 Al 4.39879 7.40031 4.28598
52 Ni 2.76567 5.79317 2.96669
53 Al 4.31689 7.19572 7.13253
54 Ni 2.76681 5.82749 5.78421
55 Al 4.28735 7.21597 10.0752
56 Ni 2.86314 5.71775 8.71141
57 Al 4.30868 10.1221 1.53308
58 Ni 2.80774 8.69432 0.0627687
59 Al 4.25679 10.1794 4.3317
60 Ni 2.76764 8.73083 2.92431
61 Al 4.33454 10.1034 7.28298
62 Ni 2.79522 8.63785 5.7576
63 Al 4.28231 10.1991 10.1374
64 Ni 3.02176 8.69588 8.70575
65 Al 7.1389 1.49616 1.43151
66 Ni 5.7673 -0.0767649 0.0530974
67 Al 7.17419 1.40608 4.42343
68 Ni 5.92544 -0.0630854 2.88766
69 Al 7.11734 1.36251 7.24828
70 Ni 5.73368 0.0381609 5.74539
71 Al 7.12951 1.42706 10.0779
72 Ni 5.73514 -0.0667139 8.55201
73 Al 7.20386 4.42474 1.34594
74 Ni 5.82354 2.99537 -0.0477114
75 Al 7.20441 4.34687 4.29616
76 Ni 5.77305 2.90156 2.93689
77 Al 7.23812 4.36356 7.27274
78 Ni 5.71427 2.88265 5.82332
79 Al 7.20757 4.37972 10.1348
80 Ni 5.79571 2.85627 8.73124
81 Al 7.17707 7.13795 1.36124
82 Ni 5.68208 5.85619 0.130298
83 Al 7.39757 7.37337 4.38668
84 Ni 5.83881 5.83975 2.87271
85 Al 7.27414 7.35279 7.29337
86 Ni 6.04783 5.78454 5.82058
87 Al 7.26982 7.28224 10.0999
88 Ni 5.82209 5.80443 8.60409
89 Al 7.23269 10.017 1.35392
90 Ni 5.68262 8.74168 -0.10213
91 Al 7.19293 10.1504 4.21436
92 Ni 5.71297 8.74903 2.8327
93 Al 7.19619 10.2596 7.29105
94 Ni 5.76829 8.67183 5.80519
95 Al 7.22074 10.219 10.1245
96 Ni 5.68005 8.62366 8.66289
97 Al 10.1468 1.50121 1.41201
98 Ni 8.63245 0.178331 -0.0291591
99 Al 10.0636 1.40865 4.41127
100 Ni 8.69311 0.135481 2.73424
101 Al 10.088 1.56848 7.1639
102 Ni 8.82307 -0.053589 5.88855
103 Al 10.2817 1.4423 10.0855
104 Ni 8.69687 0.161745 8.71876
105 Al 10.1203 4.19889 1.63047
106 Ni 8.63097 2.90791 -0.0375933
107 Al 10.2265 4.39667 4.47739
108 Ni 8.59131 2.91489 2.9404
109 Al 10.1123 4.28665 7.16956
110 Ni 8.70916 2.927 5.70634
111 Al 10.1166 4.33711 10.1247
112 Ni 8.59434 2.85092 8.66774
113 Al 10.1157 7.23352 1.40757
114 Ni 8.70913 5.68205 -0.132045
115 Al 10.2514 7.22288 4.362
116 Ni 8.61367 5.70746 2.86297
117 Al 10.34 7.26369 7.23651
118 Ni 8.67922 5.82416 5.83296
119 Al 10.1683 7.38046 10.1994
120 Ni 8.66133 5.7262 8.69704
121 Al 10.0818 10.1881 1.38934
122 Ni 8.71086 8.75466 -0.0217744
123 Al 10.1043 10.2424 4.28482
124 Ni 8.81455 8.71737 2.86201
125 Al 10.1118 10.2051 7.29825
126 Ni 8.83108 8.82279 5.75475
127 Al 10.1079 10.1636 10.1553
128 Ni 8.6541 8.79454 8.76807
ITEM: TIMESTEP
6600
ITEM: NUMBER OF ATOMS
128
ITEM: BOX BOUNDS xy xz yz pp pp pp
-1.1775383681660141e-01 1.1644977999513223e+01 2.0719978672725993e-02
-3.7273182658121407e-02 1.1664781793048109e+01 -7.5280135799933381e-02
-4.3544653769282959e-02 1.1625328973593277e+01 4.5724290566221203e-02
ITEM: ATOMS id element xu yu zu
1 Al 1.5299 1.48492 1.34525
2 Ni 0.0936903 0.00539026 0.00188768
3 Al 1.24532 1.43952 4.27543
4 Ni -0.0930884 -0.0432085 2.86849
5 Al 1.46606 1.40063 7.17911
6 Ni -0.170497 -0.0491805 5.67558
7 Al 1.43662 1.57263 10.1105
8 Ni -0.0287785 0.0452936 8.87035
9 Al 1.40347 4.52753 1.40675
10 Ni 0.0777203 2.89728 -0.00725293
11 Al 1.3889 4.36739 4.28907
12 Ni -0.143562 3.02499 2.75923
13 Al 1.33162 4.4468 7.17839
14 Ni -0.106183 2.92847 5.75528
15 Al 1.37118 4.34436 10.1263
16 Ni 0.0599116 2.71425 8.67119
17 Al 1.41919 7.28495 1.54923
18 Ni 0.0607188 5.92534 -0.0333501
19 Al 1.37388 7.29749 4.35234
20 Ni -0.0870324 5.90221 2.91383
21 Al 1.37001 7.24522 7.16523
22 Ni -0.196968 5.87896 5.76149
23 Al 1.44182 7.27145 10.2059
24 Ni 0.020031 5.95785 8.70415
25 Al 1.44227 10.1209 1.40318
26 Ni -0.082906 8.72393 -0.0450639
27 Al 1.43425 10.2292 4.3604
28 Ni -0.10411 8.76071 2.87546
29 Al 1.28097 10.2452 7.22797
30 Ni -0.13313 8.68874 5.81793
31 Al 1.28402 10.1248 10.1909
32 Ni -0.172149 8.63353 8.71371
33 Al 4.31136 1.45366 1.51541
34 Ni 2.83713 -0.119581 -0.105264
35 Al 4.32754 1.37607 4.36199
36 Ni 2.85545 -0.108105 2.73455
37 Al 4.33436 1.41409 7.04312
38 Ni 2.85217 -0.0608952 5.73029
39 Al 4.14038 1.39888 10.2
40 Ni 2.9141 -0.125067 8.73907
41 Al 4.35264 4.32338 1.51377
42 Ni 2.93942 3.08285 0.0123568
43 Al 4.32469 4.2321 4.33211
44 Ni 2.84255 2.8394 2.90602
45 Al 4.35322 4.26626 7.19316
46 Ni 2.79438 2.95114 5.84742
47 Al 4.35724 4.33797 10.1103
48 Ni 2.9239 2.86484 8.501
49 Al 4.31727 7.16134 1.51144
50 Ni 2.87213 5.79549 -0.12256
51 Al 4.23646 7.33236 4.29585
52 Ni 2.87083 5.8184 2.87915
53 Al 4.26438 7.40111 7.18631
54 Ni 2.85896 5.76727 5.80643
55 Al 4.24741 7.35712 10.0846
56 Ni 2.90452 5.84349 8.52269
57 Al 4.39576 10.1017 1.38002
58 Ni 2.893 8.67876 -0.116698
59 Al 4.35459 10.1408 4.23292
60 Ni 2.89838 8.70703 2.92784
61 Al 4.36943 10.1604 7.28919
62 Ni 2.84138 8.77451 5.7821
63 Al 4.32003 10.165 10.2062
64 Ni 2.69272 8.79447 8.72251
65 Al 7.26072 1.42694 1.37335
66 Ni 5.79806 -0.0168826 -0.0579783
67 Al 7.20355 1.4158 4.26642
68 Ni 5.68365 -0.023693 2.89213
69 Al 7.15265 1.37139 7.3355
70 Ni 5.89535 -0.0946853 5.81612
71 Al 7.09416 1.56743 10.1103
72 Ni 5.7915 0.0570748 8.92209
73 Al 7.19851 4.51446 1.461
74 Ni 5.67933 2.97912 0.0638825
75 Al 7.28926 4.32571 4.28508
76 Ni 5.7756 2.84494 2.91882
77 Al 7.17115 4.46011 7.28449
78 Ni 5.85502 2.81463 5.68701
79 Al 7.25668 4.38172 10.205
80 Ni 5.68027 2.879 8.58573
81 Al 7.18399 7.09595 1.34606
82 Ni 5.82443 5.7096 -0.196941
83 Al 7.28106 7.2692 4.44854
84 Ni 5.75293 5.83292 2.9483
85 Al 7.17724 7.27077 7.28399
86 Ni 5.58411 5.87378 5.76829
87 Al 7.24402 7.26968 10.0628
88 Ni 5.65374 5.8963 8.69404
89 Al 7.16844 10.1073 1.3678
90 Ni 5.81385 8.53706 0.0718874
91 Al 7.17184 10.1943 4.24236
92 Ni 5.9186 8.62195 2.8943
93 Al 7.16743 10.3152 7.39238
94 Ni 5.84228 8.74919 5.82281
95 Al 7.17374 10.0758 10.2266
96 Ni 5.72534 8.81576 8.76377
97 Al 10.2074 1.37484 1.37436
98 Ni 8.651 -0.142197 -0.0849521
99 Al 10.1128 1.36727 4.34897
100 Ni 8.70166 -0.0983402 2.9069
101 Al 10.1608 1.42367 7.20471
102 Ni 8.57414 0.0443846 5.79681
103 Al 10.147 1.4196 10.2492
104 Ni 8.50516 -0.0699295 8.82666
105 Al 10.1574 4.36176 1.42143
106 Ni 8.69876 2.96954 0.00110398
107 Al 10.154 4.28272 4.3498
108 Ni 8.8297 2.81531 2.76567
109 Al 10.1786 4.27175 7.24833
110 Ni 8.68609 2.86938 5.88819
111 Al 10.2126 4.47416 10.1114
112 Ni 8.78009 2.962 8.79282
113 Al 10.1361 7.3775 1.41639
114 Ni 8.65686 5.88271 -0.00933817
115 Al 10.1631 7.2884 4.31758
116 Ni 8.8056 5.95884 2.88806
117 Al 10.193 7.20108 7.14965
118 Ni 8.66774 5.70751 5.76582
119 Al 10.1246 7.33605 10.2592
120 Ni 8.68372 5.82764 8.76129
121 Al 10.1015 10.1343 1.37521
122 Ni 8.73003 8.60994 -0.15477
123 Al 10.0478 10.0618 4.44146
124 Ni 8.6459 8.7313 2.85933
125 Al 10.0959 10.2149 7.31147
126 Ni 8.5547 8.72793 5.92481
127 Al 10.1171 10.1444 10.2221
128 Ni 8.74121 8.74448 8.74475
ITEM: TIMESTEP
6700
ITEM: NUMBER OF ATOMS
128
ITEM: BOX BOUNDS xy xz yz pp pp pp
9.5085387842264169e-03 1.1602724925632625e+01 2.9101202338487793e-02
-4.6791170430988654e-02 1.1604376927822237e+01 1.3479422545391616e-03
-1.6169533785141077e-02 1.1597953853609139e+01 -2.4198562432520696e-02
ITEM: ATOMS id element xu yu zu
1 Al 1.41403 1.3098 1.43237
2 Ni -0.151801 -0.0591836 -0.0469921
3 Al 1.46199 1.24571 4.3953
4 Ni -0.0117097 -0.0181574 2.80718
5 Al 1.41039 1.42208 7.30816
6 Ni -0.0309285 0.0291046 5.79757
7 Al 1.38987 1.46382 10.1855
8 Ni -0.0185962 -0.202199 8.62915
9 Al 1.553 4.40177 1.40858
10 Ni 0.0519478 2.90218 -0.0853152
11 Al 1.40888 4.25989 4.37729
12 Ni 0.121717 2.80967 2.95448
13 Al 1.47331 4.31364 7.17334
14 Ni 0.00106262 2.78392 5.81956
15 Al 1.37987 4.38517 10.2141
16 Ni -0.00336136 3.03533 8.75381
17 Al 1.49609 7.07005 1.56855
18 Ni 0.0320125 5.73661 -0.0213058
19 Al 1.45925 7.25678 4.36115
20 Ni 0.0679314 5.80474 2.90644
21 Al 1.40916 7.22399 7.22317
22 Ni 0.134779 5.75725 5.77614
23 Al 1.50973 7.23119 10.1585
24 Ni 0.0236429 5.74966 8.59737
25 Al 1.49757 10.1153 1.44965
26 Ni 0.00450348 8.60199 0.0375407
27 Al 1.50207 10.1499 4.35977
28 Ni 0.0834566 8.57738 2.86903
29 Al 1.57014 10.1945 7.32216
30 Ni 0.0472904 8.81613 5.75758
31 Al 1.49877 10.1803 10.2366
32 Ni 0.0825351 8.78406 8.68656
33 Al 4.31887 1.47622 1.46076
34 Ni 2.97534 -0.115482 0.00390125
35 Al 4.42584 1.42646 4.28197
36 Ni 2.89605 0.0834458 2.92574
37 Al 4.32808 1.53552 7.12751
38 Ni 2.89791 0.0771894 5.89387
39 Al 4.35147 1.39442 10.0551
40 Ni 2.81597 0.0232796 8.70634
41 Al 4.39652 4.2817 1.42846
42 Ni 2.85176 2.8044 -0.0778531
43 Al 4.30965 4.20385 4.39749
44 Ni 2.91017 2.87079 2.82055
45 Al 4.284 4.19298 7.26197
46 Ni 2.85326 2.77402 5.76934
47 Al 4.34265 4.36438 10.1866
48 Ni 2.75718 2.80586 8.75243
49 Al 4.43049 7.26855 1.60169
50 Ni 2.90441 5.75166 -0.0115704
51 Al 4.25648 7.27836 4.45586
52 Ni 3.01512 5.86883 2.97157
53 Al 4.35101 7.15362 7.22499
54 Ni 2.86392 5.82155 5.76687
55 Al 4.35569 7.26849 10.1409
56 Ni 2.80135 5.86264 8.7348
57 Al 4.34435 10.2012 1.41127
58 Ni 2.95303 8.69721 0.0432637
59 Al 4.3222 10.2312 4.27136
60 Ni 2.92864 8.67662 2.83744
61 Al 4.38053 10.1459 7.22936
62 Ni 2.92266 8.85858 5.78293
63 Al 4.37891 10.1754 10.0654
64 Ni 3.05868 8.64932 8.61618
65 Al 7.28267 1.5013 1.40693
66 Ni 5.77266 0.00982616 -0.03982
67 Al 7.2826 1.43614 4.33825
68 Ni 5.8052 0.00301747 2.81702
69 Al 7.25991 1.28262 7.27296
70 Ni 5.71697 0.12079 5.7122
71 Al 7.2337 1.37763 10.0595
72 Ni 5.7594 -0.0346804 8.62963
73 Al 7.1804 4.4922 1.41698
74 Ni 5.84353 2.81337 -0.0319529
75 Al 7.25029 4.25918 4.38083
76 Ni 5.78343 2.89456 2.82328
77 Al 7.26642 4.3315 7.17085
78 Ni 5.83497 2.81611 5.88014
79 Al 7.24828 4.31555 10.2658
80 Ni 5.88961 2.94135 8.69279
81 Al 7.25392 7.25696 1.39449
82 Ni 5.78438 5.74643 0.0565964
83 Al 7.12946 7.30907 4.33867
84 Ni 5.8194 5.7297 2.91856
85 Al 7.2611 7.20554 7.17563
86 Ni 5.90693 5.70729 5.84441
87 Al 7.32629 7.18118 10.1808
88 Ni 5.85401 5.64672 8.65492
89 Al 7.14689 10.2072 1.44814
90 Ni 5.84032 8.79109 -0.119498
91 Al 7.28446 10.1682 4.37169
92 Ni 5.69472 8.80225 2.87454
93 Al 7.20332 10.2302 7.26231
94 Ni 5.71438 8.7568 5.83026
95 Al 7.30159 10.1572 10.13
96 Ni 5.86181 8.56742 8.64585
97 Al 10.1099 1.42262 1.48677
98 Ni 8.77539 -0.0404849 0.039007
99 Al 10.207 1.39169 4.27136
100 Ni 8.67626 -0.0445954 2.84276
101 Al 10.1881 1.4593 7.23608
102 Ni 8.74277 -0.0503333 5.82188
103 Al 10.2169 1.37721 10.1717
104 Ni 8.8624 0.00924072 8.73791
105 Al 10.2552 4.2664 1.42484
106 Ni 8.85973 2.94483 -0.0433046
107 Al 10.167 4.34482 4.28136
108 Ni 8.62508 2.97592 2.82917
109 Al 10.147 4.27191 7.14316
110 Ni 8.80195 2.90082 5.73057
111 Al 10.0633 4.40109 10.0144
112 Ni 8.65931 2.89851 8.7037
113 Al 10.0893 7.23874 1.47273
114 Ni 8.69973 5.71364 -0.0547454
115 Al 10.1519 7.14596 4.29542
116 Ni 8.50166 5.62959 2.90213
117 Al 10.2286 7.23061 7.18839
118 Ni 8.76573 5.83763 5.89308
119 Al 10.1034 7.25413 10.1957
120 Ni 8.63768 5.67888 8.66467
121 Al 10.1314 10.0951 1.40545
122 Ni 8.61755 8.73026 0.110174
123 Al 10.1221 10.148 4.35411
124 Ni 8.66315 8.66378 2.94913
125 Al 10.1543 10.0617 7.25874
126 Ni 8.74959 8.63667 5.78498
127 Al 10.1034 9.962 10.1661
128 Ni 8.52482 8.64778 8.6988
ITEM: TIMESTEP
6800
ITEM: NUMBER OF ATOMS
128
ITEM: BOX BOUNDS xy xz yz pp pp pp
-5.9052273872687806e-02 1.1684131506763725e+01 -4.2648761620013360e-02
-1.0007236140379949e-01 1.1661986306352919e+01 8.5943674687228661e-02
-3.3085934514687665e-02 1.1614870254338690e+01 -1.9870374874661364e-02
ITEM: ATOMS id element xu yu zu
1 Al 1.42622 1.3403 1.50955
2 Ni 0.0537493 -0.148273 -0.0079124
3 Al 1.5565 1.30193 4.38437
4 Ni 0.0494658 -0.0287865 2.91118
5 Al 1.47802 1.33063 7.26737
6 Ni 0.0567435 -0.158739 5.83186
7 Al 1.42192 1.46888 10.2163
8 Ni 0.00108001 -0.0740388 8.69654
9 Al 1.51173 4.346 1.37833
10 Ni -0.145879 2.88282 -0.00297416
11 Al 1.39261 4.32655 4.41234
12 Ni -0.0862431 2.92168 2.80895
13 Al 1.46917 4.33665 7.31261
14 Ni -0.00243241 2.97187 5.78592
15 Al 1.33807 4.35035 10.2453
16 Ni -0.0669908 2.77265 8.6522
17 Al 1.36442 7.23994 1.45037
18 Ni -0.099125 5.85005 0.0352164
19 Al 1.547 7.17094 4.20807
20 Ni 0.0499438 5.67819 2.91933
21 Al 1.47263 7.05504 7.31605
22 Ni 0.00324574 5.81685 5.84995
23 Al 1.47817 7.16965 10.1897
24 Ni -0.00230543 5.80983 8.80077
25 Al 1.47504 10.2155 1.3875
26 Ni -0.134979 8.80687 -0.0799036
27 Al 1.43991 10.1358 4.36635
28 Ni -0.00394469 8.74812 2.87606
29 Al 1.55904 10.1275 7.33297
30 Ni 0.102894 8.55289 5.77413
31 Al 1.50411 10.208 10.1482
32 Ni 0.00107834 8.59091 8.69878
33 Al 4.32751 1.32037 1.45139
34 Ni 2.78424 -0.0371163 -0.120056
35 Al 4.38701 1.31278 4.42552
36 Ni 2.88879 -0.102033 2.81478
37 Al 4.31522 1.46608 7.18571
38 Ni 2.88143 -0.0423484 5.78601
39 Al 4.47571 1.31119 10.1587
40 Ni 2.91372 -0.128985 8.76431
41 Al 4.43172 4.24645 1.40764
42 Ni 2.80755 2.85352 -0.109478
43 Al 4.27161 4.22964 4.24
44 Ni 2.96394 2.79344 2.89073
45 Al 4.38712 4.27608 7.31004
46 Ni 2.9679 2.94057 5.87495
47 Al 4.41219 4.3653 10.2434
48 Ni 2.94716 2.89364 8.80787
49 Al 4.33506 7.43382 1.54151
50 Ni 2.86105 5.87434 -0.0574189
51 Al 4.23202 7.19447 4.28227
52 Ni 2.83278 5.59154 2.74773
53 Al 4.3494 7.28186 7.23926
54 Ni 3.00038 5.72582 5.82336
55 Al 4.34452 7.28272 10.1012
56 Ni 3.08023 5.67109 8.76619
57 Al 4.38557 10.219 1.49365
58 Ni 2.93483 8.7774 -0.115993
59 Al 4.4045 10.2273 4.3946
60 Ni 2.92484 8.9116 2.98012
61 Al 4.25397 10.1729 7.22967
62 Ni 2.9918 8.49697 5.80001
63 Al 4.42456 10.2628 10.1608
64 Ni 2.89905 8.66736 8.78244
65 Al 7.18259 1.36034 1.47971
66 Ni 5.86966 -0.174859 -0.0803412
67 Al 7.19472 1.38785 4.42407
68 Ni 5.80431 -0.0633476 2.95827
69 Al 7.28671 1.32532 7.21711
70 Ni 5.81499 -0.0665081 5.94489
71 Al 7.30842 1.36602 10.1289
72 Ni 5.94644 -0.0621369 8.6956
73 Al 7.16651 4.39292 1.46074
74 Ni 5.79347 2.8995 -0.110586
75 Al 7.26451 4.2957 4.23806
76 Ni 5.75609 2.77825 2.88184
77 Al 7.31865 4.34355 7.14604
78 Ni 5.6693 2.93283 5.79314
79 Al 7.32255 4.42445 10.1161
80 Ni 5.82895 2.75122 8.73494
81 Al 7.26823 7.24789 1.40725
82 Ni 5.73721 5.74579 -0.0488006
83 Al 7.17319 7.23121 4.27473
84 Ni 5.77161 5.77786 2.75177
85 Al 7.3 7.21922 7.21826
86 Ni 5.78536 5.79068 5.79676
87 Al 7.3316 7.29948 10.233
88 Ni 5.85908 5.86817 8.70582
89 Al 7.21242 10.1938 1.43044
90 Ni 5.73732 8.76967 -0.0113041
91 Al 7.30852 10.2284 4.37474
92 Ni 5.90067 8.75585 2.97739
93 Al 7.19924 10.112 7.22103
94 Ni 5.86052 8.65954 5.71129
95 Al 7.24785 10.0709 10.0358
96 Ni 5.73197 8.82266 8.67483
97 Al 10.0676 1.34911 1.4381
98 Ni 8.6826 -0.0224833 -0.0710025
99 Al 10.3586 1.46547 4.34258
100 Ni 8.71185 0.00780518 2.86992
101 Al 10.2445 1.33202 7.15582
102 Ni 8.75757 -0.143301 5.76519
103 Al 10.2425 1.34869 10.2229
104 Ni 8.55208 -0.154376 8.50962
105 Al 10.0391 4.32104 1.39652
106 Ni 8.59776 2.80084 -0.0263898
107 Al 10.1192 4.26758 4.32353
108 Ni 8.66263 2.70652 3.02745
109 Al 10.0861 4.36881 7.27035
110 Ni 8.68942 2.78798 5.75214
111 Al 10.1103 4.28934 10.1891
112 Ni 8.84335 2.75779 8.65286
113 Al 10.1854 7.42353 1.44521
114 Ni 8.62571 5.8309 0.0353587
115 Al 10.2546 7.26521 4.31892
116 Ni 8.81796 5.89281 2.95266
117 Al 10.1028 7.27231 7.14816
118 Ni 8.68091 5.76269 5.67594
119 Al 10.1636 7.22511 10.2454
120 Ni 8.76902 5.98864 8.69708
121 Al 10.0586 10.2437 1.29464
122 Ni 8.72624 8.61153 -0.159646
123 Al 10.1483 10.3377 4.30796
124 Ni 8.72224 8.65968 2.83133
125 Al 10.2695 10.0999 7.22505
126 Ni 8.70645 8.78387 5.64699
127 Al 10.1415 10.2364 10.1031
128 Ni 8.87316 8.75751 8.75012
ITEM: TIMESTEP
6900
ITEM: NUMBER OF ATOMS
128
ITEM: BOX BOUNDS xy xz yz pp pp pp
-3.5125187687224238e-02 1.1590269287581734e+01 -3.2724880178952323e-02
-4.4967639531155790e-02 1.1662720246251499e+01 6.0846602496502427e-03
1.5348872255577461e-02 1.1566435447568422e+01 3.5968286896556657e-02
ITEM: ATOMS id element xu yu zu
1 Al 1.44247 1.38973 1.5166
2 Ni -0.0200103 0.105621 -0.0162746
3 Al 1.42251 1.47887 4.27769
4 Ni 0.0222368 -0.0770636 2.99057
5 Al 1.46766 1.44207 7.14637
6 Ni 0.110248 0.0611167 5.76724
7 Al 1.53224 1.44285 10.1255
8 Ni 0.10604 0.0521092 8.58819
9 Al 1.48271 4.38707 1.48108
10 Ni -0.0323417 2.80368 -0.107927
11 Al 1.41327 4.47835 4.326
12 Ni -0.0545563 2.84427 2.92668
13 Al 1.41817 4.44734 7.22752
14 Ni -0.0151152 2.87435 5.81866
15 Al 1.51566 4.26131 10.1195
16 Ni 0.00176476 2.93847 8.72116
17 Al 1.28069 7.22646 1.45083
18 Ni 0.0738618 5.7232 -0.0738094
19 Al 1.44388 7.21428 4.24135
20 Ni -0.0601425 5.88022 2.76761
21 Al 1.3443 7.22388 7.21249
22 Ni -0.0708406 5.68454 5.69195
23 Al 1.38173 7.26988 10.0898
24 Ni 0.0496511 5.81119 8.64203
25 Al 1.39798 10.384 1.43303
26 Ni -0.000502958 8.73503 0.0645154
27 Al 1.47269 10.1998 4.27128
28 Ni 0.0120432 8.69657 2.95377
29 Al 1.46157 10.2287 7.21109
30 Ni -0.0872817 8.72125 5.8409
31 Al 1.48521 10.2557 10.1143
32 Ni -0.0218451 8.7572 8.65333
33 Al 4.31707 1.35409 1.52479
34 Ni 2.89269 -0.0763528 0.000706523
35 Al 4.24004 1.493 4.47918
36 Ni 2.87486 0.0228877 3.00217
37 Al 4.37558 1.43714 7.18666
38 Ni 2.96789 -0.1751 5.89132
39 Al 4.48307 1.46125 10.1177
40 Ni 2.88364 -0.0680933 8.56349
41 Al 4.41792 4.38626 1.49655
42 Ni 3.03473 2.89461 0.0563734
43 Al 4.30852 4.31106 4.32103
44 Ni 2.82711 2.88621 2.81953
45 Al 4.34846 4.36164 7.11523
46 Ni 2.84451 2.98644 5.78492
47 Al 4.37347 4.42326 10.1285
48 Ni 3.01559 2.91496 8.53222
49 Al 4.33013 7.26801 1.38044
50 Ni 2.80481 5.67267 0.00204663
51 Al 4.27651 7.32912 4.39088
52 Ni 2.92672 5.91705 2.96726
53 Al 4.25793 7.28816 7.15553
54 Ni 2.83229 5.84423 5.8336
55 Al 4.2109 7.22497 10.1054
56 Ni 2.75894 5.93127 8.75833
57 Al 4.26463 10.1004 1.49783
58 Ni 2.7604 8.75557 0.077683
59 Al 4.28321 10.1456 4.28312
60 Ni 2.83809 8.52389 2.79392
61 Al 4.28348 10.1206 7.24475
62 Ni 2.79435 8.75065 5.77781
63 Al 4.28654 10.1121 10.189
64 Ni 2.82894 8.75463 8.60833
65 Al 7.27679 1.24034 1.59425
66 Ni 5.75285 0.00815378 0.0248472
67 Al 7.17362 1.37474 4.26321
68 Ni 5.67831 -0.114413 2.80235
69 Al 7.22042 1.27882 7.2703
70 Ni 5.74356 -0.157736 5.63231
71 Al 7.17284 1.41497 10.1239
72 Ni 5.6846 -0.178843 8.73198
73 Al 7.1429 4.2631 1.52884
74 Ni 5.81235 2.86712 0.129609
75 Al 7.38243 4.32549 4.32827
76 Ni 5.79588 2.91515 2.90774
77 Al 7.20796 4.41919 7.11035
78 Ni 5.91476 2.7903 5.79071
79 Al 7.2352 4.43294 10.1628
80 Ni 5.75768 2.96851 8.5981
81 Al 7.31585 7.28279 1.46547
82 Ni 5.98363 5.83973 0.0520922
83 Al 7.18124 7.30645 4.28838
84 Ni 5.8182 5.80239 2.92587
85 Al 7.17609 7.2057 7.27161
86 Ni 5.85488 5.88352 5.76326
87 Al 7.34806 7.38683 10.2882
88 Ni 5.80377 5.80057 8.76022
89 Al 7.19062 10.206 1.56286
90 Ni 5.80631 8.71177 0.023387
91 Al 7.2574 10.0538 4.42545
92 Ni 5.59494 8.67175 2.72591
93 Al 7.16394 10.227 7.30373
94 Ni 5.72552 8.7041 5.81184
95 Al 7.14639 10.1524 10.0411
96 Ni 5.81052 8.63767 8.74474
97 Al 10.069 1.35201 1.47935
98 Ni 8.67637 -0.0900845 0.0246407
99 Al 10.1653 1.47415 4.37802
100 Ni 8.76953 -0.146514 3.0423
101 Al 10.1537 1.48876 7.21817
102 Ni 8.57384 -0.0649304 5.8632
103 Al 10.104 1.52902 10.1363
104 Ni 8.88 -0.076518 8.81121
105 Al 10.0978 4.33536 1.3942
106 Ni 8.7241 2.92043 -0.0293544
107 Al 10.0991 4.32588 4.31561
108 Ni 8.75495 2.8679 2.80244
109 Al 10.1134 4.37278 7.37089
110 Ni 8.67741 2.9939 5.88412
111 Al 10.2071 4.36149 10.185
112 Ni 8.52942 2.95416 8.69189
113 Al 10.0939 7.36852 1.39539
114 Ni 8.69799 5.84133 -0.0888534
115 Al 10.1163 7.2246 4.35944
116 Ni 8.60793 5.80464 2.72971
117 Al 10.0965 7.2229 7.29246
118 Ni 8.6626 5.81693 5.86329
119 Al 10.0349 7.3406 10.118
120 Ni 8.59055 5.74388 8.67448
121 Al 10.1854 10.2041 1.44677
122 Ni 8.72025 8.89704 0.154229
123 Al 10.1219 10.306 4.49795
124 Ni 8.66131 8.8241 2.94712
125 Al 10.1879 10.2157 7.32065
126 Ni 8.66242 8.63901 5.89238
127 Al 10.204 10.2235 10.1816
128 Ni 8.63999 8.68093 8.58875
ITEM: TIMESTEP
7000
ITEM: NUMBER OF ATOMS
128
ITEM: BOX BOUNDS xy xz yz pp pp pp
-1.1748269563115035e-01 1.1676972112245133e+01 4.3634622186034512e-02
-3.5517001533013293e-02 1.1629302732182452e+01 -6.5929525395877181e-02
-9.1184782096833672e-03 1.1590902798033666e+01 1.2001410825651721e-02
ITEM: ATOMS id element xu yu zu
1 Al 1.5085 1.38767 1.50986
2 Ni 0.0256593 -0.14559 -0.0196734
3 Al 1.3325 1.48991 4.26556
4 Ni -0.0367562 0.10756 2.92005
5 Al 1.35439 1.35016 7.1075
6 Ni -0.273318 -0.0341145 5.84476
7 Al 1.27147 1.35467 10.1468
8 Ni -0.16728 -0.0497414 8.72332
9 Al 1.47252 4.37868 1.41911
10 Ni 0.0738942 2.89396 -0.0327223
11 Al 1.35234 4.39485 4.38262
12 Ni 0.00564762 2.84813 2.87374
13 Al 1.37918 4.39333 7.1351
14 Ni -0.130981 2.81376 5.76846
15 Al 1.3977 4.34139 10.0934
16 Ni 0.051306 2.8667 8.60688
17 Al 1.27656 7.21643 1.49789
18 Ni -0.103673 5.74476 -0.0756296
19 Al 1.3804 7.28838 4.25302
20 Ni -0.114623 5.72543 3.07092
21 Al 1.43376 7.26156 7.32701
22 Ni -0.0867393 5.8792 5.90442
23 Al 1.37321 7.19212 10.102
24 Ni -0.0934131 5.68188 8.69422
25 Al 1.34866 10.2495 1.45082
26 Ni -0.0653294 8.72798 -0.0184974
27 Al 1.40109 10.2686 4.32953
28 Ni -0.132765 8.5661 2.81632
29 Al 1.49596 10.293 7.21442
30 Ni -0.111551 8.80495 5.86391
31 Al 1.50725 10.1973 10.1259
32 Ni -0.0519832 8.79965 8.69421
33 Al 4.38017 1.38303 1.44977
34 Ni 2.89349 0.0732482 0.0202328
35 Al 4.28215 1.47849 4.36165
36 Ni 2.82918 -0.0284083 2.84306
37 Al 4.25385 1.45154 7.22996
38 Ni 2.89369 0.0210135 5.60423
39 Al 4.34718 1.45531 10.1769
40 Ni 2.89704 0.0310132 8.7493
41 Al 4.32651 4.29153 1.49111
42 Ni 2.79255 2.90334 -0.0559664
43 Al 4.35583 4.39786 4.32716
44 Ni 2.92977 2.95694 3.04918
45 Al 4.30562 4.26389 7.13464
46 Ni 2.99353 2.82083 5.72238
47 Al 4.2462 4.35171 10.0585
48 Ni 2.83668 2.93196 8.67813
49 Al 4.33543 7.36152 1.52719
50 Ni 2.96459 5.83156 -0.0622441
51 Al 4.30756 7.27523 4.29127
52 Ni 2.74994 5.65083 2.90222
53 Al 4.32747 7.28886 7.14043
54 Ni 2.77694 5.77685 5.67683
55 Al 4.30137 7.19783 10.0916
56 Ni 2.88476 5.7045 8.55368
57 Al 4.35337 10.0926 1.52938
58 Ni 2.86878 8.67501 -0.0322351
59 Al 4.31885 10.1914 4.3734
60 Ni 2.81993 8.68523 2.95501
61 Al 4.27064 10.1957 7.23991
62 Ni 2.91803 8.70194 5.84669
63 Al 4.30656 10.1138 10.1537
64 Ni 2.85553 8.68168 8.72241
65 Al 7.24956 1.34838 1.48893
66 Ni 5.70643 -0.0605633 -0.00952468
67 Al 7.20217 1.46768 4.25582
68 Ni 5.88183 0.0133158 2.94108
69 Al 7.20181 1.51446 7.11443
70 Ni 5.80618 0.0293277 5.88507
71 Al 7.15885 1.3724 10.2221
72 Ni 5.78946 0.0996001 8.70517
73 Al 7.1221 4.33383 1.48184
74 Ni 5.71717 2.85674 -0.0800828
75 Al 7.35762 4.35261 4.42268
76 Ni 5.90803 2.89237 2.86908
77 Al 7.34483 4.3941 7.2403
78 Ni 5.7056 2.93027 5.77113
79 Al 7.20554 4.3772 10.1505
80 Ni 5.7059 2.82143 8.73269
81 Al 7.30537 7.1945 1.42248
82 Ni 5.58665 5.76895 -0.0378809
83 Al 7.31542 7.21136 4.33054
84 Ni 5.87428 5.85082 2.89153
85 Al 7.30709 7.30877 7.25613
86 Ni 5.82572 5.79039 5.81001
87 Al 7.21851 7.1872 10.2754
88 Ni 5.7348 5.79765 8.65326
89 Al 7.33621 10.1946 1.39669
90 Ni 5.84415 8.7075 -0.0635883
91 Al 7.28717 10.124 4.38345
92 Ni 5.85364 8.70072 2.97132
93 Al 7.2214 10.2443 7.24771
94 Ni 5.78284 8.67312 5.82358
95 Al 7.09339 10.1505 10.0836
96 Ni 5.73468 8.74467 8.70099
97 Al 10.2339 1.43189 1.42074
98 Ni 8.89645 0.0657239 0.0110873
99 Al 10.1147 1.36536 4.25133
100 Ni 8.61393 0.0671751 2.73348
101 Al 10.1262 1.49102 7.25628
102 Ni 8.71243 0.00636173 5.79733
103 Al 10.1057 1.45263 10.1968
104 Ni 8.47574 0.067732 8.61645
105 Al 10.118 4.25245 1.47363
106 Ni 8.74748 2.79462 -0.0241009
107 Al 10.1495 4.16068 4.40424
108 Ni 8.63845 2.92444 2.91886
109 Al 10.1482 4.31185 7.31454
110 Ni 8.66831 2.78486 5.73347
111 Al 10.2332 4.17145 10.2163
112 Ni 8.68886 2.80204 8.71029
113 Al 10.239 7.16074 1.37154
114 Ni 8.82379 5.66965 -0.0194444
115 Al 10.2284 7.20358 4.4053
116 Ni 8.78266 5.73837 2.98419
117 Al 10.1472 7.33176 7.38365
118 Ni 8.72452 5.77774 5.81209
119 Al 10.0572 7.24344 10.1629
120 Ni 8.75848 5.81563 8.7319
121 Al 10.1945 10.1292 1.38082
122 Ni 8.7624 8.60206 -0.0386593
123 Al 10.1439 10.2258 4.24491
124 Ni 8.74112 8.6836 2.82759
125 Al 10.1506 10.1735 7.33536
126 Ni 8.71505 8.80337 5.75433
127 Al 10.1092 10.2241 10.1364
128 Ni 8.71525 8.76922 8.80758
ITEM: TIMESTEP
7100
ITEM: NUMBER OF ATOMS
128
ITEM: BOX BOUNDS xy xz yz pp pp pp
-5.2788119241609976e-02 1.1711117226545777e+01 2.2748115035176233e-02
-2.4131173199871993e-02 1.1576132246727177e+01 5.3796672445176934e-02
-2.6386425484580478e-02 1.1608170745308566e+01 -2.9783246296478529e-02
ITEM: ATOMS id element xu yu zu
1 Al 1.43638 1.26175 1.50949
2 Ni -0.108547 0.0651611 0.0506448
3 Al 1.37794 1.37082 4.25976
4 Ni -0.0204227 -0.166494 2.7282
5 Al 1.35007 1.37331 7.20967
6 Ni 0.0934375 -0.0683682 5.76202
7 Al 1.35972 1.39801 10.2661
8 Ni 0.0966456 -0.0938629 8.7075
9 Al 1.50224 4.31931 1.49461
10 Ni -0.197734 2.98061 -0.0166327
11 Al 1.48254 4.36979 4.30058
12 Ni -0.0846067 3.00111 2.97961
13 Al 1.3853 4.3621 7.26713
14 Ni 0.00784276 2.80511 5.83775
15 Al 1.42527 4.33218 10.1231
16 Ni -0.162254 2.76506 8.6995
17 Al 1.45218 7.31 1.57449
18 Ni 0.047562 5.84145 0.018215
19 Al 1.38574 7.14723 4.36759
20 Ni 0.0872842 5.8789 2.77184
21 Al 1.57546 7.2478 7.30717
22 Ni -0.051893 5.75335 5.80761
23 Al 1.62097 7.2872 10.1351
24 Ni 0.00580008 5.89656 8.56349
25 Al 1.4053 10.1595 1.39226
26 Ni -0.00202415 8.55883 -0.00919538
27 Al 1.52751 10.1465 4.32584
28 Ni 0.039084 8.76753 2.8722
29 Al 1.42392 10.0894 7.22661
30 Ni -0.0206163 8.648 5.77336
31 Al 1.45096 10.1061 10.2325
32 Ni 0.0127351 8.60166 8.7339
33 Al 4.36152 1.38795 1.23474
34 Ni 2.80046 -0.151238 -0.0134341
35 Al 4.22633 1.4649 4.34446
36 Ni 2.91718 -0.0541077 2.94456
37 Al 4.36269 1.47679 7.2276
38 Ni 2.92592 -0.0496799 5.93754
39 Al 4.49504 1.43346 10.129
40 Ni 2.78394 -0.0962005 8.6641
41 Al 4.26536 4.38156 1.48775
42 Ni 2.89649 2.93477 0.00525162
43 Al 4.22292 4.30196 4.40451
44 Ni 2.78658 2.76718 2.77507
45 Al 4.33973 4.20375 7.28276
46 Ni 2.83715 2.91567 5.88029
47 Al 4.29396 4.3946 10.1282
48 Ni 2.83844 2.77805 8.74447
49 Al 4.3553 7.33721 1.48878
50 Ni 2.79207 5.76902 -0.0064195
51 Al 4.45309 7.27576 4.38616
52 Ni 2.94553 5.97398 2.99852
53 Al 4.41179 7.3491 7.19244
54 Ni 3.00581 5.74852 5.97127
55 Al 4.49607 7.14029 10.2284
56 Ni 2.85577 5.8041 8.74155
57 Al 4.32725 10.0586 1.34106
58 Ni 3.00701 8.67179 -0.0377421
59 Al 4.36314 10.1218 4.37378
60 Ni 3.00759 8.66471 2.97547
61 Al 4.33545 10.0997 7.14831
62 Ni 2.90364 8.72537 5.72602
63 Al 4.45453 10.1341 10.0737
64 Ni 2.93838 8.77087 8.62445
65 Al 7.23753 1.46804 1.57372
66 Ni 5.86995 0.00356647 -0.00182004
67 Al 7.24869 1.53075 4.26754
68 Ni 5.7909 -0.0259325 2.67027
69 Al 7.36004 1.38968 7.18036
70 Ni 5.81361 -0.0319209 5.77126
71 Al 7.25321 1.42289 10.1526
72 Ni 5.82035 -0.11165 8.72509
73 Al 7.28616 4.35706 1.56788
74 Ni 5.75311 3.06186 -0.0274148
75 Al 7.30278 4.39543 4.29977
76 Ni 5.64736 2.95206 2.81671
77 Al 7.38782 4.35155 7.15902
78 Ni 5.8678 2.87387 5.77732
79 Al 7.32429 4.39219 10.1354
80 Ni 5.84693 2.94773 8.74655
81 Al 7.26993 7.22066 1.45688
82 Ni 5.95776 5.81771 -0.0206063
83 Al 7.33961 7.22577 4.33308
84 Ni 5.71283 5.6872 2.85056
85 Al 7.30573 7.22205 7.1345
86 Ni 5.78167 5.75821 5.85106
87 Al 7.32771 7.25176 10.1348
88 Ni 5.83085 5.72334 8.67976
89 Al 7.3611 10.1527 1.44239
90 Ni 5.80078 8.57025 0.0347201
91 Al 7.2922 10.1392 4.31803
92 Ni 5.9113 8.61722 2.84364
93 Al 7.33287 10.181 7.25717
94 Ni 5.95566 8.73032 5.76639
95 Al 7.24629 10.0228 10.1462
96 Ni 5.84452 8.70936 8.62932
97 Al 10.1132 1.48684 1.42118
98 Ni 8.51914 0.0755082 0.0241647
99 Al 10.2753 1.34468 4.27057
100 Ni 8.76202 0.0379627 2.9024
101 Al 10.2057 1.40135 7.22302
102 Ni 8.69161 -0.0509601 5.72126
103 Al 10.1286 1.40767 10.2955
104 Ni 8.89256 -0.110881 8.85326
105 Al 10.1793 4.43519 1.36789
106 Ni 8.77793 3.05503 -0.0903485
107 Al 10.1885 4.32859 4.26697
108 Ni 8.72029 2.85237 2.85923
109 Al 10.2398 4.33381 7.2396
110 Ni 8.77429 2.95158 5.81801
111 Al 10.3022 4.33975 10.07
112 Ni 8.79703 2.87646 8.6685
113 Al 10.2559 7.25009 1.31895
114 Ni 8.67213 5.88777 -0.109018
115 Al 10.2759 7.20733 4.29893
116 Ni 8.74955 5.86552 2.89655
117 Al 10.2344 7.26977 7.32579
118 Ni 8.7407 5.80566 5.81313
119 Al 10.1401 7.16173 10.1505
120 Ni 8.68681 5.80589 8.57049
121 Al 10.1442 10.0683 1.34922
122 Ni 8.66669 8.55182 -0.0505798
123 Al 10.1921 10.0954 4.35967
124 Ni 8.70368 8.64643 2.88178
125 Al 10.2617 10.0433 7.22996
126 Ni 8.75767 8.68535 5.80041
127 Al 10.2443 10.0356 10.1883
128 Ni 8.73186 8.59419 8.69028
ITEM: TIMESTEP
7200
ITEM: NUMBER OF ATOMS
128
ITEM: BOX BOUNDS xy xz yz pp pp pp
-6.3246020258695718e-02 1.1693619234401730e+01 -4.3826936007501170e-02
-9.0192087937600350e-04 1.1579371283500208e+01 9.2415830326726761e-02
-3.2565211738477373e-02 1.1614349531562471e+01 -3.3149572029519269e-03
ITEM: ATOMS id element xu yu zu
1 Al 1.44257 1.31059 1.42332
2 Ni -0.03681 -0.0698228 -0.113133
3 Al 1.4971 1.44873 4.27495
4 Ni -0.029926 0.1463 3.07041
5 Al 1.40647 1.39727 7.25528
6 Ni -0.0481503 0.116034 5.8037
7 Al 1.47231 1.40881 10.1248
8 Ni -0.11527 0.0362478 8.74977
9 Al 1.48656 4.29282 1.38786
10 Ni -0.0750915 2.83835 -0.114689
11 Al 1.50924 4.24197 4.21644
12 Ni 0.084602 2.79785 2.74768
13 Al 1.42143 4.33682 7.24641
14 Ni 0.00208739 3.01926 5.73485
15 Al 1.46349 4.35826 10.167
16 Ni 0.0377891 3.07619 8.82711
17 Al 1.41657 7.1653 1.46259
18 Ni -0.0997848 5.87324 -0.0038794
19 Al 1.41659 7.15687 4.2254
20 Ni -0.00156968 5.82564 2.94911
21 Al 1.49429 7.20784 7.29839
22 Ni 0.157738 5.80587 5.76293
23 Al 1.54996 7.34242 10.1004
24 Ni 0.0466868 5.71638 8.8118
25 Al 1.35417 10.2152 1.56037
26 Ni -0.0317711 8.81402 0.0513415
27 Al 1.4332 10.1004 4.36443
28 Ni -0.0243651 8.5445 2.89947
29 Al 1.42729 10.2215 7.27169
30 Ni 0.0193859 8.69535 5.71147
31 Al 1.44517 10.1933 10.188
32 Ni -0.00691104 8.71861 8.59554
33 Al 4.36002 1.48399 1.33082
34 Ni 2.91103 0.119223 -0.0439743
35 Al 4.30871 1.42117 4.38323
36 Ni 2.83605 0.134215 2.78481
37 Al 4.34181 1.43495 7.23483
38 Ni 2.8205 0.00729447 5.71972
39 Al 4.58806 1.53419 10.1413
40 Ni 3.0713 0.0146731 8.78081
41 Al 4.38101 4.2393 1.42069
42 Ni 2.86515 2.87958 -0.145811
43 Al 4.30662 4.24778 4.42054
44 Ni 2.93839 3.01574 2.91127
45 Al 4.29543 4.27337 7.21249
46 Ni 2.8723 2.83852 5.78287
47 Al 4.46195 4.31911 10.1167
48 Ni 3.06689 2.94514 8.73483
49 Al 4.29848 7.28645 1.4031
50 Ni 2.88121 5.71718 -0.229892
51 Al 4.31072 7.21375 4.32722
52 Ni 2.97423 5.64322 2.82701
53 Al 4.3551 7.2278 7.17828
54 Ni 2.81635 5.74429 5.64147
55 Al 4.46221 7.24197 10.2962
56 Ni 2.91506 5.74739 8.69311
57 Al 4.2134 10.2041 1.2762
58 Ni 2.72376 8.7822 -0.0401514
59 Al 4.16407 10.0654 4.42363
60 Ni 2.97406 8.64998 2.68988
61 Al 4.31759 10.1077 7.28012
62 Ni 3.00397 8.70484 5.94689
63 Al 4.42569 10.1475 10.105
64 Ni 2.91822 8.58876 8.70643
65 Al 7.28632 1.3505 1.54084
66 Ni 5.78849 0.0580043 -0.0948822
67 Al 7.44441 1.51121 4.27774
68 Ni 5.79356 0.134811 3.04037
69 Al 7.3347 1.34085 7.2629
70 Ni 5.86837 0.0244137 5.86554
71 Al 7.42176 1.41461 10.1916
72 Ni 5.89412 0.037735 8.82376
73 Al 7.24281 4.37181 1.51472
74 Ni 5.87533 2.75432 -0.0322223
75 Al 7.19659 4.18086 4.27901
76 Ni 5.83172 2.78599 2.9298
77 Al 7.33576 4.33511 7.14643
78 Ni 5.77078 2.77992 5.88814
79 Al 7.23796 4.33428 10.1624
80 Ni 5.82563 2.79428 8.64911
81 Al 7.12214 7.28312 1.496
82 Ni 5.72877 5.74789 -0.0915334
83 Al 7.22476 7.27346 4.38226
84 Ni 5.81586 5.7739 3.02862
85 Al 7.26302 7.15221 7.14898
86 Ni 5.79806 5.66798 5.71807
87 Al 7.42394 7.28276 10.2119
88 Ni 5.83055 5.79048 8.7135
89 Al 7.16752 10.2744 1.45054
90 Ni 5.83225 8.6918 -0.0998545
91 Al 7.10065 10.1462 4.33269
92 Ni 5.5824 8.69515 2.85445
93 Al 7.2035 10.0617 7.20126
94 Ni 5.69897 8.71624 5.89223
95 Al 7.3289 10.139 10.1883
96 Ni 5.83032 8.60975 8.76421
97 Al 10.0647 1.44802 1.41828
98 Ni 8.91795 -0.0836132 -0.0105481
99 Al 10.2103 1.53864 4.2619
100 Ni 8.65998 -0.0871369 2.88132
101 Al 10.1851 1.52021 7.28835
102 Ni 8.77019 0.0476557 5.77628
103 Al 10.1308 1.52518 10.1728
104 Ni 8.74496 -0.0124056 8.59927
105 Al 10.2491 4.33386 1.36862
106 Ni 8.7096 2.90089 0.0598324
107 Al 10.1828 4.40371 4.23837
108 Ni 8.85397 3.02933 2.89797
109 Al 10.1716 4.30277 7.15858
110 Ni 8.66846 2.82686 5.79317
111 Al 10.1132 4.30067 10.1196
112 Ni 8.72385 2.99571 8.63708
113 Al 10.1476 7.25976 1.35482
114 Ni 8.72908 5.80877 0.0893699
115 Al 10.048 7.244 4.24805
116 Ni 8.60112 5.67902 2.93102
117 Al 10.2009 7.20977 7.30488
118 Ni 8.6706 5.73143 5.73859
119 Al 10.1154 7.28313 10.2312
120 Ni 8.79754 5.79988 8.7358
121 Al 10.2627 10.1405 1.57597
122 Ni 8.7007 8.78177 0.121736
123 Al 10.1442 10.1202 4.38419
124 Ni 8.66765 8.72437 2.9369
125 Al 10.1395 10.0848 7.07901
126 Ni 8.66995 8.65603 5.72273
127 Al 10.1811 10.0704 10.0769
128 Ni 8.84551 8.70352 8.56958
ITEM: TIMESTEP
7300
ITEM: NUMBER OF ATOMS
128
ITEM: BOX BOUNDS xy xz yz pp pp pp
-6.8605666237234783e-02 1.1602602307235868e+01 1.1033529035830310e-03
-6.7058083252016232e-02 1.1686491521162836e+01 -4.8891031728771669e-02
-5.3398128165088821e-02 1.1635182447989081e+01 3.7649118087031509e-02
ITEM: ATOMS id element xu yu zu
1 Al 1.48508 1.33742 1.45178
2 Ni 0.0119079 0.00872344 -0.0999417
3 Al 1.44758 1.39564 4.33031
4 Ni 0.0995214 -0.0841829 2.80484
5 Al 1.49218 1.35477 7.14683
6 Ni 0.00743835 -0.0709812 5.7872
7 Al 1.38449 1.42634 10.1804
8 Ni 0.0599521 -0.0305085 8.55612
9 Al 1.42338 4.37613 1.43991
10 Ni 0.00183281 2.90453 -0.0194172
11 Al 1.5762 4.27728 4.29857
12 Ni -0.109578 3.05561 2.9254
13 Al 1.32642 4.39451 7.22231
14 Ni -0.0628634 2.87483 5.88328
15 Al 1.35179 4.31158 10.1267
16 Ni -0.0797687 2.76827 8.55052
17 Al 1.40771 7.30049 1.43522
18 Ni -0.10979 5.6988 -0.0251885
19 Al 1.30763 7.17805 4.23312
20 Ni -0.0576119 5.69444 2.75372
21 Al 1.35575 7.24286 7.30665
22 Ni -0.0815772 5.81194 5.80606
23 Al 1.4623 7.27861 10.0591
24 Ni -0.141595 5.86089 8.73139
25 Al 1.36964 10.2411 1.31166
26 Ni -0.1027 8.59875 -0.0829722
27 Al 1.38648 10.2741 4.46762
28 Ni 0.0425194 8.8383 2.89523
29 Al 1.42379 10.2132 7.18443
30 Ni -0.0117964 8.66634 5.87244
31 Al 1.23759 10.2255 10.198
32 Ni -0.0597399 8.72086 8.72823
33 Al 4.36096 1.30994 1.34962
34 Ni 2.83206 -0.113426 -0.132514
35 Al 4.34932 1.40764 4.3654
36 Ni 2.86461 -0.101684 2.98338
37 Al 4.39958 1.55957 7.28757
38 Ni 2.91316 0.00139485 5.83197
39 Al 4.40481 1.37061 10.2364
40 Ni 2.77778 -0.00289822 8.6696
41 Al 4.31342 4.19114 1.39202
42 Ni 2.91923 2.88829 -0.0516326
43 Al 4.29349 4.41648 4.22622
44 Ni 2.92701 2.71925 2.80811
45 Al 4.31615 4.31707 7.31153
46 Ni 2.97871 3.0176 5.7836
47 Al 4.38401 4.28006 10.2103
48 Ni 2.76598 2.9141 8.65206
49 Al 4.3534 7.47589 1.45725
50 Ni 2.95916 5.78934 0.0629758
51 Al 4.32456 7.29384 4.21043
52 Ni 2.85356 5.82483 2.85939
53 Al 4.22744 7.4211 7.22592
54 Ni 3.01992 5.78152 5.84312
55 Al 4.26524 7.26504 10.2547
56 Ni 2.91289 5.7676 8.71006
57 Al 4.20301 10.1937 1.42634
58 Ni 2.9218 8.63305 -0.0704231
59 Al 4.22877 10.0754 4.46837
60 Ni 2.7016 8.87562 2.93155
61 Al 4.30051 10.1136 7.25672
62 Ni 2.80235 8.75499 5.80662
63 Al 4.33382 10.2445 10.1558
64 Ni 2.78667 8.82903 8.70001
65 Al 7.14032 1.25741 1.42241
66 Ni 5.81568 -0.163168 -0.0794244
67 Al 7.25435 1.3821 4.34052
68 Ni 5.87367 -0.224098 2.82393
69 Al 7.25877 1.48927 7.18188
70 Ni 5.64626 -0.120822 5.79283
71 Al 7.1658 1.37658 10.1224
72 Ni 5.74743 -0.0316239 8.58942
73 Al 7.29163 4.31044 1.49259
74 Ni 5.81354 2.83232 -0.0865335
75 Al 7.25115 4.34582 4.18657
76 Ni 5.81184 2.86092 2.81739
77 Al 7.303 4.4314 7.15488
78 Ni 5.77779 3.04367 5.68324
79 Al 7.2321 4.28244 10.2164
80 Ni 5.86264 2.98267 8.7866
81 Al 7.19247 7.31851 1.37452
82 Ni 5.88268 5.82469 -0.0622191
83 Al 7.2623 7.25786 4.38986
84 Ni 5.73989 5.84363 2.65126
85 Al 7.16513 7.30278 7.20012
86 Ni 5.7612 5.98706 5.85222
87 Al 7.1369 7.35284 10.1938
88 Ni 5.79857 5.85501 8.82058
89 Al 7.32186 10.2064 1.40779
90 Ni 5.74174 8.74661 -0.0232558
91 Al 7.27918 10.2281 4.32912
92 Ni 5.91088 8.73155 2.90081
93 Al 7.18081 10.1708 7.17414
94 Ni 5.69393 8.67577 5.72944
95 Al 7.26913 10.263 10.2318
96 Ni 5.70932 8.74096 8.67886
97 Al 10.0943 1.42708 1.40414
98 Ni 8.60781 -0.0749663 0.00622246
99 Al 10.1585 1.44098 4.27326
100 Ni 8.71064 0.0110174 2.95882
101 Al 10.0448 1.37844 7.18199
102 Ni 8.63152 -0.0938557 5.81743
103 Al 10.1536 1.47995 10.1584
104 Ni 8.64002 0.0136677 8.66952
105 Al 9.99237 4.25125 1.46284
106 Ni 8.73405 2.70518 -0.077122
107 Al 10.1196 4.43007 4.32207
108 Ni 8.46309 2.61783 2.84427
109 Al 10.0941 4.26979 7.32347
110 Ni 8.73467 3.06573 5.83053
111 Al 10.0767 4.29248 10.125
112 Ni 8.70498 2.81889 8.79983
113 Al 10.1809 7.30308 1.34704
114 Ni 8.67662 5.78423 -0.056077
115 Al 10.0787 7.38783 4.25349
116 Ni 8.7224 5.93837 2.91124
117 Al 9.98857 7.36271 7.35267
118 Ni 8.67298 5.89512 5.80761
119 Al 10.0136 7.27506 10.2193
120 Ni 8.63864 5.85207 8.78572
121 Al 10.2369 10.1699 1.46893
122 Ni 8.71848 8.68105 -0.127599
123 Al 10.2133 10.119 4.40595
124 Ni 8.66409 8.71385 2.91816
125 Al 10.0921 10.1492 7.27495
126 Ni 8.68583 8.71755 5.87748
127 Al 10.125 10.2305 10.2235
128 Ni 8.60051 8.65243 8.8247
ITEM: TIMESTEP
7400
ITEM: NUMBER OF ATOMS
128
ITEM: BOX BOUNDS xy xz yz pp pp pp
-5.5782906256645490e-02 1.1613801001631398e+01 5.3182733896107254e-02
-8.0201699006502092e-02 1.1636915159749726e+01 -7.6948958345180771e-02
1.9960205346822413e-02 1.1561824114477172e+01 -2.5070859080566943e-02
ITEM: ATOMS id element xu yu zu
1 Al 1.50404 1.42242 1.52424
2 Ni 0.0318524 -0.103443 0.124884
3 Al 1.45134 1.34852 4.3492
4 Ni -0.141247 -0.165914 2.93455
5 Al 1.45106 1.34782 7.24961
6 Ni 0.0200527 -0.0582194 5.84591
7 Al 1.39643 1.30459 10.1398
8 Ni -0.0519169 -0.0592032 8.78158
9 Al 1.36882 4.38859 1.59258
10 Ni -0.000455974 2.79333 0.0444156
11 Al 1.48195 4.42311 4.39017
12 Ni 0.0981355 2.70761 2.90069
13 Al 1.43795 4.2524 7.20507
14 Ni -0.0258255 2.91715 5.68297
15 Al 1.39754 4.203 10.148
16 Ni -0.0342363 2.90719 8.75709
17 Al 1.50641 7.33666 1.49823
18 Ni 0.124769 5.71294 0.0890543
19 Al 1.32794 7.29511 4.3962
20 Ni 0.0168428 5.82754 2.94976
21 Al 1.39912 7.30721 7.29757
22 Ni -0.0400501 5.74349 5.85664
23 Al 1.37288 7.2468 10.0698
24 Ni 0.1897 5.69135 8.60696
25 Al 1.52112 10.2396 1.50551
26 Ni 0.159889 8.79332 0.0323622
27 Al 1.53559 10.1913 4.32628
28 Ni -0.0922602 8.67544 2.83487
29 Al 1.47612 10.1682 7.14271
30 Ni -0.0382074 8.7398 5.82043
31 Al 1.44712 10.1849 10.0656
32 Ni 0.0837993 8.66145 8.7336
33 Al 4.35634 1.45516 1.49201
34 Ni 2.96414 -0.048123 0.0136388
35 Al 4.33825 1.43766 4.38604
36 Ni 2.91133 -0.076947 2.86839
37 Al 4.33751 1.4026 7.20606
38 Ni 2.88144 -0.0418919 5.70366
39 Al 4.32057 1.31754 10.2221
40 Ni 2.86037 -0.083478 8.57723
41 Al 4.23532 4.33471 1.45741
42 Ni 2.91104 2.81402 0.0273885
43 Al 4.24618 4.42214 4.25498
44 Ni 2.88637 2.90962 2.96832
45 Al 4.23718 4.24907 7.2157
46 Ni 2.91054 2.88597 5.71809
47 Al 4.34457 4.29291 10.1512
48 Ni 2.8876 2.94406 8.71984
49 Al 4.43737 7.28314 1.34482
50 Ni 2.76915 5.81297 0.045954
51 Al 4.53223 7.26475 4.39589
52 Ni 2.85876 5.88153 2.98896
53 Al 4.42638 7.19367 7.17772
54 Ni 2.86715 5.75821 5.76768
55 Al 4.19328 7.19885 10.1464
56 Ni 2.81353 5.79895 8.73964
57 Al 4.31081 10.0626 1.50746
58 Ni 2.92327 8.75578 -0.0180432
59 Al 4.35872 10.0528 4.45429
60 Ni 2.95379 8.53302 2.96624
61 Al 4.37255 10.0094 7.14741
62 Ni 2.94383 8.61945 5.8633
63 Al 4.37769 10.1635 10.1458
64 Ni 2.95585 8.54881 8.64212
65 Al 7.32454 1.39445 1.40877
66 Ni 5.71586 -0.0335787 0.0731536
67 Al 7.20836 1.39416 4.13055
68 Ni 5.73022 0.0202506 2.84903
69 Al 7.15368 1.35228 7.29203
70 Ni 5.8684 -0.0830773 5.78317
71 Al 7.04423 1.39975 10.0904
72 Ni 5.57643 -0.0973702 8.61349
73 Al 7.24797 4.27352 1.54515
74 Ni 5.65684 2.87475 0.0539858
75 Al 7.21608 4.31126 4.31407
76 Ni 5.7035 2.99139 2.86348
77 Al 7.22488 4.32038 7.2179
78 Ni 5.83693 2.89486 5.797
79 Al 7.11606 4.20147 10.1366
80 Ni 5.63078 2.8213 8.69307
81 Al 7.24504 7.3245 1.41085
82 Ni 5.77104 5.83322 0.0931545
83 Al 7.3633 7.27289 4.38144
84 Ni 5.90812 5.88478 2.98439
85 Al 7.26084 7.27188 7.18127
86 Ni 5.86052 5.6842 5.79802
87 Al 7.13761 7.28176 10.0893
88 Ni 5.73559 5.69879 8.73477
89 Al 7.25369 10.2388 1.43695
90 Ni 5.80822 8.73348 0.0215858
91 Al 7.37981 10.1541 4.25683
92 Ni 5.80806 8.68057 2.8224
93 Al 7.21683 10.1888 7.24092
94 Ni 5.94051 8.7194 5.87192
95 Al 7.23407 10.2513 10.1733
96 Ni 5.74538 8.74167 8.693
97 Al 10.1 1.45313 1.51953
98 Ni 8.69822 -0.0209602 -0.10084
99 Al 9.93757 1.25339 4.36943
100 Ni 8.5793 -0.13897 2.81178
101 Al 10.031 1.42682 7.24572
102 Ni 8.60439 -0.100028 5.83046
103 Al 10.0393 1.49014 10.11
104 Ni 8.66598 -0.08991 8.67301
105 Al 10.183 4.32338 1.51416
106 Ni 8.66802 2.91241 -0.0314414
107 Al 10.1272 4.35113 4.38561
108 Ni 8.83169 3.01383 2.93123
109 Al 10.0437 4.18736 7.2587
110 Ni 8.51745 2.74956 5.65096
111 Al 10.0206 4.29561 10.1356
112 Ni 8.58908 2.81021 8.59743
113 Al 10.2427 7.26923 1.34842
114 Ni 8.757 5.78882 -0.0234775
115 Al 10.0769 7.21939 4.3031
116 Ni 8.67132 5.71299 2.75181
117 Al 10.0958 7.32444 7.33496
118 Ni 8.66369 5.81429 5.85422
119 Al 9.9903 7.22558 10.1083
120 Ni 8.59456 5.73515 8.67972
121 Al 10.1894 10.1446 1.45569
122 Ni 8.74578 8.78255 -0.0998335
123 Al 10.2102 10.0251 4.40321
124 Ni 8.79946 8.76007 2.85135
125 Al 10.1299 10.2197 7.21502
126 Ni 8.74512 8.71709 5.78195
127 Al 10.1941 10.1409 10.1507
128 Ni 8.6919 8.81897 8.65269
ITEM: TIMESTEP
7500
ITEM: NUMBER OF ATOMS
128
ITEM: BOX BOUNDS xy xz yz pp pp pp
-7.3458803066612552e-02 1.1748509329889190e+01 -1.5293916690046970e-02
-1.4838219483914061e-01 1.1669788301730595e+01 1.0856012368879135e-01
-6.5650686389693291e-03 1.1588349388462971e+01 -6.0378212932332684e-02
ITEM: ATOMS id element xu yu zu
1 Al 1.43531 1.44692 1.446
2 Ni -0.0197951 -0.0872739 -0.177827
3 Al 1.44107 1.35387 4.33848
4 Ni 0.0301068 -0.032091 2.8942
5 Al 1.50182 1.21691 7.22254
6 Ni -0.0664714 -0.138299 5.69372
7 Al 1.52053 1.33211 10.1227
8 Ni 0.0533033 -0.109775 8.60849
9 Al 1.3105 4.40373 1.41114
10 Ni 0.0279709 2.84034 -0.0638321
11 Al 1.37721 4.33792 4.32919
12 Ni -0.151199 2.94494 2.73453
13 Al 1.46258 4.32919 7.26347
14 Ni 0.0195059 2.7068 5.87524
15 Al 1.50318 4.33359 10.0356
16 Ni 0.0922974 2.716 8.6619
17 Al 1.43578 7.21624 1.45455
18 Ni -0.101721 5.94916 -0.116713
19 Al 1.50995 7.31923 4.30266
20 Ni -0.113786 5.82153 2.85993
21 Al 1.43969 7.26632 7.34376
22 Ni 0.0173717 5.78367 5.70731
23 Al 1.56248 7.26039 10.046
24 Ni -0.154049 5.70787 8.74502
25 Al 1.38439 10.1798 1.46259
26 Ni -0.110346 8.7332 -0.00173158
27 Al 1.35961 10.2474 4.40584
28 Ni -0.00224482 8.69021 3.01675
29 Al 1.42959 10.243 7.13691
30 Ni -0.020838 8.68366 5.76773
31 Al 1.40492 10.1277 10.1397
32 Ni -0.0638518 8.79353 8.54905
33 Al 4.32785 1.44095 1.40791
34 Ni 2.82571 -0.120778 0.123119
35 Al 4.28917 1.3857 4.24741
36 Ni 2.86793 -0.216803 3.00189
37 Al 4.38361 1.2362 7.21829
38 Ni 2.80573 -0.204259 5.77852
39 Al 4.46276 1.34162 10.2543
40 Ni 2.9866 -0.0705692 8.80136
41 Al 4.4015 4.21224 1.48159
42 Ni 2.81804 2.89054 0.0572813
43 Al 4.30152 4.2907 4.31416
44 Ni 2.89409 2.87619 2.91254
45 Al 4.39806 4.22098 7.17993
46 Ni 2.79845 2.74932 5.77925
47 Al 4.473 4.1673 10.0921
48 Ni 2.93115 2.73929 8.6081
49 Al 4.40585 7.25642 1.4319
50 Ni 2.99 5.76723 -0.0289658
51 Al 4.43482 7.25138 4.3797
52 Ni 2.81627 5.60152 2.90584
53 Al 4.4511 7.33454 7.25172
54 Ni 2.84573 5.65871 5.73683
55 Al 4.31395 7.26786 10.1137
56 Ni 3.04221 5.73249 8.57608
57 Al 4.44263 10.1859 1.40771
58 Ni 2.91797 8.7112 0.0896686
59 Al 4.39616 10.194 4.33409
60 Ni 3.00274 8.89207 2.86231
61 Al 4.4326 10.143 7.19605
62 Ni 2.97372 8.7773 5.82529
63 Al 4.44036 10.2124 10.2156
64 Ni 2.90687 8.77359 8.68294
65 Al 7.3465 1.35508 1.49427
66 Ni 5.80126 0.0929502 -0.0440666
67 Al 7.34476 1.37636 4.35264
68 Ni 5.92948 -0.0645377 2.91938
69 Al 7.29455 1.36404 7.26368
70 Ni 5.79952 -0.0732648 5.74243
71 Al 7.35569 1.42623 10.2368
72 Ni 5.97923 -0.0293562 8.8725
73 Al 7.38885 4.24062 1.59285
74 Ni 5.85872 2.90839 -0.0212703
75 Al 7.26877 4.20632 4.43388
76 Ni 5.87597 2.76439 2.97763
77 Al 7.31492 4.28216 7.26015
78 Ni 5.70502 2.63615 5.75758
79 Al 7.31313 4.19744 10.1225
80 Ni 5.83574 2.77458 8.60932
81 Al 7.13665 7.14979 1.42376
82 Ni 5.73178 5.72235 -0.15824
83 Al 7.23795 7.24994 4.39459
84 Ni 5.80312 5.64977 2.92989
85 Al 7.41182 7.23246 7.18478
86 Ni 5.90923 5.84744 5.80422
87 Al 7.46586 7.14321 10.1391
88 Ni 5.8851 5.78049 8.60899
89 Al 7.26164 10.2709 1.44454
90 Ni 5.80218 8.59486 -0.0734787
91 Al 7.3311 10.1883 4.30674
92 Ni 5.79497 8.61662 2.90334
93 Al 7.21954 10.2283 7.24473
94 Ni 5.72316 8.69892 5.79364
95 Al 7.32233 10.1884 10.2211
96 Ni 5.87782 8.6472 8.66706
97 Al 10.2569 1.35212 1.40236
98 Ni 8.63323 -0.127172 0.0605797
99 Al 10.1292 1.3446 4.35417
100 Ni 8.7312 -0.0238382 2.85494
101 Al 10.1694 1.33713 7.34978
102 Ni 8.80562 -0.0416518 5.75596
103 Al 10.2943 1.32447 10.1609
104 Ni 8.7239 -0.0364468 8.7328
105 Al 10.1624 4.41422 1.46662
106 Ni 8.72142 2.8652 0.0520939
107 Al 10.1909 4.21842 4.33507
108 Ni 8.71717 2.77841 2.76453
109 Al 10.345 4.21996 7.26557
110 Ni 8.9514 2.86077 5.95436
111 Al 10.2627 4.13718 10.2217
112 Ni 8.83079 2.80652 8.81257
113 Al 10.1525 7.36258 1.58484
114 Ni 8.75143 5.73462 -0.0203577
115 Al 10.1787 7.34963 4.3772
116 Ni 8.79806 5.80937 3.02741
117 Al 10.208 7.29979 7.17521
118 Ni 8.74126 5.63506 5.78194
119 Al 10.3629 7.36157 10.1139
120 Ni 8.83361 5.671 8.68914
121 Al 10.2325 10.1814 1.45902
122 Ni 8.64435 8.70559 0.0431532
123 Al 10.1601 10.1213 4.26024
124 Ni 8.52013 8.72604 2.86676
125 Al 10.1032 10.2164 7.12533
126 Ni 8.6203 8.7588 5.8226
127 Al 10.216 10.1118 10.1439
128 Ni 8.88215 8.54784 8.70756
ITEM: TIMESTEP
7600
ITEM: NUMBER OF ATOMS
128
ITEM: BOX BOUNDS xy xz yz pp pp pp
-8.8094389528242598e-02 1.1698788665825715e+01 -5.4270127808640975e-02
-1.9928368739350333e-03 1.1604727819129657e+01 8.3180084282260244e-02
2.8680107962919976e-02 1.1553104211861060e+01 2.0950662431939167e-02
ITEM: ATOMS id element xu yu zu
1 Al 1.33119 1.51566 1.3621
2 Ni -0.149848 -0.0436742 0.164222
3 Al 1.56745 1.31671 4.37859
4 Ni -0.0685621 -0.134936 2.86406
5 Al 1.52574 1.44529 7.22002
6 Ni 0.0506745 -0.0160911 5.82669
7 Al 1.42989 1.39578 10.0759
8 Ni 0.0154134 -0.102689 8.82083
9 Al 1.43074 4.26795 1.48959
10 Ni -0.125437 2.95089 0.0348859
11 Al 1.55276 4.39106 4.37848
12 Ni 0.0745928 2.9059 2.92061
13 Al 1.44537 4.36277 7.2794
14 Ni -0.0120001 2.99379 5.81707
15 Al 1.36104 4.45335 10.0585
16 Ni 0.0298039 2.86529 8.69477
17 Al 1.33366 7.09716 1.41017
18 Ni -0.0924592 5.72808 0.0824262
19 Al 1.40911 7.20579 4.36114
20 Ni 0.079216 5.74504 2.89081
21 Al 1.51378 7.38761 7.26124
22 Ni -0.028715 5.83402 5.83991
23 Al 1.57205 7.35278 10.1587
24 Ni 0.184776 6.05121 8.63031
25 Al 1.47561 10.0443 1.49279
26 Ni -0.129704 8.6127 0.0426385
27 Al 1.35204 10.1977 4.40622
28 Ni -0.0801402 8.71418 2.74345
29 Al 1.39635 10.1843 7.22989
30 Ni -0.0286562 8.71848 5.74168
31 Al 1.37617 10.1129 10.2516
32 Ni 0.0303117 8.63481 8.82722
33 Al 4.29821 1.52532 1.28096
34 Ni 2.97462 -0.0504131 -0.118459
35 Al 4.42717 1.50919 4.28057
36 Ni 2.84914 0.117829 2.7044
37 Al 4.39115 1.53209 7.17897
38 Ni 3.04086 0.0409434 5.88813
39 Al 4.46267 1.40631 10.0646
40 Ni 2.85016 -0.0956175 8.65048
41 Al 4.35583 4.32903 1.48433
42 Ni 2.92738 2.92096 -0.0288026
43 Al 4.33645 4.3222 4.29372
44 Ni 2.84232 2.84269 2.79308
45 Al 4.33316 4.3526 7.36446
46 Ni 2.93212 2.93746 5.85049
47 Al 4.43463 4.38111 10.1899
48 Ni 2.85463 2.94132 8.69141
49 Al 4.36116 7.26873 1.41946
50 Ni 2.79181 5.82614 -0.011716
51 Al 4.36995 7.32425 4.44702
52 Ni 2.93577 5.85838 2.85806
53 Al 4.43419 7.40685 7.27894
54 Ni 2.91444 5.81156 5.83759
55 Al 4.34078 7.28908 10.0983
56 Ni 2.77916 5.82464 8.74831
57 Al 4.25745 10.0718 1.44212
58 Ni 2.89282 8.65897 -0.0549699
59 Al 4.22044 10.1357 4.26605
60 Ni 2.74788 8.54709 2.88846
61 Al 4.40061 10.1332 7.11568
62 Ni 2.78691 8.74775 5.69865
63 Al 4.41708 10.1819 10.0913
64 Ni 2.92438 8.66514 8.66753
65 Al 7.31658 1.44478 1.51869
66 Ni 5.8265 -0.176549 0.0555664
67 Al 7.33779 1.44 4.39847
68 Ni 5.72272 0.00438815 2.87947
69 Al 7.29978 1.37547 7.34
70 Ni 5.84974 0.045577 5.85131
71 Al 7.30298 1.4279 10.1945
72 Ni 5.863 -0.0406808 8.6389
73 Al 7.30778 4.23173 1.42536
74 Ni 5.69993 2.89314 -0.0175584
75 Al 7.29646 4.40113 4.33995
76 Ni 5.80092 2.90801 2.88752
77 Al 7.30901 4.39139 7.21712
78 Ni 5.92806 2.97732 5.87293
79 Al 7.33067 4.32774 10.0558
80 Ni 5.95087 2.94714 8.71375
81 Al 7.14669 7.31262 1.58515
82 Ni 5.80783 5.83804 0.114745
83 Al 7.12356 7.22763 4.39394
84 Ni 5.73904 5.79723 2.98815
85 Al 7.22534 7.22632 7.17075
86 Ni 5.57787 5.75253 5.77647
87 Al 7.36525 7.27681 10.1396
88 Ni 5.79113 5.75408 8.6126
89 Al 7.28041 10.2322 1.52364
90 Ni 5.71695 8.67591 0.174382
91 Al 7.26383 10.1028 4.28742
92 Ni 5.77868 8.73367 2.94495
93 Al 7.18844 10.1582 7.1605
94 Ni 5.80987 8.72122 5.82132
95 Al 7.24394 10.1998 10.1747
96 Ni 5.7766 8.77031 8.6353
97 Al 10.1123 1.42421 1.51756
98 Ni 8.72936 0.00612559 0.00719015
99 Al 10.193 1.46204 4.4427
100 Ni 8.77763 -0.0643191 3.00323
101 Al 10.1867 1.43204 7.24961
102 Ni 8.7513 -0.0784968 5.84921
103 Al 10.2423 1.43418 10.0767
104 Ni 8.80445 -0.081543 8.66443
105 Al 10.1384 4.31174 1.50207
106 Ni 8.73327 2.93493 -0.0622158
107 Al 10.1288 4.43394 4.24415
108 Ni 8.73621 2.90651 2.99801
109 Al 10.2179 4.42654 7.15799
110 Ni 8.72916 2.97161 5.72983
111 Al 10.2337 4.32632 10.0404
112 Ni 8.85806 2.93984 8.54612
113 Al 10.1403 7.18293 1.62611
114 Ni 8.56146 5.83909 0.0539944
115 Al 10.2293 7.32792 4.33228
116 Ni 8.58986 5.71359 2.7906
117 Al 10.1611 7.37818 7.23253
118 Ni 8.78289 5.89697 5.77628
119 Al 10.2059 7.26219 10.0826
120 Ni 8.63641 5.89735 8.55974
121 Al 10.0253 10.0544 1.47382
122 Ni 8.63157 8.6661 0.0682336
123 Al 10.1746 10.1834 4.32884
124 Ni 8.78927 8.67035 3.03151
125 Al 10.2149 10.0695 7.2046
126 Ni 8.74118 8.65321 5.77018
127 Al 10.1717 10.0368 10.1803
128 Ni 8.53876 8.77945 8.56325
ITEM: TIMESTEP
7700
ITEM: NUMBER OF ATOMS
128
ITEM: BOX BOUNDS xy xz yz pp pp pp
-1.9750206324695793e-01 1.1688233567329396e+01 4.3419639731275633e-02
-1.6364801014860930e-02 1.1626793823003313e+01 -1.3447245547269035e-01
-4.4720980880368799e-02 1.1626505300704361e+01 2.8644702164670435e-02
ITEM: ATOMS id element xu yu zu
1 Al 1.36657 1.54655 1.40692
2 Ni -0.0783563 0.0135829 -0.226836
3 Al 1.37351 1.34942 4.3308
4 Ni -0.0124943 0.186855 2.85803
5 Al 1.35355 1.50271 7.25501
6 Ni -0.0806394 -0.0344589 5.78055
7 Al 1.16703 1.45923 10.0753
8 Ni -0.196412 0.0699872 8.60082
9 Al 1.35676 4.21907 1.42339
10 Ni -0.145715 2.81957 -0.0721925
11 Al 1.38381 4.32511 4.31954
12 Ni -0.0917568 2.8856 2.88769
13 Al 1.38559 4.3337 7.29315
14 Ni -0.0857586 2.8123 5.76528
15 Al 1.29701 4.41831 10.1489
16 Ni -0.272552 3.00148 8.71737
17 Al 1.35473 7.15229 1.38026
18 Ni -0.082959 5.70071 -0.0391295
19 Al 1.41512 7.20587 4.36565
20 Ni -0.120688 5.77476 2.84304
21 Al 1.34718 7.16092 7.42452
22 Ni -0.0243715 5.76408 5.79707
23 Al 1.30037 7.22208 10.1496
24 Ni -0.318233 5.52346 8.80301
25 Al 1.35216 10.1394 1.45869
26 Ni -0.0847425 8.77142 -0.100432
27 Al 1.34589 10.1496 4.4048
28 Ni -0.062018 8.62188 2.97549
29 Al 1.48449 10.2277 7.2649
30 Ni 0.052777 8.72821 5.89278
31 Al 1.41853 10.18 10.1497
32 Ni -0.0577087 8.81183 8.64966
33 Al 4.24297 1.52031 1.39778
34 Ni 2.84239 0.0358506 0.0698107
35 Al 4.31691 1.41867 4.36833
36 Ni 2.91225 0.0253533 3.01347
37 Al 4.19538 1.43263 7.21902
38 Ni 2.59954 0.0630242 5.79871
39 Al 4.29218 1.42774 10.2339
40 Ni 2.83424 0.197034 8.73124
41 Al 4.2987 4.28718 1.40192
42 Ni 2.86313 2.77215 -0.0568507
43 Al 4.43984 4.31343 4.35774
44 Ni 2.94093 2.92508 2.9824
45 Al 4.34802 4.38128 7.26247
46 Ni 2.77816 2.86119 5.83003
47 Al 4.27808 4.29226 10.1837
48 Ni 2.75543 2.86692 8.73618
49 Al 4.36924 7.32395 1.34942
50 Ni 2.92897 5.80117 -0.0443565
51 Al 4.2553 7.17106 4.3235
52 Ni 2.69831 5.71466 2.86011
53 Al 4.27774 7.36907 7.23602
54 Ni 2.74347 5.75822 5.7067
55 Al 4.15701 7.34645 10.2351
56 Ni 2.88781 5.82913 8.79172
57 Al 4.39925 10.1903 1.40401
58 Ni 2.81709 8.71732 0.0433947
59 Al 4.29895 10.1783 4.3803
60 Ni 2.89725 8.85834 2.89812
61 Al 4.35245 10.2155 7.21656
62 Ni 2.89705 8.67995 5.79471
63 Al 4.24384 10.2491 10.298
64 Ni 2.78011 8.59531 8.79102
65 Al 7.30387 1.49034 1.41706
66 Ni 5.77127 0.0417445 -0.101079
67 Al 7.21578 1.45926 4.29076
68 Ni 5.82125 -0.0620217 2.93823
69 Al 7.14332 1.37068 7.21651
70 Ni 5.72029 0.023827 5.78068
71 Al 7.14876 1.37888 10.0864
72 Ni 5.70911 -0.00466879 8.5967
73 Al 7.25698 4.36748 1.40538
74 Ni 5.92851 2.82527 -0.123581
75 Al 7.24328 4.39467 4.31135
76 Ni 5.66523 2.85662 2.81427
77 Al 7.10413 4.33363 7.29174
78 Ni 5.60059 2.82617 5.79573
79 Al 7.18772 4.32694 10.1132
80 Ni 5.70844 2.91313 8.69759
81 Al 7.28229 7.24601 1.39437
82 Ni 5.77046 5.7723 -0.0460687
83 Al 7.0634 7.29403 4.32852
84 Ni 5.82242 5.86217 2.78261
85 Al 7.16138 7.26595 7.20586
86 Ni 5.86806 5.8142 5.77311
87 Al 7.26074 7.25388 10.2106
88 Ni 5.7714 5.85244 8.74456
89 Al 7.26426 10.2558 1.43863
90 Ni 5.87229 8.78758 -0.120869
91 Al 7.33053 10.12 4.23975
92 Ni 5.69091 8.73982 2.95406
93 Al 7.26834 10.1424 7.19193
94 Ni 5.66507 8.68526 5.6752
95 Al 7.15711 10.2786 10.1311
96 Ni 5.68019 8.65744 8.60162
97 Al 10.1124 1.39477 1.35959
98 Ni 8.68239 -0.0301466 0.0398954
99 Al 10.0651 1.48938 4.31432
100 Ni 8.67403 0.0626733 2.84142
101 Al 10.075 1.49139 7.19478
102 Ni 8.71193 0.0742217 5.69443
103 Al 9.99443 1.45227 10.0351
104 Ni 8.61734 0.035635 8.58836
105 Al 10.1279 4.26464 1.49148
106 Ni 8.65709 2.81103 -0.0493447
107 Al 10.0871 4.34626 4.33266
108 Ni 8.63581 2.92268 2.94642
109 Al 9.9663 4.31321 7.12247
110 Ni 8.67464 2.83273 5.75783
111 Al 10.0368 4.25492 10.3085
112 Ni 8.51578 2.94473 8.78206
113 Al 10.2395 7.22411 1.50842
114 Ni 8.74073 5.67439 0.0329374
115 Al 10.1496 7.31525 4.32531
116 Ni 8.76829 5.78468 2.96958
117 Al 10.182 7.22105 7.13517
118 Ni 8.68392 5.8612 5.84113
119 Al 10.2409 7.31944 10.1272
120 Ni 8.65672 5.88626 8.77151
121 Al 10.1695 10.2147 1.46458
122 Ni 8.7403 8.72 -0.0950533
123 Al 10.1588 10.2726 4.28948
124 Ni 8.78655 8.71675 2.77413
125 Al 10.1619 10.1105 7.19923
126 Ni 8.7775 8.66944 5.78245
127 Al 10.1289 10.1993 10.1785
128 Ni 8.77446 8.59409 8.77007
ITEM: TIMESTEP
7800
ITEM: NUMBER OF ATOMS
128
ITEM: BOX BOUNDS xy xz yz pp pp pp
-2.9736316854453965e-02 1.1635039588575356e+01 4.2427187319870059e-02
-7.6216839732238389e-02 1.1608433021025707e+01 -1.8908235422805814e-02
-3.7853419921058951e-02 1.1619637739745055e+01 -4.9568138530308309e-02
ITEM: ATOMS id element xu yu zu
1 Al 1.43748 1.52426 1.50936
2 Ni 0.0962823 0.0478732 0.0498051
3 Al 1.38587 1.33037 4.43582
4 Ni -0.108281 -0.213167 2.99231
5 Al 1.58162 1.3887 7.20067
6 Ni -0.119614 0.0828136 5.79154
7 Al 1.51241 1.37722 10.1199
8 Ni -0.00662215 0.0328342 8.71607
9 Al 1.39494 4.42018 1.48303
10 Ni 0.197081 2.89741 -0.0010385
11 Al 1.40589 4.34916 4.26942
12 Ni -0.121341 2.92068 2.77671
13 Al 1.48028 4.23699 7.27658
14 Ni -0.0725641 2.96495 5.88408
15 Al 1.42129 4.28231 10.1313
16 Ni 0.0307015 2.64709 8.72668
17 Al 1.41468 7.33889 1.37943
18 Ni 0.0577928 5.86283 -0.0525484
19 Al 1.49424 7.21521 4.30889
20 Ni -0.0306493 5.88127 2.82389
21 Al 1.39687 7.15513 7.30785
22 Ni -0.0698862 5.76246 5.82272
23 Al 1.40291 7.1369 10.0821
24 Ni 0.109937 5.85587 8.75479
25 Al 1.43613 10.1625 1.32997
26 Ni 0.130396 8.72863 -0.138261
27 Al 1.4642 10.1535 4.40208
28 Ni 0.0421723 8.77217 2.87549
29 Al 1.30902 10.1123 7.0768
30 Ni -0.0966745 8.54472 5.79722
31 Al 1.48733 10.1054 10.0569
32 Ni -0.0389703 8.59649 8.71669
33 Al 4.2933 1.41886 1.48305
34 Ni 2.91894 -0.0766459 -0.200413
35 Al 4.28714 1.44834 4.39333
36 Ni 2.77908 -0.0324269 2.87157
37 Al 4.39845 1.27384 7.25882
38 Ni 3.082 -0.136806 5.80253
39 Al 4.33821 1.28833 10.2211
40 Ni 2.83152 -0.197682 8.59307
41 Al 4.38607 4.3475 1.43905
42 Ni 2.9413 2.98569 0.12184
43 Al 4.37245 4.27917 4.34913
44 Ni 2.88519 2.89172 2.75718
45 Al 4.50317 4.34638 7.21795
46 Ni 2.85914 2.95357 5.75785
47 Al 4.38458 4.31046 10.1623
48 Ni 3.03584 2.94709 8.51457
49 Al 4.38013 7.16929 1.33349
50 Ni 2.87189 5.77505 -0.0161703
51 Al 4.42303 7.24008 4.38036
52 Ni 3.03853 5.75647 2.86733
53 Al 4.26866 7.25674 7.29353
54 Ni 2.86809 5.8001 5.82752
55 Al 4.08935 7.21613 10.1458
56 Ni 2.81621 5.69665 8.72919
57 Al 4.40359 10.0958 1.41238
58 Ni 2.89399 8.77719 -0.0727068
59 Al 4.42669 9.98634 4.2817
60 Ni 2.90618 8.65783 2.84396
61 Al 4.44594 10.0363 7.32711
62 Ni 2.80962 8.62936 5.80745
63 Al 4.34986 10.0714 10.3081
64 Ni 2.7874 8.7418 8.61488
65 Al 7.33086 1.35929 1.37709
66 Ni 5.80892 -0.147282 -0.0418676
67 Al 7.32205 1.34009 4.27253
68 Ni 5.74237 -0.100476 2.91336
69 Al 7.22183 1.33581 7.14454
70 Ni 5.79671 -0.154784 5.79872
71 Al 7.18367 1.42389 10.1564
72 Ni 5.7702 -0.0965457 8.80225
73 Al 7.27565 4.39353 1.37641
74 Ni 5.68973 2.91615 0.127797
75 Al 7.34813 4.42642 4.25995
76 Ni 5.82004 2.8879 3.03976
77 Al 7.20203 4.3892 7.30268
78 Ni 5.88037 2.92431 5.74834
79 Al 7.24889 4.19905 10.1321
80 Ni 5.80887 2.88371 8.63149
81 Al 7.32355 7.18789 1.38475
82 Ni 5.87701 5.84316 0.0174698
83 Al 7.1474 7.27399 4.36885
84 Ni 5.78126 5.77292 2.96686
85 Al 7.20587 7.18098 7.24417
86 Ni 5.78275 5.86471 5.80935
87 Al 7.26006 7.15167 10.0866
88 Ni 5.81059 5.71358 8.68589
89 Al 7.31545 10.1377 1.44037
90 Ni 5.7839 8.62407 -0.0107251
91 Al 7.20904 10.0648 4.31643
92 Ni 5.89892 8.61901 2.73581
93 Al 7.21941 10.2224 7.3548
94 Ni 5.87839 8.58135 5.99002
95 Al 7.26961 10.1874 10.2654
96 Ni 5.87965 8.65301 8.78861
97 Al 10.1426 1.3418 1.34782
98 Ni 8.66788 -0.0382958 -0.11693
99 Al 10.0169 1.37258 4.3356
100 Ni 8.71278 -0.16625 2.8969
101 Al 10.1034 1.36719 7.20463
102 Ni 8.57134 -0.163456 5.82738
103 Al 10.1876 1.38003 10.1787
104 Ni 8.56348 -0.0323244 8.76154
105 Al 10.0804 4.39607 1.36168
106 Ni 8.60322 2.89078 0.0564204
107 Al 10.0052 4.2887 4.18306
108 Ni 8.7142 2.75739 2.78308
109 Al 10.092 4.31337 7.27567
110 Ni 8.71214 2.93678 5.80741
111 Al 10.2742 4.22766 10.2283
112 Ni 8.69268 2.77727 8.66363
113 Al 10.2752 7.33986 1.48994
114 Ni 8.73031 5.9329 -0.118591
115 Al 10.125 7.19308 4.2844
116 Ni 8.73808 5.9077 2.68871
117 Al 10.0416 7.13988 7.14267
118 Ni 8.69474 5.66154 5.71724
119 Al 10.0584 7.36256 10.0789
120 Ni 8.72826 5.54831 8.76799
121 Al 10.0783 10.3036 1.43562
122 Ni 8.88149 8.79924 -0.0246007
123 Al 10.0969 10.0647 4.46377
124 Ni 8.7641 8.74761 2.90817
125 Al 10.2381 10.1142 7.25149
126 Ni 8.64857 8.6938 5.88089
127 Al 10.2758 10.2087 10.1887
128 Ni 8.72155 8.81149 8.57193
ITEM: TIMESTEP
7900
ITEM: NUMBER OF ATOMS
128
ITEM: BOX BOUNDS xy xz yz pp pp pp
-5.8878444316611239e-02 1.1713561525963389e+01 -7.1858852662996159e-02
-6.4271465003168160e-02 1.1661314380911048e+01 1.4475761448595270e-01
-1.1101758293365904e-02 1.1592886078117358e+01 1.5258596084099381e-02
ITEM: ATOMS id element xu yu zu
1 Al 1.51737 1.4741 1.45517
2 Ni -0.0474349 -0.142232 -0.0876014
3 Al 1.51441 1.28366 4.41863
4 Ni 0.106231 0.0589809 2.84596
5 Al 1.46254 1.4441 7.19212
6 Ni 0.110791 -0.143918 5.78121
7 Al 1.53194 1.38393 10.1857
8 Ni 0.167317 -0.0767629 8.68248
9 Al 1.49855 4.2622 1.39035
10 Ni -0.0611845 2.8608 -0.0331518
11 Al 1.43613 4.47554 4.28145
12 Ni 0.21595 2.83349 2.94117
13 Al 1.57366 4.32571 7.20449
14 Ni 0.0562294 2.76296 5.62444
15 Al 1.50745 4.4134 10.1494
16 Ni 0.1889 3.0164 8.69495
17 Al 1.36744 7.31719 1.3375
18 Ni 0.0623895 5.73231 -0.0573848
19 Al 1.42602 7.34797 4.3973
20 Ni -0.0145594 5.81097 2.80921
21 Al 1.5002 7.24697 7.26964
22 Ni -0.00135845 5.85167 5.79541
23 Al 1.46975 7.20205 10.0878
24 Ni 0.0734686 5.75815 8.65308
25 Al 1.33493 10.0972 1.41967
26 Ni -0.112127 8.66034 0.020738
27 Al 1.47136 10.2481 4.33486
28 Ni -0.0912293 8.56714 2.87315
29 Al 1.44445 10.1406 7.20692
30 Ni -0.0695596 8.83902 5.82235
31 Al 1.59753 10.1772 10.1422
32 Ni 0.102857 8.87143 8.70699
33 Al 4.31232 1.51043 1.44433
34 Ni 2.87631 -0.121643 0.128754
35 Al 4.42379 1.4623 4.31486
36 Ni 3.03483 -0.0242352 2.91366
37 Al 4.45177 1.35643 7.21033
38 Ni 2.86393 -0.00952551 5.75606
39 Al 4.45867 1.31115 10.1464
40 Ni 3.0906 0.0224368 8.73216
41 Al 4.29203 4.30116 1.3827
42 Ni 2.89321 2.82761 -0.108687
43 Al 4.38521 4.32111 4.29775
44 Ni 2.93194 2.86277 3.07307
45 Al 4.49392 4.20704 7.20339
46 Ni 2.95465 2.74785 5.76012
47 Al 4.3688 4.37635 9.98806
48 Ni 2.79104 2.83625 8.71285
49 Al 4.31515 7.19142 1.40388
50 Ni 2.96901 5.77975 -0.110423
51 Al 4.47768 7.27411 4.35733
52 Ni 2.78586 5.85288 2.98347
53 Al 4.45382 7.13035 7.16387
54 Ni 2.91785 5.88451 5.74123
55 Al 4.34815 7.28083 10.1074
56 Ni 2.95031 5.93201 8.61551
57 Al 4.31446 10.0545 1.43693
58 Ni 2.95088 8.63809 -0.0169355
59 Al 4.42785 10.2321 4.37147
60 Ni 2.78845 8.68125 3.01856
61 Al 4.33806 10.1423 7.22737
62 Ni 2.90982 8.78605 5.76898
63 Al 4.34573 10.1645 10.1689
64 Ni 3.027 8.6084 8.64914
65 Al 7.41028 1.36779 1.39691
66 Ni 5.61789 -0.0614082 -0.0453842
67 Al 7.36951 1.39797 4.29701
68 Ni 5.77964 -0.117487 2.80506
69 Al 7.39814 1.44225 7.32606
70 Ni 5.82966 -0.00969071 5.75376
71 Al 7.38042 1.39577 10.1947
72 Ni 5.85899 0.0760996 8.68619
73 Al 7.2128 4.34291 1.39824
74 Ni 5.83453 2.88566 -0.0340739
75 Al 7.25204 4.37532 4.35892
76 Ni 5.79226 2.82624 2.75081
77 Al 7.2681 4.3429 7.30274
78 Ni 5.82849 2.83163 5.73649
79 Al 7.33804 4.29773 10.1448
80 Ni 5.84224 2.91594 8.71965
81 Al 7.16684 7.13151 1.43301
82 Ni 5.73315 5.75065 -0.00265613
83 Al 7.28928 7.16143 4.38673
84 Ni 5.82773 5.97609 2.87082
85 Al 7.20652 7.23753 7.14832
86 Ni 5.85714 5.66347 5.79691
87 Al 7.28299 7.18707 10.172
88 Ni 5.94945 5.71601 8.75439
89 Al 7.21195 10.1555 1.41571
90 Ni 5.71125 8.81368 -0.0828283
91 Al 7.24239 10.2165 4.32575
92 Ni 5.65436 8.81987 3.00176
93 Al 7.24301 10.2845 7.31326
94 Ni 5.86693 8.70649 5.74722
95 Al 7.16295 10.4226 10.1445
96 Ni 5.86365 8.64971 8.54612
97 Al 10.1226 1.40333 1.51489
98 Ni 8.81498 -0.00508938 0.0735017
99 Al 10.1579 1.36193 4.28321
100 Ni 8.71111 -0.0403973 2.92759
101 Al 10.2592 1.45647 7.25699
102 Ni 8.76943 0.0880978 5.83277
103 Al 10.4174 1.35979 10.1311
104 Ni 8.86911 -0.0413762 8.76301
105 Al 10.1157 4.28188 1.50722
106 Ni 8.77588 2.80268 -0.0481512
107 Al 10.0404 4.28284 4.40371
108 Ni 8.7438 3.03011 2.97589
109 Al 10.1159 4.29918 7.17366
110 Ni 8.80265 2.79615 5.72283
111 Al 10.2593 4.35135 10.1698
112 Ni 8.75442 2.94778 8.82472
113 Al 10.0524 7.12781 1.47306
114 Ni 8.63431 5.64494 0.024998
115 Al 10.1801 7.20918 4.3252
116 Ni 8.67226 5.71873 2.88532
117 Al 10.2134 7.35983 7.31124
118 Ni 8.85144 5.87731 5.97016
119 Al 10.1726 7.32968 10.2179
120 Ni 8.73326 5.86146 8.74711
121 Al 9.95769 10.3047 1.50711
122 Ni 8.54061 8.71397 -0.103831
123 Al 10.0003 10.1778 4.29967
124 Ni 8.60923 8.7425 2.81761
125 Al 10.0819 10.195 7.18613
126 Ni 8.72191 8.65339 5.84317
127 Al 10.1914 10.1705 10.1655
128 Ni 8.72346 8.67285 8.8739
ITEM: TIMESTEP
8000
ITEM: NUMBER OF ATOMS
128
ITEM: BOX BOUNDS xy xz yz pp pp pp
-8.2898162695005773e-02 1.1599815514788437e+01 -4.5048745212452883e-02
-1.1012235738855924e-01 1.1747836930600419e+01 -1.9818222517945187e-02
-1.8228500350483401e-03 1.1583607169859027e+01 5.5930253388081635e-02
ITEM: ATOMS id element xu yu zu
1 Al 1.35238 1.37622 1.44473
2 Ni 0.0359698 -0.125045 0.0730754
3 Al 1.37199 1.37985 4.3559
4 Ni -0.0775864 -0.166037 2.8099
5 Al 1.32956 1.39544 7.21848
6 Ni -0.0187478 -0.0831339 5.85531
7 Al 1.34863 1.47416 10.0624
8 Ni -0.0597794 -0.209313 8.7588
9 Al 1.35688 4.25952 1.46011
10 Ni 0.0460529 2.95728 -0.0706476
11 Al 1.4129 4.29592 4.28913
12 Ni -0.185759 2.9177 2.87633
13 Al 1.38664 4.36228 7.39418
14 Ni -0.0208001 2.85743 5.99613
15 Al 1.32741 4.45386 10.1671
16 Ni -0.158253 2.78417 8.69076
17 Al 1.38319 7.34723 1.4891
18 Ni -0.134287 5.83361 0.0615574
19 Al 1.44482 7.21796 4.29817
20 Ni 0.00972765 5.75396 2.9904
21 Al 1.54565 7.32355 7.26845
22 Ni 0.0157361 5.8611 5.87451
23 Al 1.51101 7.23369 10.1574
24 Ni -0.0927667 5.89574 8.70921
25 Al 1.41716 10.1333 1.43357
26 Ni 0.041123 8.70348 -0.0408481
27 Al 1.46967 10.2706 4.42631
28 Ni -0.0190694 8.76892 2.87084
29 Al 1.30066 10.1739 7.29379
30 Ni 0.0159588 8.76621 5.80949
31 Al 1.32811 10.2739 10.2063
32 Ni -0.101193 8.68984 8.78222
33 Al 4.29895 1.37804 1.41767
34 Ni 2.85167 -0.0891007 -0.11539
35 Al 4.24158 1.43176 4.33678
36 Ni 2.7406 -0.115024 2.8402
37 Al 4.28304 1.35854 7.27764
38 Ni 2.88959 -0.0521618 5.8544
39 Al 4.35232 1.22987 10.0209
40 Ni 2.77131 -0.0922272 8.76857
41 Al 4.33726 4.25238 1.37169
42 Ni 2.75922 2.93585 -0.0228836
43 Al 4.28173 4.33653 4.4397
44 Ni 2.92098 2.84317 2.72772
45 Al 4.37025 4.2998 7.21734
46 Ni 2.79743 2.87676 5.80327
47 Al 4.32469 4.46186 10.1063
48 Ni 2.91887 2.93553 8.72912
49 Al 4.32292 7.26173 1.44668
50 Ni 2.82779 5.82437 0.0831783
51 Al 4.3745 7.35914 4.34029
52 Ni 2.96626 5.66562 2.88347
53 Al 4.35675 7.30317 7.23947
54 Ni 2.80037 5.77287 5.86034
55 Al 4.28964 7.2734 10.1587
56 Ni 2.89914 5.84021 8.72076
57 Al 4.4143 10.2856 1.29515
58 Ni 2.84518 8.74629 0.0433363
59 Al 4.42083 10.3253 4.24493
60 Ni 3.00185 8.86962 2.81874
61 Al 4.26687 10.3527 7.21399
62 Ni 2.88215 8.80469 5.79947
63 Al 4.23795 10.2565 10.1281
64 Ni 2.87468 8.84982 8.69817
65 Al 7.21461 1.46323 1.42955
66 Ni 5.9315 -0.081353 0.00426559
67 Al 7.31817 1.35792 4.46584
68 Ni 5.85965 -0.0280713 2.9712
69 Al 7.26164 1.41474 7.25791
70 Ni 5.84248 -0.0388635 5.84741
71 Al 7.25177 1.41752 10.1165
72 Ni 5.91495 -0.113649 8.66532
73 Al 7.27584 4.33638 1.47235
74 Ni 5.73166 2.81288 -0.0245721
75 Al 7.23924 4.27831 4.37826
76 Ni 5.66085 2.87925 3.0542
77 Al 7.1507 4.3835 7.27487
78 Ni 5.68099 2.91453 5.83068
79 Al 7.19074 4.37378 10.0715
80 Ni 5.86093 2.85999 8.66249
81 Al 7.14766 7.1362 1.5335
82 Ni 5.78336 5.72134 0.0548626
83 Al 7.17374 7.22571 4.39471
84 Ni 5.7546 5.56761 2.87764
85 Al 7.15171 7.30045 7.14735
86 Ni 5.78126 5.84882 5.7902
87 Al 7.35024 7.27593 10.1605
88 Ni 5.70047 5.83007 8.48176
89 Al 7.28098 10.201 1.48764
90 Ni 5.74081 8.7999 -0.049759
91 Al 7.18023 10.3133 4.25172
92 Ni 5.86448 8.74179 2.92664
93 Al 7.21713 10.2145 7.21928
94 Ni 5.70947 8.89278 5.78023
95 Al 7.13271 10.3284 10.0635
96 Ni 5.72711 8.9208 8.75956
97 Al 10.0677 1.38043 1.40622
98 Ni 8.57812 -0.12288 -0.0419089
99 Al 10.1306 1.40045 4.30758
100 Ni 8.66157 -0.000488864 2.76211
101 Al 10.1111 1.28902 7.22213
102 Ni 8.74904 -0.151214 5.73037
103 Al 10.1424 1.33178 10.2681
104 Ni 8.61041 -0.0434952 8.5722
105 Al 10.0373 4.31363 1.53035
106 Ni 8.63615 2.91397 0.0461022
107 Al 10.0703 4.28833 4.437
108 Ni 8.59163 2.67347 2.84832
109 Al 10.0242 4.43261 7.15243
110 Ni 8.81668 2.81523 5.78243
111 Al 10.0564 4.32893 10.1113
112 Ni 8.7451 2.78318 8.50398
113 Al 10.1047 7.20624 1.56404
114 Ni 8.62791 5.82569 0.0692063
115 Al 10.2005 7.31567 4.3455
116 Ni 8.67525 5.81662 2.95003
117 Al 10.1422 7.32083 7.17834
118 Ni 8.53925 5.76828 5.65775
119 Al 10.0813 7.32679 10.1848
120 Ni 8.64946 5.80603 8.58746
121 Al 10.0105 10.2845 1.44072
122 Ni 8.64504 8.76771 0.0898709
123 Al 10.0241 10.3324 4.21073
124 Ni 8.67615 8.71983 2.92926
125 Al 10.1476 10.2029 7.14394
126 Ni 8.67856 8.90613 5.65146
127 Al 10.0586 10.218 10.124
128 Ni 8.64403 8.77312 8.57669
ITEM: TIMESTEP
8100
ITEM: NUMBER OF ATOMS
128
ITEM: BOX BOUNDS xy xz yz pp pp pp
-1.3456566672034698e-01 1.1639932877543055e+01 5.3254373852859201e-02
-6.7022605050094705e-02 1.1626970375641232e+01 -1.2967148285399177e-01
3.7429370290174901e-02 1.1544354949533805e+01 -2.1836549232633663e-02
ITEM: ATOMS id element xu yu zu
1 Al 1.44833 1.39716 1.34697
2 Ni -0.0910396 0.012657 -0.118341
3 Al 1.38008 1.42044 4.34893
4 Ni -0.0165578 0.00765036 2.97265
5 Al 1.24359 1.45171 7.2172
6 Ni 0.0133173 -0.0405046 5.7595
7 Al 1.25634 1.41786 10.1063
8 Ni -0.076609 0.0654737 8.67419
9 Al 1.43636 4.21013 1.38474
10 Ni -0.223099 2.83405 0.0482293
11 Al 1.52672 4.36989 4.26709
12 Ni 0.0255611 2.81514 2.81524
13 Al 1.33013 4.43856 7.30351
14 Ni -0.115418 2.8501 5.71011
15 Al 1.30682 4.22909 10.2049
16 Ni -0.011623 2.8815 8.74877
17 Al 1.43998 7.30224 1.40159
18 Ni 0.0801052 5.84289 -0.0359907
19 Al 1.35306 7.13787 4.35045
20 Ni -0.0283399 5.88257 2.88598
21 Al 1.4985 7.25324 7.2047
22 Ni 0.0210551 5.7548 5.63536
23 Al 1.45698 7.24726 10.2079
24 Ni -0.0801211 5.85403 8.70064
25 Al 1.51757 10.1552 1.45289
26 Ni -0.0349986 8.72975 0.109693
27 Al 1.52803 10.1833 4.38695
28 Ni 0.0826019 8.68561 2.93211
29 Al 1.35391 10.1063 7.22902
30 Ni 0.0546127 8.52497 5.7023
31 Al 1.36538 10.196 10.157
32 Ni -0.119994 8.74099 8.50656
33 Al 4.37753 1.50859 1.46741
34 Ni 2.95764 -0.0206169 0.0351493
35 Al 4.27695 1.41504 4.40476
36 Ni 2.90457 0.140041 2.89612
37 Al 4.18761 1.45522 7.21898
38 Ni 2.74997 -0.0957601 5.8136
39 Al 4.19646 1.37791 9.96052
40 Ni 2.87231 -0.225829 8.6634
41 Al 4.36558 4.34284 1.59415
42 Ni 3.10522 2.87301 0.0456849
43 Al 4.36671 4.17663 4.42414
44 Ni 2.744 2.85526 2.9943
45 Al 4.32623 4.41039 7.30894
46 Ni 2.76569 2.80403 5.91169
47 Al 4.34447 4.45242 10.1494
48 Ni 2.81164 2.95872 8.68137
49 Al 4.30049 7.17832 1.44219
50 Ni 2.93616 5.68859 -0.0476166
51 Al 4.25475 7.31303 4.39914
52 Ni 2.85073 5.84356 2.88673
53 Al 4.30576 7.15853 7.30422
54 Ni 2.90793 5.80095 5.7532
55 Al 4.24746 7.18714 10.1651
56 Ni 2.74459 5.79366 8.72976
57 Al 4.34319 10.192 1.41375
58 Ni 2.98847 8.75634 0.0475683
59 Al 4.24536 10.0606 4.31657
60 Ni 2.85296 8.62933 2.84455
61 Al 4.34014 10.2051 7.22788
62 Ni 2.86281 8.6911 5.88177
63 Al 4.31352 10.0624 10.0678
64 Ni 2.78574 8.60595 8.74897
65 Al 7.32616 1.46694 1.47804
66 Ni 5.74671 -0.0596128 0.00477319
67 Al 7.27512 1.32037 4.38429
68 Ni 5.64328 -0.0270302 2.8676
69 Al 7.22439 1.33101 7.33631
70 Ni 5.5991 -0.190869 5.69042
71 Al 7.04673 1.26351 10.1048
72 Ni 5.65892 -0.105291 8.74437
73 Al 7.30714 4.42655 1.48212
74 Ni 5.959 2.94447 0.000915065
75 Al 7.22497 4.37526 4.36465
76 Ni 5.80256 2.77975 2.83592
77 Al 7.06823 4.37343 7.22605
78 Ni 5.84731 2.72896 5.74199
79 Al 7.18958 4.33436 10.109
80 Ni 5.64692 2.85001 8.54501
81 Al 7.29662 7.23929 1.59384
82 Ni 5.9488 5.86023 0.0108357
83 Al 7.16715 7.22532 4.41661
84 Ni 5.77729 5.92534 3.01302
85 Al 7.10755 7.10139 7.18047
86 Ni 5.65554 5.77123 5.78344
87 Al 7.3645 7.27568 10.1801
88 Ni 5.76922 5.83491 8.78444
89 Al 7.29442 10.2484 1.52252
90 Ni 5.81558 8.66029 0.0899742
91 Al 7.12323 10.1171 4.28498
92 Ni 5.60747 8.77142 2.87573
93 Al 7.19358 10.0828 7.23279
94 Ni 5.7034 8.60797 5.76354
95 Al 7.19786 10.0851 10.0473
96 Ni 5.72411 8.62153 8.61444
97 Al 10.0051 1.31674 1.57084
98 Ni 8.75506 -0.0616872 0.0435146
99 Al 10.0671 1.45374 4.36439
100 Ni 8.71305 -0.199974 3.06196
101 Al 9.9855 1.44704 7.23204
102 Ni 8.61828 -0.136075 5.82156
103 Al 9.88397 1.46873 10.1486
104 Ni 8.63448 -0.245675 8.76734
105 Al 10.1327 4.39246 1.47626
106 Ni 8.67899 2.88474 -0.00858915
107 Al 10.1753 4.34231 4.41575
108 Ni 8.83819 2.99447 2.92182
109 Al 10.0591 4.31846 7.2346
110 Ni 8.60597 2.91442 5.7953
111 Al 10.0355 4.34682 10.0855
112 Ni 8.54304 3.04147 8.70355
113 Al 10.1361 7.12452 1.46144
114 Ni 8.71363 5.84802 -0.0113024
115 Al 10.0345 7.26098 4.28579
116 Ni 8.62691 5.78596 2.89152
117 Al 10.1896 7.20591 7.18542
118 Ni 8.71058 5.77157 5.80025
119 Al 10.1012 7.23374 10.051
120 Ni 8.54958 5.85767 8.63564
121 Al 10.2241 10.1912 1.59187
122 Ni 8.81897 8.65753 0.0579076
123 Al 10.1187 10.1405 4.44409
124 Ni 8.69096 8.78816 2.94359
125 Al 10.1958 10.2281 7.21788
126 Ni 8.60087 8.58594 5.87189
127 Al 10.1548 10.0546 10.1121
128 Ni 8.67451 8.7005 8.60547
ITEM: TIMESTEP
8200
ITEM: NUMBER OF ATOMS
128
ITEM: BOX BOUNDS xy xz yz pp pp pp
-5.6391518553051689e-02 1.1725223948440503e+01 3.5516331638694762e-02
-9.7214205637287873e-02 1.1628973416107653e+01 5.1531778424902711e-02
-3.2064615120254381e-02 1.1613848934944231e+01 -5.0025109353407080e-02
ITEM: ATOMS id element xu yu zu
1 Al 1.49932 1.49127 1.49422
2 Ni 0.00437142 -0.0232639 0.0559992
3 Al 1.4744 1.44243 4.29869
4 Ni -0.0444829 0.0145108 2.93064
5 Al 1.43443 1.38341 7.16329
6 Ni -0.137624 -0.0583351 5.85204
7 Al 1.37671 1.31765 10.1542
8 Ni -0.0196045 -0.180875 8.55882
9 Al 1.40529 4.22743 1.34619
10 Ni 0.139674 2.77764 -0.0637614
11 Al 1.45144 4.32259 4.29675
12 Ni -0.0507335 2.84506 2.98783
13 Al 1.537 4.2854 7.2485
14 Ni -0.0353614 2.83348 5.82034
15 Al 1.56405 4.21599 10.1228
16 Ni -0.0419102 2.75141 8.55076
17 Al 1.44785 7.25543 1.4457
18 Ni -0.112921 5.69467 -0.00890455
19 Al 1.25547 7.10951 4.36198
20 Ni -0.0259579 5.71314 2.81223
21 Al 1.42288 7.2468 7.23562
22 Ni -0.15482 5.72916 5.91768
23 Al 1.5191 7.09614 10.2587
24 Ni 0.0200542 5.56132 8.6923
25 Al 1.42604 10.1632 1.38838
26 Ni 0.0543811 8.80732 -0.105126
27 Al 1.4325 10.2536 4.35634
28 Ni -0.0471681 8.62555 2.83518
29 Al 1.52021 10.1639 7.17301
30 Ni -0.01343 8.85411 5.98745
31 Al 1.4944 10.2129 10.1278
32 Ni 0.110402 8.74051 8.75582
33 Al 4.38737 1.31788 1.56404
34 Ni 2.81982 -0.0760693 -0.0112218
35 Al 4.41686 1.32502 4.36328
36 Ni 2.83879 -0.197563 2.89642
37 Al 4.40972 1.51833 7.29852
38 Ni 3.00005 -0.0190513 5.77011
39 Al 4.42919 1.39249 10.124
40 Ni 2.90415 0.0692191 8.72151
41 Al 4.30428 4.30886 1.40322
42 Ni 2.7925 2.85231 -0.0572429
43 Al 4.44647 4.3533 4.31165
44 Ni 3.06724 2.87606 2.75506
45 Al 4.44223 4.36507 7.23153
46 Ni 3.03458 2.88281 5.53523
47 Al 4.43191 4.40548 10.1718
48 Ni 2.95185 2.72244 8.65028
49 Al 4.39941 7.36765 1.42435
50 Ni 2.88401 5.79528 -0.0198843
51 Al 4.33918 7.23406 4.3396
52 Ni 2.8563 5.68359 2.85746
53 Al 4.32748 7.13756 7.18621
54 Ni 2.84176 5.6952 5.72303
55 Al 4.27572 7.21274 10.1176
56 Ni 3.00412 5.66022 8.67716
57 Al 4.29095 10.1235 1.46917
58 Ni 2.69 8.73833 -0.0270016
59 Al 4.43091 10.0103 4.46805
60 Ni 2.85112 8.76855 2.84182
61 Al 4.39726 10.193 7.34273
62 Ni 2.83808 8.60439 5.70054
63 Al 4.37406 10.2448 10.1551
64 Ni 2.86658 8.66102 8.58912
65 Al 7.21935 1.3857 1.35585
66 Ni 5.8008 -0.0596513 0.0416868
67 Al 7.20405 1.41578 4.33794
68 Ni 5.89861 -0.217143 2.94032
69 Al 7.30883 1.54856 7.20571
70 Ni 5.89656 0.0677267 5.84124
71 Al 7.30747 1.2901 10.1733
72 Ni 5.81385 -0.0827324 8.65622
73 Al 7.31521 4.40031 1.36165
74 Ni 5.77303 2.76994 0.123806
75 Al 7.31357 4.45791 4.38664
76 Ni 5.84172 2.98264 2.90348
77 Al 7.38185 4.37625 7.26998
78 Ni 5.74905 2.93763 5.82147
79 Al 7.39542 4.32422 10.1798
80 Ni 5.98741 2.83031 8.85308
81 Al 7.36325 7.25481 1.3083
82 Ni 5.6537 5.82946 -0.0195849
83 Al 7.33806 7.22886 4.33128
84 Ni 5.88628 5.75734 2.7314
85 Al 7.29335 7.19979 7.25943
86 Ni 5.88453 5.78451 5.78354
87 Al 7.3322 7.12357 10.1724
88 Ni 5.75368 5.70032 8.5834
89 Al 7.24982 10.0952 1.50569
90 Ni 5.78019 8.78161 -0.179844
91 Al 7.32461 10.1606 4.37736
92 Ni 5.96038 8.6014 3.01947
93 Al 7.32574 10.0845 7.25974
94 Ni 5.82229 8.66721 5.81231
95 Al 7.37093 10.1955 10.0074
96 Ni 5.80522 8.70641 8.74607
97 Al 10.1047 1.376 1.48746
98 Ni 8.6871 -0.00662447 -0.0567194
99 Al 10.1549 1.45567 4.27282
100 Ni 8.65945 -0.0345243 2.85863
101 Al 10.2357 1.38453 7.14706
102 Ni 8.7082 0.0339648 5.7628
103 Al 10.2995 1.42462 10.1842
104 Ni 8.64028 0.0564328 8.5324
105 Al 10.1681 4.24478 1.47742
106 Ni 8.78079 2.86601 0.0610484
107 Al 10.1822 4.22985 4.38472
108 Ni 8.47984 2.78129 2.88456
109 Al 10.1754 4.23746 7.22888
110 Ni 8.7274 2.80506 5.78418
111 Al 10.2587 4.15881 10.1714
112 Ni 8.7765 2.72495 8.67082
113 Al 10.2688 7.19073 1.30692
114 Ni 8.80675 5.75178 0.0367172
115 Al 10.2336 7.20616 4.3551
116 Ni 8.82036 5.82482 2.87851
117 Al 10.2322 7.24582 7.40335
118 Ni 8.76095 5.83494 5.79907
119 Al 10.152 7.23672 10.2822
120 Ni 8.90203 5.69581 8.83932
121 Al 10.1974 10.232 1.51461
122 Ni 8.67816 8.8754 -0.085118
123 Al 10.1202 10.215 4.29013
124 Ni 8.77198 8.67146 2.85668
125 Al 10.1762 10.1768 7.38447
126 Ni 8.83826 8.73349 5.75876
127 Al 10.2788 10.1923 10.1578
128 Ni 8.73833 8.66873 8.79214
ITEM: TIMESTEP
8300
ITEM: NUMBER OF ATOMS
128
ITEM: BOX BOUNDS xy xz yz pp pp pp
-4.6965889740465817e-02 1.1700682621650618e+01 -3.8759261981302563e-02
-2.5109730562107302e-03 1.1614620218798738e+01 1.1069167406759159e-01
-2.0767767591791220e-02 1.1602552087415766e+01 3.0324925918752039e-02
ITEM: ATOMS id element xu yu zu
1 Al 1.41452 1.52307 1.47631
2 Ni 0.050675 -0.0352494 0.00600352
3 Al 1.47188 1.42007 4.3167
4 Ni -0.0423195 -0.119639 2.86673
5 Al 1.52255 1.50934 7.30252
6 Ni 0.0778958 -0.0314515 5.70829
7 Al 1.62057 1.42332 10.314
8 Ni 0.0884087 0.0652592 8.73942
9 Al 1.45826 4.35899 1.46277
10 Ni -0.0669241 2.89867 0.0539537
11 Al 1.42388 4.39317 4.40891
12 Ni 0.0486068 2.89333 2.92268
13 Al 1.45713 4.33181 7.2893
14 Ni -0.0632377 2.92216 5.70101
15 Al 1.47052 4.37572 10.1796
16 Ni 0.0850496 2.82235 8.72984
17 Al 1.41016 7.33353 1.47636
18 Ni 0.0625851 5.78764 -0.0611212
19 Al 1.43469 7.20786 4.33924
20 Ni -0.0500612 5.82919 2.93733
21 Al 1.41375 7.37509 7.17101
22 Ni 0.118614 5.77583 5.76752
23 Al 1.62654 7.37694 10.1732
24 Ni 0.0113885 5.95887 8.62406
25 Al 1.50369 10.0646 1.39279
26 Ni -0.0295732 8.61301 -0.0205957
27 Al 1.51973 10.1696 4.27385
28 Ni -0.0928556 8.74698 2.90742
29 Al 1.39101 10.0819 7.16128
30 Ni 0.000943341 8.61058 5.68433
31 Al 1.46104 10.1674 10.1918
32 Ni 0.00810787 8.79353 8.62671
33 Al 4.3677 1.43912 1.5
34 Ni 2.91437 -0.0996965 0.06524
35 Al 4.42772 1.51607 4.40569
36 Ni 3.00466 0.00189192 2.92353
37 Al 4.49683 1.44908 7.2214
38 Ni 2.98574 0.00621473 5.68341
39 Al 4.48649 1.42825 10.0696
40 Ni 3.03702 -0.0932798 8.49152
41 Al 4.23728 4.39331 1.44851
42 Ni 2.89961 2.78866 0.084011
43 Al 4.23371 4.36 4.28752
44 Ni 2.77229 2.87174 2.99092
45 Al 4.42469 4.46279 7.17807
46 Ni 2.93611 2.86512 5.80838
47 Al 4.28183 4.52572 10.1462
48 Ni 2.89656 2.97005 8.78198
49 Al 4.37757 7.32668 1.44154
50 Ni 2.82108 5.91756 0.0167134
51 Al 4.50543 7.35253 4.45818
52 Ni 2.9389 6.00448 2.9466
53 Al 4.3979 7.11167 7.28292
54 Ni 2.91604 5.88988 5.87444
55 Al 4.33587 7.17783 10.1107
56 Ni 2.87589 5.78544 8.60852
57 Al 4.20559 10.1026 1.514
58 Ni 2.9952 8.6799 -0.0533609
59 Al 4.3898 10.0428 4.42978
60 Ni 2.89731 8.60959 3.02002
61 Al 4.37675 10.0175 7.23478
62 Ni 2.93943 8.71276 5.88006
63 Al 4.46259 10.2513 10.1118
64 Ni 3.03993 8.81503 8.7537
65 Al 7.12006 1.51141 1.35216
66 Ni 5.76316 -0.0643785 -0.0572692
67 Al 7.23549 1.46007 4.29613
68 Ni 5.7918 0.000533745 2.8463
69 Al 7.41599 1.57358 7.17279
70 Ni 5.84217 -0.200797 5.70174
71 Al 7.35291 1.53143 10.1031
72 Ni 5.86326 0.0980936 8.69096
73 Al 7.23871 4.33671 1.38882
74 Ni 5.65042 2.99618 -0.127453
75 Al 7.24954 4.49682 4.24307
76 Ni 5.68027 2.94655 2.77285
77 Al 7.35246 4.32735 7.25266
78 Ni 5.94202 3.09232 5.65226
79 Al 7.2027 4.44723 10.131
80 Ni 5.6016 2.93255 8.64029
81 Al 7.29164 7.26731 1.31057
82 Ni 5.81885 5.82026 -0.0230982
83 Al 7.34263 7.22468 4.26993
84 Ni 5.75994 5.92345 2.92712
85 Al 7.31153 7.21506 7.29671
86 Ni 5.9347 5.86507 5.94909
87 Al 7.29685 7.31953 10.1075
88 Ni 5.87472 5.79234 8.83292
89 Al 7.21308 10.1094 1.5114
90 Ni 5.78567 8.62827 0.0421652
91 Al 7.27724 10.1099 4.29439
92 Ni 5.82488 8.72399 2.76544
93 Al 7.296 10.174 7.37198
94 Ni 5.98832 8.65609 5.82573
95 Al 7.33999 10.1313 10.1476
96 Ni 5.88878 8.7776 8.61993
97 Al 10.1071 1.40779 1.44099
98 Ni 8.62289 0.0427121 0.0899336
99 Al 10.1692 1.40634 4.30099
100 Ni 8.71146 0.00386308 2.87693
101 Al 10.2216 1.44361 7.18396
102 Ni 8.65317 -0.0928125 5.82901
103 Al 10.3155 1.50891 10.207
104 Ni 8.74726 -0.0461247 8.87873
105 Al 10.1611 4.46329 1.25266
106 Ni 8.61565 2.78484 -0.0246354
107 Al 10.1302 4.2924 4.29871
108 Ni 8.97494 2.91869 2.85665
109 Al 10.2727 4.31864 7.28943
110 Ni 8.67949 3.01149 5.72523
111 Al 10.1966 4.36156 10.1161
112 Ni 8.7611 2.96416 8.78377
113 Al 10.1364 7.17314 1.30701
114 Ni 8.67931 5.74119 -0.11397
115 Al 10.1426 7.13965 4.3515
116 Ni 8.69794 5.78638 2.76036
117 Al 10.1025 7.21594 7.26374
118 Ni 8.71725 5.74106 5.84586
119 Al 10.0892 7.18347 10.1298
120 Ni 8.68593 5.77775 8.7123
121 Al 10.108 10.1598 1.34657
122 Ni 8.73224 8.5033 -0.126391
123 Al 10.0424 10.068 4.35492
124 Ni 8.72778 8.67276 2.90911
125 Al 10.2434 10.1912 7.29326
126 Ni 8.69023 8.6698 5.88816
127 Al 10.1928 10.1611 10.0843
128 Ni 8.77133 8.76169 8.71683
ITEM: TIMESTEP
8400
ITEM: NUMBER OF ATOMS
128
ITEM: BOX BOUNDS xy xz yz pp pp pp
-1.0632641188316036e-01 1.1606103241637021e+01 3.6515155191308153e-03
-5.5581605494285036e-02 1.1669908735647573e+01 -8.5659005589126841e-02
-4.3459642135897703e-02 1.1625243961959868e+01 3.2542810329516274e-02
ITEM: ATOMS id element xu yu zu
1 Al 1.40489 1.5847 1.30029
2 Ni -0.0230109 -0.107931 -0.0950719
3 Al 1.37882 1.41825 4.24846
4 Ni 0.00637184 -0.0256772 2.88975
5 Al 1.30932 1.40315 7.34515
6 Ni -0.188419 -0.00469648 5.85646
7 Al 1.30743 1.46272 10.1863
8 Ni -0.170936 -0.168009 8.72687
9 Al 1.48765 4.36471 1.42526
10 Ni 0.0259142 2.76659 -0.121935
11 Al 1.28387 4.29057 4.36231
12 Ni -0.0712842 2.89395 2.78886
13 Al 1.26855 4.34815 7.16416
14 Ni -0.0454752 2.83749 5.81212
15 Al 1.4292 4.42118 10.092
16 Ni -0.113206 3.05123 8.75204
17 Al 1.49182 7.29665 1.38526
18 Ni -0.0335364 6.00665 0.0139352
19 Al 1.47935 7.26011 4.32018
20 Ni 0.100502 5.88015 2.84915
21 Al 1.34047 7.27297 7.06663
22 Ni -0.112797 5.92305 5.74255
23 Al 1.43629 7.36078 10.1912
24 Ni 0.0304941 5.69722 8.75901
25 Al 1.51515 10.1916 1.43347
26 Ni -0.00556362 8.73252 0.0880225
27 Al 1.39351 10.1987 4.33788
28 Ni 0.0612087 8.58671 2.93477
29 Al 1.33183 10.0782 7.32802
30 Ni -0.138063 8.79228 5.87993
31 Al 1.26423 10.1726 10.2823
32 Ni -0.101005 8.71976 8.61156
33 Al 4.32078 1.45999 1.45299
34 Ni 2.88975 -0.0497907 -0.09431
35 Al 4.22166 1.4791 4.27909
36 Ni 2.79438 -0.0270262 2.85829
37 Al 4.20833 1.35266 7.29797
38 Ni 2.69598 -0.123329 5.85799
39 Al 4.35881 1.48996 10.1594
40 Ni 2.82085 0.0158049 8.88615
41 Al 4.35845 4.30711 1.4158
42 Ni 2.82499 3.03291 -0.0954533
43 Al 4.19737 4.16897 4.36131
44 Ni 2.9483 2.89039 2.79789
45 Al 4.19716 4.38324 7.22604
46 Ni 2.71349 2.89241 5.77972
47 Al 4.29201 4.27607 10.0245
48 Ni 2.7819 2.81375 8.56336
49 Al 4.3028 7.26426 1.38995
50 Ni 2.9492 5.73438 -0.147153
51 Al 4.33428 7.31793 4.31743
52 Ni 2.86236 5.62822 2.91834
53 Al 4.36072 7.14357 7.16013
54 Ni 2.84885 5.78353 5.76907
55 Al 4.29109 7.12415 10.1682
56 Ni 2.95248 5.9693 8.85234
57 Al 4.33183 10.22 1.44642
58 Ni 2.82724 8.79799 0.0259086
59 Al 4.291 10.3153 4.38771
60 Ni 2.99277 8.75383 2.7259
61 Al 4.24939 10.2033 7.2613
62 Ni 2.93835 8.80005 5.75444
63 Al 4.26905 10.1981 10.1632
64 Ni 2.8035 8.71725 8.6367
65 Al 7.35535 1.34222 1.45067
66 Ni 5.76235 0.118879 0.0446951
67 Al 7.24029 1.36667 4.35472
68 Ni 5.80126 0.0535175 2.86556
69 Al 7.26784 1.44112 7.31637
70 Ni 5.92611 0.147768 5.73406
71 Al 7.22584 1.58572 10.2206
72 Ni 5.67882 -0.119967 8.78562
73 Al 7.20452 4.32289 1.41422
74 Ni 5.76857 2.82512 0.0899705
75 Al 7.24795 4.27423 4.45336
76 Ni 5.84767 2.814 3.03808
77 Al 7.1692 4.27623 7.14786
78 Ni 5.64124 2.62667 5.94606
79 Al 7.14266 4.47459 10.1288
80 Ni 5.76813 2.80542 8.71927
81 Al 7.09534 7.24915 1.36913
82 Ni 5.76191 5.68934 -0.0718757
83 Al 7.17891 7.1828 4.32364
84 Ni 5.76281 5.62622 2.92046
85 Al 7.23585 7.31639 7.23519
86 Ni 5.64453 5.68034 5.65299
87 Al 7.15431 7.24884 10.1852
88 Ni 5.68693 5.8434 8.63492
89 Al 7.16703 10.2319 1.47782
90 Ni 5.8545 8.72036 -0.0391577
91 Al 7.25368 10.1678 4.3646
92 Ni 5.68773 8.59635 2.93535
93 Al 7.21427 10.1476 7.26077
94 Ni 5.6281 8.82431 5.73528
95 Al 7.22534 10.1798 10.0578
96 Ni 5.85648 8.67388 8.84505
97 Al 10.1096 1.46464 1.37045
98 Ni 8.72261 -0.095357 -0.160168
99 Al 10.1574 1.54621 4.26246
100 Ni 8.75164 -0.149237 2.87344
101 Al 10.1593 1.4427 7.19935
102 Ni 8.71883 0.114972 5.64854
103 Al 10.1251 1.50582 10.1155
104 Ni 8.67995 -0.00524465 8.63081
105 Al 10.2094 4.48121 1.29699
106 Ni 8.86001 3.06424 -0.0592675
107 Al 10.1078 4.27722 4.25127
108 Ni 8.52045 2.91316 2.82499
109 Al 10.1284 4.37655 7.29956
110 Ni 8.71762 2.78522 5.88997
111 Al 10.1142 4.47985 10.2004
112 Ni 8.69139 2.852 8.67064
113 Al 9.9957 7.23956 1.39635
114 Ni 8.65082 5.79549 0.0531487
115 Al 10.1368 7.27594 4.27887
116 Ni 8.64934 5.75421 3.00798
117 Al 10.0404 7.20162 7.29621
118 Ni 8.58991 5.79925 5.78254
119 Al 9.88867 7.29769 10.2786
120 Ni 8.73664 5.76321 8.69651
121 Al 10.222 10.3088 1.39111
122 Ni 8.60643 8.78693 0.0927337
123 Al 10.1367 10.1746 4.21609
124 Ni 8.54219 8.6943 2.81231
125 Al 10.0905 10.2022 7.2213
126 Ni 8.6442 8.7073 5.71297
127 Al 10.0351 10.149 10.0229
128 Ni 8.6874 8.68476 8.66705
ITEM: TIMESTEP
8500
ITEM: NUMBER OF ATOMS
128
ITEM: BOX BOUNDS xy xz yz pp pp pp
-6.8217801766257455e-02 1.1610965518721370e+01 3.0068334587317690e-02
-1.3129693958777677e-01 1.1654002015465377e+01 -6.9104937456062263e-02
3.5270200282688791e-03 1.1578257299795700e+01 -5.9079243946147844e-02
ITEM: ATOMS id element xu yu zu
1 Al 1.38131 1.46644 1.29178
2 Ni -0.0273355 -0.0203284 0.0281983
3 Al 1.41682 1.37268 4.26591
4 Ni -0.107231 -0.0233423 2.86793
5 Al 1.38014 1.41489 7.23972
6 Ni 0.0516902 -0.18345 5.73316
7 Al 1.21898 1.33093 10.0886
8 Ni -0.0624171 -0.170635 8.66635
9 Al 1.52844 4.26005 1.48283
10 Ni -0.0662868 3.00576 0.000385976
11 Al 1.47712 4.20613 4.33682
12 Ni 0.00903771 2.82347 2.97081
13 Al 1.29007 4.23078 7.18134
14 Ni -0.00543738 2.913 5.86024
15 Al 1.40509 4.3377 10.0975
16 Ni 0.00242949 2.7691 8.59873
17 Al 1.48724 7.22243 1.42536
18 Ni -0.124008 5.66306 0.0525537
19 Al 1.40153 7.17044 4.28893
20 Ni -0.078159 5.70393 2.91916
21 Al 1.37832 7.19024 7.15983
22 Ni 0.113389 5.69941 5.78867
23 Al 1.56254 7.11544 10.1629
24 Ni -0.215231 5.98107 8.66256
25 Al 1.551 10.136 1.34737
26 Ni 0.116499 8.6473 -0.0394243
27 Al 1.45753 10.2503 4.29415
28 Ni 0.0657323 8.8176 2.76186
29 Al 1.40678 10.0148 7.26691
30 Ni 0.104474 8.63623 5.6886
31 Al 1.41442 10.1137 10.2079
32 Ni 0.00906002 8.67496 8.80646
33 Al 4.38691 1.33054 1.31825
34 Ni 2.81308 -0.056472 0.0151954
35 Al 4.35319 1.43013 4.16705
36 Ni 2.84887 -0.0290755 2.85594
37 Al 4.30037 1.45494 7.26654
38 Ni 2.9334 -0.0106038 5.75447
39 Al 4.2995 1.28041 10.0918
40 Ni 2.79362 -0.140687 8.55872
41 Al 4.37866 4.25486 1.40759
42 Ni 2.92527 2.74057 0.00253631
43 Al 4.3048 4.20268 4.36634
44 Ni 2.78952 2.7992 2.86656
45 Al 4.26717 4.28004 7.30836
46 Ni 2.9371 2.78187 5.89891
47 Al 4.3655 4.25078 10.1183
48 Ni 2.87 2.83203 8.89956
49 Al 4.38022 7.31146 1.52053
50 Ni 3.06588 5.82608 0.0605094
51 Al 4.26773 7.36054 4.34975
52 Ni 2.95708 5.66642 2.82264
53 Al 4.32657 7.21749 7.20945
54 Ni 2.88281 5.62644 5.77487
55 Al 4.40758 6.9669 10.0399
56 Ni 2.93625 5.61395 8.5795
57 Al 4.30988 10.1718 1.43154
58 Ni 2.97666 8.65378 0.0543867
59 Al 4.27809 10.1732 4.31899
60 Ni 2.75151 8.81751 2.93423
61 Al 4.15585 10.1806 7.14543
62 Ni 2.79915 8.73369 5.74216
63 Al 4.32952 10.2129 10.0244
64 Ni 2.85022 8.65914 8.78377
65 Al 7.16719 1.39227 1.47173
66 Ni 5.88992 -0.135242 -0.0561239
67 Al 7.1404 1.28668 4.47474
68 Ni 5.79292 -0.00242854 2.93171
69 Al 7.14533 1.3409 7.16389
70 Ni 5.57009 -0.295713 5.85509
71 Al 7.18642 1.2976 10.127
72 Ni 5.87001 -0.0954935 8.64869
73 Al 7.21397 4.25723 1.52066
74 Ni 5.93252 2.83131 -0.219173
75 Al 7.3248 4.30497 4.34361
76 Ni 5.70072 2.79747 2.75311
77 Al 7.29597 4.29206 7.16193
78 Ni 5.86495 2.98291 5.78195
79 Al 7.25208 4.33977 10.1835
80 Ni 5.90927 2.78876 8.65919
81 Al 7.18061 7.34568 1.47339
82 Ni 5.88822 5.80891 0.0281273
83 Al 7.0851 7.21672 4.40093
84 Ni 5.76571 5.74518 2.92867
85 Al 7.20923 7.25238 7.29749
86 Ni 5.7359 5.71783 5.93923
87 Al 7.13017 7.17129 10.2308
88 Ni 5.78573 5.73085 8.70019
89 Al 7.30459 10.2526 1.4599
90 Ni 5.79937 8.76726 0.120086
91 Al 7.31036 10.2113 4.41137
92 Ni 5.78844 8.87218 2.86462
93 Al 7.30929 10.0814 7.25227
94 Ni 5.67981 8.74253 5.75806
95 Al 7.21737 9.9714 10.0545
96 Ni 5.63802 8.87104 8.53252
97 Al 10.1685 1.46951 1.48072
98 Ni 8.77213 -0.0916709 0.163871
99 Al 10.1999 1.43066 4.49968
100 Ni 8.59621 0.0421347 2.90826
101 Al 10.0467 1.35383 7.17763
102 Ni 8.69564 -0.263871 5.94793
103 Al 9.98591 1.40912 10.1038
104 Ni 8.64842 -0.222817 8.75868
105 Al 10.0871 4.29847 1.40207
106 Ni 8.67026 2.76243 0.0446758
107 Al 10.2513 4.36096 4.29866
108 Ni 8.83745 2.79041 2.98942
109 Al 10.1301 4.39946 7.39693
110 Ni 8.72573 2.90656 5.73852
111 Al 10.0323 4.36042 10.0754
112 Ni 8.72453 2.94245 8.6495
113 Al 10.123 7.1828 1.37447
114 Ni 8.75863 5.79494 0.0339337
115 Al 10.1856 7.30088 4.24774
116 Ni 8.63113 5.82228 2.89999
117 Al 10.0088 7.25815 7.16252
118 Ni 8.67827 5.82617 5.69049
119 Al 9.93467 7.24613 10.2079
120 Ni 8.55925 5.88133 8.69475
121 Al 10.1223 10.1839 1.51874
122 Ni 8.62698 8.65818 0.0141069
123 Al 10.1466 10.2164 4.29562
124 Ni 8.62326 8.72855 3.03235
125 Al 10.2208 9.99162 7.39458
126 Ni 8.61928 8.66972 5.78899
127 Al 10.0855 10.11 10.1305
128 Ni 8.41444 8.60147 8.67656
ITEM: TIMESTEP
8600
ITEM: NUMBER OF ATOMS
128
ITEM: BOX BOUNDS xy xz yz pp pp pp
-3.5094301703576178e-02 1.1687944953122976e+01 -2.1429826191180158e-02
-9.9616347336236602e-02 1.1667428765946738e+01 9.2496157786713343e-02
1.5691628102127986e-02 1.1566092691721826e+01 -1.3971901213239117e-02
ITEM: ATOMS id element xu yu zu
1 Al 1.43201 1.34956 1.48992
2 Ni 0.0378432 -0.09404 0.00448014
3 Al 1.42364 1.43894 4.31689
4 Ni 0.00150006 -0.199904 2.9401
5 Al 1.43739 1.5186 7.25109
6 Ni -0.0237587 -0.0564196 5.89394
7 Al 1.41744 1.41748 10.1297
8 Ni 0.132934 -0.105255 8.70727
9 Al 1.48962 4.1638 1.52757
10 Ni -0.0802782 2.72748 0.0106641
11 Al 1.48876 4.35171 4.30325
12 Ni -0.0153836 2.91316 2.97202
13 Al 1.37996 4.28347 7.07669
14 Ni -0.0356675 2.79604 5.74062
15 Al 1.53251 4.20256 10.1135
16 Ni -0.0634115 2.87419 8.75126
17 Al 1.46113 7.32764 1.46873
18 Ni 0.0414019 5.82497 0.00575531
19 Al 1.42744 7.23088 4.42861
20 Ni 0.0308603 5.73842 2.85147
21 Al 1.48164 7.23914 7.29518
22 Ni -0.00783291 5.8257 5.83412
23 Al 1.52279 7.30748 10.2349
24 Ni 0.199985 5.54902 8.69922
25 Al 1.44801 10.08 1.45247
26 Ni -0.129212 8.73798 0.0784492
27 Al 1.5072 10.2022 4.30207
28 Ni -0.0546423 8.64 3.01045
29 Al 1.58031 10.2016 7.16904
30 Ni 0.0928927 8.75285 5.72702
31 Al 1.5362 10.2079 10.1062
32 Ni 0.0961365 8.70318 8.71528
33 Al 4.34112 1.45945 1.52747
34 Ni 2.93364 -0.0387682 0.0783036
35 Al 4.43459 1.34536 4.22158
36 Ni 3.01823 0.0134976 2.96637
37 Al 4.3525 1.4686 7.23527
38 Ni 2.94454 -0.0517822 5.84597
39 Al 4.37473 1.48863 10.2104
40 Ni 3.02259 -0.0714483 8.71815
41 Al 4.27494 4.374 1.52038
42 Ni 2.92384 2.89828 -0.0177137
43 Al 4.32279 4.31513 4.38273
44 Ni 3.00827 2.8591 2.94916
45 Al 4.30873 4.41305 7.29915
46 Ni 2.93152 2.96687 5.7553
47 Al 4.41688 4.39032 10.1522
48 Ni 2.97051 2.81454 8.53255
49 Al 4.35604 7.27368 1.36998
50 Ni 2.75211 5.75612 -0.017768
51 Al 4.34738 7.26782 4.30318
52 Ni 2.87232 5.8946 2.84438
53 Al 4.3793 7.22956 7.22784
54 Ni 2.93868 5.83006 5.88336
55 Al 4.46754 7.15272 10.1537
56 Ni 2.91545 5.87651 8.92494
57 Al 4.2561 10.1123 1.48948
58 Ni 2.73219 8.82327 0.0412412
59 Al 4.24279 10.1059 4.32952
60 Ni 2.93381 8.55976 2.87035
61 Al 4.41604 10.2712 7.04483
62 Ni 2.92671 8.55665 5.72498
63 Al 4.37325 10.2751 10.0589
64 Ni 2.89955 8.73902 8.66091
65 Al 7.26721 1.33794 1.50593
66 Ni 5.68494 -0.0289237 0.0630307
67 Al 7.29642 1.35307 4.32344
68 Ni 5.78751 -0.162202 2.88376
69 Al 7.23647 1.33077 7.18435
70 Ni 6.04341 0.0891269 5.75366
71 Al 7.15694 1.35689 10.0352
72 Ni 5.6836 -0.16658 8.65696
73 Al 7.18656 4.2924 1.49468
74 Ni 5.73448 2.86066 0.145142
75 Al 7.33414 4.41022 4.32182
76 Ni 5.83606 2.89494 2.93863
77 Al 7.2968 4.30669 7.17886
78 Ni 5.89503 2.84736 5.68947
79 Al 7.24529 4.27488 10.2191
80 Ni 5.8134 2.89948 8.75078
81 Al 7.21487 7.38876 1.38966
82 Ni 5.73531 5.8705 0.00604822
83 Al 7.31302 7.33134 4.3069
84 Ni 5.81253 5.86424 2.75176
85 Al 7.36267 7.27855 7.32996
86 Ni 5.8756 5.84663 5.5466
87 Al 7.42218 7.20195 10.1198
88 Ni 5.79839 5.79108 8.73138
89 Al 7.23604 10.214 1.38145
90 Ni 5.76379 8.76979 0.0394155
91 Al 7.30021 10.2213 4.34448
92 Ni 5.7581 8.68487 2.96297
93 Al 7.37061 10.038 7.23799
94 Ni 5.76458 8.61606 5.74029
95 Al 7.33939 10.0466 10.0022
96 Ni 5.80342 8.50235 8.73971
97 Al 10.1787 1.30508 1.49885
98 Ni 8.6029 -0.0320448 -0.165323
99 Al 10.1537 1.39499 4.47368
100 Ni 8.80858 -0.254782 2.96756
101 Al 10.1344 1.41209 7.23122
102 Ni 8.69986 -0.140579 5.74219
103 Al 10.1332 1.29418 10.1355
104 Ni 8.82081 -0.190783 8.53772
105 Al 10.1548 4.31288 1.34824
106 Ni 8.70719 2.85474 -0.0530899
107 Al 10.2037 4.38654 4.29652
108 Ni 8.62825 2.87939 2.90952
109 Al 10.212 4.32778 7.38842
110 Ni 8.61385 2.92101 5.7721
111 Al 10.1112 4.30547 10.1725
112 Ni 8.74572 2.75529 8.68895
113 Al 10.1624 7.07455 1.35659
114 Ni 8.52698 5.88228 -0.0439238
115 Al 10.1472 7.25848 4.37308
116 Ni 8.7559 5.7971 2.87947
117 Al 10.2857 7.24448 7.2547
118 Ni 8.70514 5.89373 5.88684
119 Al 10.1941 7.12819 10.1308
120 Ni 8.82564 5.81696 8.62922
121 Al 10.1277 10.249 1.45959
122 Ni 8.69631 8.7146 -0.0193859
123 Al 10.1707 10.1342 4.36185
124 Ni 8.79516 8.70918 2.7964
125 Al 10.2871 10.1354 7.3164
126 Ni 8.77025 8.67493 5.87872
127 Al 10.3116 10.2186 10.1188
128 Ni 8.99419 8.73884 8.69835
ITEM: TIMESTEP
8700
ITEM: NUMBER OF ATOMS
128
ITEM: BOX BOUNDS xy xz yz pp pp pp
-6.3455381311818243e-02 1.1639226689991180e+01 -4.1277284053310083e-02
-6.0468519509016438e-02 1.1716297188224305e+01 3.5264272908797044e-02
-8.3114619511581722e-03 1.1590095781775105e+01 7.4044348891545764e-02
ITEM: ATOMS id element xu yu zu
1 Al 1.45151 1.37268 1.59843
2 Ni 0.0883923 0.0359317 0.0438073
3 Al 1.41907 1.54113 4.30815
4 Ni -0.0308804 0.10295 2.92355
5 Al 1.55756 1.51666 7.25392
6 Ni 0.0405702 0.060971 5.59801
7 Al 1.54856 1.51 10.2088
8 Ni 0.00248956 0.074618 8.63644
9 Al 1.3395 4.28586 1.51656
10 Ni 0.0660643 2.80946 0.0160242
11 Al 1.34079 4.3217 4.32871
12 Ni -0.137323 2.81792 2.7563
13 Al 1.44867 4.36197 7.24247
14 Ni -0.0271937 2.89243 5.74695
15 Al 1.4801 4.3771 10.1672
16 Ni 0.141165 2.78837 8.60491
17 Al 1.48549 7.33247 1.47913
18 Ni -0.0939278 5.77179 -0.101658
19 Al 1.4001 7.34451 4.40687
20 Ni -0.137497 5.87307 2.91753
21 Al 1.40834 7.27077 7.23251
22 Ni -0.0137056 5.70447 5.76851
23 Al 1.42118 7.24628 10.1429
24 Ni -0.0803182 5.87433 8.70249
25 Al 1.38184 10.185 1.41207
26 Ni 0.0819667 8.88321 -0.0566857
27 Al 1.31779 10.1133 4.43402
28 Ni 0.0223538 8.82149 2.81839
29 Al 1.38156 10.3012 7.17222
30 Ni -0.128732 8.65787 5.91662
31 Al 1.45056 10.2708 10.0563
32 Ni -0.0884799 8.96306 8.61519
33 Al 4.34332 1.40462 1.54323
34 Ni 2.86291 -0.0697728 0.017352
35 Al 4.33977 1.39362 4.23826
36 Ni 2.82154 -0.171407 3.02633
37 Al 4.37303 1.38927 7.27591
38 Ni 2.91584 -0.096448 5.70714
39 Al 4.39654 1.51115 10.2747
40 Ni 2.90016 -0.0454705 8.5813
41 Al 4.31643 4.3424 1.49128
42 Ni 2.84477 2.83025 0.211542
43 Al 4.31023 4.36656 4.36524
44 Ni 2.86149 2.99511 2.93432
45 Al 4.32698 4.33234 7.1573
46 Ni 2.88968 2.90117 5.77709
47 Al 4.33145 4.46339 10.1475
48 Ni 2.99235 2.91838 8.69676
49 Al 4.33444 7.19838 1.53381
50 Ni 2.8614 5.77436 0.0506002
51 Al 4.32802 7.37441 4.36878
52 Ni 2.7704 5.64215 2.90622
53 Al 4.2793 7.26866 7.25278
54 Ni 2.80932 5.753 5.64568
55 Al 4.33348 7.27372 10.137
56 Ni 2.90227 5.76637 8.51312
57 Al 4.34742 10.2015 1.48996
58 Ni 2.83839 8.80319 0.141866
59 Al 4.29797 10.1274 4.30901
60 Ni 2.84145 8.92867 2.96789
61 Al 4.33388 10.272 7.26597
62 Ni 2.96644 8.85302 5.88507
63 Al 4.36378 10.417 10.151
64 Ni 2.86122 8.72131 8.64965
65 Al 7.15364 1.38034 1.4766
66 Ni 5.82793 -0.0424055 -0.0122672
67 Al 7.17284 1.42675 4.43677
68 Ni 5.91422 -0.0495269 2.96058
69 Al 7.24377 1.44538 7.02145
70 Ni 5.73651 -0.204458 5.80219
71 Al 7.26551 1.58151 10.109
72 Ni 5.92713 0.0941627 8.69623
73 Al 7.18816 4.25626 1.41391
74 Ni 5.69553 2.86978 -0.00564957
75 Al 7.22616 4.324 4.36062
76 Ni 5.79761 2.91054 2.86428
77 Al 7.35294 4.37103 7.26526
78 Ni 5.79439 2.94488 5.84149
79 Al 7.1772 4.34692 10.2518
80 Ni 5.70624 2.92795 8.62872
81 Al 7.29278 7.21488 1.28197
82 Ni 5.73923 5.75872 -0.0433682
83 Al 7.2674 7.26358 4.38117
84 Ni 5.87949 5.81364 2.96809
85 Al 7.29732 7.33774 7.2822
86 Ni 5.80167 5.84419 5.95617
87 Al 7.35274 7.27019 10.1199
88 Ni 5.70465 5.90791 8.77785
89 Al 7.16976 10.0547 1.40649
90 Ni 5.79841 8.62171 -0.0589355
91 Al 7.29292 10.2763 4.39118
92 Ni 5.80513 8.654 2.75706
93 Al 7.23514 10.2439 7.26165
94 Ni 5.86581 8.72922 5.85147
95 Al 7.1666 10.2377 10.154
96 Ni 5.81623 8.87414 8.65516
97 Al 10.1266 1.27832 1.31445
98 Ni 8.64934 -0.120282 0.0747345
99 Al 10.0878 1.42177 4.3219
100 Ni 8.58518 -0.0678614 2.81006
101 Al 10.2662 1.40174 7.25687
102 Ni 8.70755 0.0698346 5.80835
103 Al 10.2626 1.37419 10.1811
104 Ni 8.5737 0.197583 8.76962
105 Al 10.1978 4.4033 1.41261
106 Ni 8.63498 2.85267 0.00496956
107 Al 10.1257 4.31243 4.22072
108 Ni 8.71633 2.97154 2.75124
109 Al 10.271 4.3302 7.38758
110 Ni 8.73915 2.75393 5.78407
111 Al 10.1973 4.17973 10.1229
112 Ni 8.63303 3.03969 8.72432
113 Al 10.2241 7.32371 1.39661
114 Ni 8.90676 5.68844 -0.073365
115 Al 10.2175 7.29328 4.43983
116 Ni 8.66615 5.82032 2.80153
117 Al 10.0782 7.21403 7.31875
118 Ni 8.70335 5.69854 5.79448
119 Al 10.1123 7.3786 10.175
120 Ni 8.71804 5.75683 8.79917
121 Al 10.1081 10.1979 1.44207
122 Ni 8.69307 8.83181 -0.107009
123 Al 10.1259 10.1565 4.25033
124 Ni 8.61624 8.75156 2.91694
125 Al 9.93929 10.2611 7.25979
126 Ni 8.75895 8.67423 5.78676
127 Al 10.1678 10.2905 10.0305
128 Ni 8.58133 8.70192 8.63414
ITEM: TIMESTEP
8800
ITEM: NUMBER OF ATOMS
128
ITEM: BOX BOUNDS xy xz yz pp pp pp
-1.0877160389157767e-01 1.1614844251177278e+01 1.6803669696070229e-02
-1.1512357635652393e-03 1.1600126510782525e+01 -9.2515342234257586e-02
-3.0545353737738701e-02 1.1612329673561684e+01 1.7190955195222860e-02
ITEM: ATOMS id element xu yu zu
1 Al 1.38372 1.42631 1.41129
2 Ni -0.0889195 -0.0949924 -0.0731685
3 Al 1.3897 1.37341 4.35428
4 Ni -0.103687 -0.138489 2.80941
5 Al 1.41387 1.50008 7.30393
6 Ni -0.218755 -0.0203276 5.89852
7 Al 1.39864 1.42937 10.1972
8 Ni -0.122946 -0.0392452 8.77334
9 Al 1.47935 4.31453 1.48885
10 Ni 0.0246173 2.96809 -0.0871377
11 Al 1.50381 4.38626 4.39839
12 Ni 0.151296 2.89021 2.98753
13 Al 1.41453 4.38309 7.28853
14 Ni -0.0522815 2.85338 5.82599
15 Al 1.38118 4.36343 10.2049
16 Ni -0.107677 2.93547 8.72424
17 Al 1.36508 7.35564 1.32261
18 Ni 0.115545 5.8285 -0.0236029
19 Al 1.35947 7.18674 4.36071
20 Ni -0.00828155 5.76997 2.84834
21 Al 1.38509 7.22369 7.20047
22 Ni -0.121566 5.92789 5.74031
23 Al 1.31293 7.22529 10.1289
24 Ni -0.000496828 5.90234 8.67182
25 Al 1.43219 10.0615 1.42862
26 Ni -0.126255 8.58524 -0.0463196
27 Al 1.44824 10.1026 4.33698
28 Ni -0.131163 8.60785 2.87388
29 Al 1.38777 10.1131 7.27754
30 Ni -0.0799583 8.82563 5.62272
31 Al 1.33346 10.0649 10.2516
32 Ni -0.0401326 8.60899 8.77233
33 Al 4.33298 1.56087 1.35495
34 Ni 2.95858 -0.0513394 -0.0737583
35 Al 4.32795 1.45061 4.314
36 Ni 3.0445 0.0749097 2.73422
37 Al 4.3089 1.36641 7.32331
38 Ni 2.90083 -0.0318735 5.77901
39 Al 4.31506 1.37265 10.1617
40 Ni 2.77439 -0.0183407 8.70116
41 Al 4.2883 4.33824 1.39945
42 Ni 2.96554 2.89834 -0.193048
43 Al 4.19873 4.37732 4.24702
44 Ni 2.89098 2.76068 2.81992
45 Al 4.2732 4.25891 7.21513
46 Ni 2.87632 2.93075 5.70331
47 Al 4.30923 4.38408 10.1104
48 Ni 2.70007 2.87914 8.66988
49 Al 4.2902 7.27023 1.51633
50 Ni 2.94438 5.86954 -0.0109917
51 Al 4.35319 7.33732 4.43319
52 Ni 2.95566 5.969 2.96976
53 Al 4.25358 7.18562 7.26858
54 Ni 2.86388 5.83837 5.90683
55 Al 4.32534 7.08314 10.1048
56 Ni 2.74358 5.91522 8.76381
57 Al 4.34833 10.1094 1.47784
58 Ni 2.99394 8.5633 -0.176574
59 Al 4.19287 10.1237 4.34572
60 Ni 2.79107 8.52433 2.90377
61 Al 4.30917 10.1312 7.20245
62 Ni 2.69396 8.63127 5.65271
63 Al 4.29511 10.1501 10.2177
64 Ni 2.8374 8.77299 8.65022
65 Al 7.1871 1.47914 1.47918
66 Ni 5.70635 -0.103293 -0.0711529
67 Al 7.21808 1.4378 4.42128
68 Ni 5.70781 0.00746702 2.81952
69 Al 7.26833 1.49603 7.11941
70 Ni 5.83577 0.156006 5.79356
71 Al 7.22099 1.48404 10.1196
72 Ni 5.60375 -0.0968811 8.72611
73 Al 7.24962 4.36505 1.33149
74 Ni 5.84413 2.99358 -0.00898441
75 Al 7.14597 4.33342 4.20185
76 Ni 5.7154 2.84699 2.8596
77 Al 7.30592 4.35811 7.24035
78 Ni 5.78789 2.90118 5.7196
79 Al 7.21251 4.34364 10.1764
80 Ni 5.72352 2.88475 8.81362
81 Al 7.14412 7.23678 1.43016
82 Ni 5.69793 5.83493 0.00498038
83 Al 7.23309 7.19194 4.39202
84 Ni 5.73937 5.82436 2.84279
85 Al 7.28314 7.36568 7.27223
86 Ni 5.74311 5.71614 5.69567
87 Al 7.13974 7.33287 10.1139
88 Ni 5.74245 5.6633 8.63349
89 Al 7.24414 10.1297 1.43607
90 Ni 5.75451 8.68794 0.110876
91 Al 7.20682 10.2365 4.32867
92 Ni 5.82207 8.68616 2.99545
93 Al 7.13 10.1739 7.29404
94 Ni 5.74637 8.68422 5.82216
95 Al 7.16749 10.2085 10.2082
96 Ni 5.79332 8.58803 8.6335
97 Al 10.2657 1.42958 1.34459
98 Ni 8.71762 0.134312 -0.0620895
99 Al 10.1638 1.42411 4.37674
100 Ni 8.72137 0.0814328 2.95012
101 Al 10.1909 1.45397 7.28417
102 Ni 8.62719 0.0122569 5.80096
103 Al 10.229 1.45713 10.1851
104 Ni 8.7627 -0.0660135 8.69644
105 Al 10.1428 4.49156 1.51436
106 Ni 8.71592 3.01286 -0.0439371
107 Al 10.1647 4.34039 4.29314
108 Ni 8.71965 2.88012 2.9952
109 Al 10.1637 4.40851 7.25492
110 Ni 8.55926 3.0806 5.77593
111 Al 10.0922 4.42948 10.0819
112 Ni 8.66561 2.84875 8.77057
113 Al 10.0991 7.21116 1.43063
114 Ni 8.56859 5.87212 -0.0706694
115 Al 10.1357 7.2956 4.41634
116 Ni 8.70538 5.76159 2.95747
117 Al 10.1498 7.32304 7.23329
118 Ni 8.70551 5.88515 5.79684
119 Al 9.93631 7.20232 10.1631
120 Ni 8.69128 5.83357 8.6477
121 Al 10.0431 10.1171 1.41285
122 Ni 8.65194 8.59014 0.034498
123 Al 10.0748 10.0841 4.26324
124 Ni 8.69812 8.68957 2.8375
125 Al 9.96774 10.065 7.33967
126 Ni 8.56645 8.78292 5.86744
127 Al 10.073 10.0758 10.1395
128 Ni 8.67755 8.75933 8.79223
ITEM: TIMESTEP
8900
ITEM: NUMBER OF ATOMS
128
ITEM: BOX BOUNDS xy xz yz pp pp pp
-4.0768389940564476e-02 1.1649351171835020e+01 3.4049378976991576e-02
-7.8364298981406344e-02 1.1596642170142532e+01 -7.2509169064390285e-03
-5.9550942955807429e-02 1.1641335262779757e+01 -6.3506448662602411e-02
ITEM: ATOMS id element xu yu zu
1 Al 1.43538 1.54627 1.34015
2 Ni -0.0354746 0.0102696 -0.00809499
3 Al 1.40647 1.4804 4.25546
4 Ni -0.0182321 0.113475 2.77738
5 Al 1.34427 1.40479 7.37247
6 Ni 0.142252 -0.00109424 5.6914
7 Al 1.36751 1.41731 10.1143
8 Ni -0.0355282 -0.166236 8.74113
9 Al 1.41631 4.35213 1.35224
10 Ni -0.00884399 2.86526 -0.0708137
11 Al 1.535 4.26902 4.37301
12 Ni -0.0601777 2.90408 2.82706
13 Al 1.46729 4.23374 7.35722
14 Ni 0.004454 2.85448 5.77253
15 Al 1.41855 4.25482 10.1392
16 Ni -0.131788 2.90484 8.74557
17 Al 1.39974 7.27576 1.45893
18 Ni -0.112164 5.72644 0.0831336
19 Al 1.51413 7.21901 4.36892
20 Ni 0.044631 5.74772 2.89912
21 Al 1.45608 7.02435 7.30086
22 Ni 0.0292544 5.76207 5.88297
23 Al 1.35081 7.14619 10.1474
24 Ni -0.150841 5.72171 8.66703
25 Al 1.42285 10.1671 1.48229
26 Ni 0.0107412 8.62881 0.124607
27 Al 1.52767 10.058 4.43647
28 Ni 0.0310375 8.77213 2.84436
29 Al 1.56473 10.0076 7.32797
30 Ni 0.0593216 8.57483 5.82973
31 Al 1.37584 10.0394 10.2386
32 Ni -0.0493072 8.67991 8.72952
33 Al 4.26505 1.42659 1.45604
34 Ni 2.83351 -0.0510682 -0.0575802
35 Al 4.33309 1.39315 4.33888
36 Ni 2.69178 -0.0633577 2.85354
37 Al 4.31021 1.32147 7.27227
38 Ni 2.79507 0.0433824 5.86711
39 Al 4.27657 1.28773 10.2246
40 Ni 2.90639 -0.0257583 8.73503
41 Al 4.39625 4.22846 1.33012
42 Ni 2.76298 2.96155 -0.0835289
43 Al 4.34598 4.25093 4.35559
44 Ni 2.86921 2.91841 2.92758
45 Al 4.31511 4.3285 7.26293
46 Ni 2.74652 2.74035 5.94886
47 Al 4.49423 4.26513 10.1936
48 Ni 2.98553 2.84989 8.76662
49 Al 4.32993 7.17145 1.41784
50 Ni 2.90918 5.7555 -0.154967
51 Al 4.25357 7.22634 4.23553
52 Ni 2.89459 5.53828 2.81388
53 Al 4.27517 7.26425 7.15683
54 Ni 2.87345 5.76841 5.73252
55 Al 4.30289 7.12353 10.1957
56 Ni 2.99139 5.75198 8.59981
57 Al 4.49728 10.2525 1.35207
58 Ni 2.84006 8.75093 0.0746621
59 Al 4.32481 10.271 4.36173
60 Ni 3.03535 8.86253 2.87207
61 Al 4.4371 10.1824 7.30892
62 Ni 3.07278 8.76493 5.78259
63 Al 4.38225 10.1781 10.2687
64 Ni 2.88114 8.49763 8.72232
65 Al 7.21948 1.50172 1.45559
66 Ni 5.85236 0.0250687 -0.0352103
67 Al 7.22616 1.31612 4.44378
68 Ni 5.80175 0.0204471 2.84509
69 Al 7.20657 1.34242 7.17842
70 Ni 5.73596 -0.0710053 5.86917
71 Al 7.21434 1.36429 10.2154
72 Ni 5.82512 -0.0624734 8.65827
73 Al 7.24153 4.26873 1.36062
74 Ni 5.82363 2.84557 -0.0885516
75 Al 7.28638 4.23112 4.35208
76 Ni 5.77133 2.83722 2.85494
77 Al 7.2698 4.27213 7.19376
78 Ni 5.78923 2.83849 5.84378
79 Al 7.32074 4.23218 10.1736
80 Ni 5.85393 2.94515 8.65924
81 Al 7.17224 7.23175 1.41233
82 Ni 5.89807 5.67394 -0.0265132
83 Al 7.16891 7.1136 4.32408
84 Ni 5.72335 5.69707 2.92655
85 Al 7.21449 7.32997 7.20474
86 Ni 5.70493 5.75996 5.78911
87 Al 7.25647 7.22568 10.1823
88 Ni 5.78661 5.9151 8.68859
89 Al 7.28286 10.1594 1.37037
90 Ni 5.9189 8.73021 -0.244157
91 Al 7.36168 10.1906 4.2554
92 Ni 5.76106 8.74205 2.80606
93 Al 7.33201 10.0588 7.12968
94 Ni 5.85013 8.74976 5.72299
95 Al 7.26892 10.1103 10.0899
96 Ni 5.76637 8.73999 8.68353
97 Al 10.2267 1.36132 1.26877
98 Ni 8.71629 -0.122247 -0.0906255
99 Al 10.2271 1.38029 4.25838
100 Ni 8.74705 0.00838943 2.79994
101 Al 10.2397 1.37178 7.27464
102 Ni 8.72074 -0.0201516 5.814
103 Al 10.1759 1.43972 10.2055
104 Ni 8.64106 -0.0920965 8.71275
105 Al 10.1531 4.4294 1.57507
106 Ni 8.66279 2.76797 -0.0689086
107 Al 10.2055 4.37871 4.31908
108 Ni 8.68831 2.95348 2.84656
109 Al 10.1373 4.33785 7.24054
110 Ni 8.82128 2.67169 5.73178
111 Al 10.124 4.41117 10.1456
112 Ni 8.69086 2.96741 8.64446
113 Al 10.0972 7.26483 1.46218
114 Ni 8.74027 5.65303 0.133602
115 Al 10.3223 7.24811 4.34996
116 Ni 8.69847 5.73754 2.90452
117 Al 10.1829 7.25197 7.17677
118 Ni 8.68225 5.78807 5.74302
119 Al 10.1219 7.26739 10.1463
120 Ni 8.63316 5.79521 8.66452
121 Al 10.2122 10.0929 1.44459
122 Ni 8.70283 8.64045 -0.0554825
123 Al 10.2839 10.1246 4.31692
124 Ni 8.67705 8.71782 2.88877
125 Al 10.1121 10.0897 7.30277
126 Ni 8.76699 8.62248 5.65725
127 Al 10.152 10.0886 10.1647
128 Ni 8.70304 8.51006 8.64618
ITEM: TIMESTEP
9000
ITEM: NUMBER OF ATOMS
128
ITEM: BOX BOUNDS xy xz yz pp pp pp
-4.3358139230583723e-02 1.1666564533804456e+01 -3.7726953709445551e-02
-2.7667187082887946e-02 1.1608278647032826e+01 7.9149028459417362e-02
-1.7264589786798901e-02 1.1599048909610737e+01 -1.1728598737885565e-03
ITEM: ATOMS id element xu yu zu
1 Al 1.40767 1.41018 1.36567
2 Ni 0.0052163 -0.0186653 -0.143785
3 Al 1.42943 1.45483 4.36451
4 Ni -0.0130487 -0.10653 3.01307
5 Al 1.4803 1.50028 7.1715
6 Ni -0.0961162 0.0640383 5.85783
7 Al 1.48983 1.51548 10.0739
8 Ni 0.0701078 0.0236548 8.68414
9 Al 1.39033 4.26789 1.33199
10 Ni -0.1011 2.81291 -0.0607593
11 Al 1.51649 4.28434 4.23033
12 Ni -0.0858471 2.80227 2.85855
13 Al 1.44952 4.40722 7.2662
14 Ni -0.0287063 2.85917 5.91463
15 Al 1.41046 4.29507 10.078
16 Ni 0.0841658 2.81277 8.71401
17 Al 1.3194 7.26423 1.40085
18 Ni 0.0177452 5.84827 -0.157159
19 Al 1.46457 7.25567 4.44061
20 Ni 0.00105858 5.82783 2.93459
21 Al 1.49608 7.21307 7.2344
22 Ni 0.0538412 5.79202 5.67806
23 Al 1.56351 7.27506 10.1278
24 Ni 0.0101124 5.85641 8.74559
25 Al 1.41896 10.155 1.36688
26 Ni -0.00318256 8.72979 -0.146288
27 Al 1.4686 10.2589 4.25052
28 Ni 0.0637644 8.60434 2.95252
29 Al 1.4896 10.1717 7.14027
30 Ni -0.0191162 8.6401 5.72267
31 Al 1.4039 10.2042 10.1197
32 Ni -0.00575286 8.60198 8.5725
33 Al 4.46059 1.38348 1.44751
34 Ni 2.92433 0.0867659 -0.0472173
35 Al 4.40406 1.3684 4.40115
36 Ni 3.05198 0.0987539 2.93504
37 Al 4.33791 1.31866 7.12091
38 Ni 2.97198 -0.0976238 5.76028
39 Al 4.34475 1.35198 9.97302
40 Ni 2.87312 -0.0213261 8.71973
41 Al 4.43738 4.29484 1.49981
42 Ni 3.00955 2.85801 0.0596542
43 Al 4.38583 4.37238 4.31177
44 Ni 2.8928 2.805 2.80048
45 Al 4.35539 4.42763 7.35134
46 Ni 3.03234 3.01306 5.80784
47 Al 4.37621 4.29238 10.3311
48 Ni 2.84166 2.96842 8.69697
49 Al 4.32808 7.17452 1.48945
50 Ni 2.84755 5.73861 0.15904
51 Al 4.27076 7.18095 4.31031
52 Ni 2.93362 5.8668 3.01818
53 Al 4.31423 7.2789 7.29967
54 Ni 2.94127 5.75702 5.864
55 Al 4.37761 7.21301 10.1436
56 Ni 2.89337 5.81338 8.82792
57 Al 4.36486 10.2692 1.33416
58 Ni 2.91681 8.63946 -0.0682408
59 Al 4.30808 10.0898 4.30696
60 Ni 2.7742 8.68989 2.81379
61 Al 4.44623 10.1915 7.28219
62 Ni 2.81683 8.70522 5.78386
63 Al 4.46251 10.2525 10.1748
64 Ni 2.94373 8.7492 8.78361
65 Al 7.21646 1.46257 1.40484
66 Ni 5.76771 -0.00852858 -0.149042
67 Al 7.29283 1.38371 4.39138
68 Ni 5.80692 -0.0485694 2.95635
69 Al 7.243 1.30225 7.09204
70 Ni 5.82154 -0.0545401 5.74879
71 Al 7.28555 1.48098 10.1923
72 Ni 5.88642 -0.0770945 8.73167
73 Al 7.30378 4.38671 1.38465
74 Ni 5.84914 2.93088 0.00900177
75 Al 7.26688 4.32359 4.31539
76 Ni 5.76678 2.86608 2.95484
77 Al 7.17268 4.21775 7.28753
78 Ni 5.86881 2.81352 5.76124
79 Al 7.2703 4.29717 10.156
80 Ni 5.8656 2.80997 8.6365
81 Al 7.29345 7.30542 1.44195
82 Ni 5.68113 5.87488 -0.0375334
83 Al 7.14603 7.2658 4.31547
84 Ni 5.80968 5.76935 2.85173
85 Al 7.30059 7.29695 7.28313
86 Ni 5.85989 5.83386 5.7541
87 Al 7.32966 7.33802 10.2091
88 Ni 5.90367 5.65501 8.72612
89 Al 7.21907 10.1809 1.4637
90 Ni 5.67547 8.64805 0.18817
91 Al 7.22885 10.1164 4.35633
92 Ni 5.77111 8.714 2.78761
93 Al 7.25021 10.0914 7.17695
94 Ni 5.67337 8.68779 5.87975
95 Al 7.28676 10.1339 10.2156
96 Ni 5.91037 8.63749 8.8043
97 Al 10.2348 1.22397 1.42016
98 Ni 8.67612 -0.00277484 0.00499802
99 Al 10.1692 1.4289 4.3756
100 Ni 8.65169 -0.160629 2.97396
101 Al 10.1117 1.50058 7.28992
102 Ni 8.74774 -0.116767 5.7399
103 Al 10.1012 1.4488 10.2207
104 Ni 8.87269 -0.109691 8.59211
105 Al 10.0822 4.46123 1.47221
106 Ni 8.58496 2.94901 -0.00596882
107 Al 10.1582 4.39247 4.24164
108 Ni 8.72351 2.76279 2.90988
109 Al 10.0953 4.42576 7.21919
110 Ni 8.62934 3.01737 5.8313
111 Al 10.1638 4.38503 10.0505
112 Ni 8.73042 2.85642 8.68281
113 Al 10.2044 7.25143 1.3551
114 Ni 8.67343 5.89193 -0.0724407
115 Al 10.1764 7.2605 4.36696
116 Ni 8.63402 5.80392 2.85968
117 Al 10.1719 7.2306 7.17186
118 Ni 8.64463 5.81676 5.64897
119 Al 10.1951 7.43989 10.0185
120 Ni 8.75595 5.69256 8.71016
121 Al 10.208 10.1005 1.50087
122 Ni 8.77836 8.77538 0.032158
123 Al 10.1394 10.0665 4.34503
124 Ni 8.77444 8.68187 2.87704
125 Al 10.1818 10.1627 7.27003
126 Ni 8.67114 8.71739 5.85821
127 Al 10.2137 10.2185 10.0374
128 Ni 8.74093 8.81319 8.70128
ITEM: TIMESTEP
9100
ITEM: NUMBER OF ATOMS
128
ITEM: BOX BOUNDS xy xz yz pp pp pp
-4.8137528235695490e-02 1.1601192607428327e+01 -1.9969685028064316e-02
-8.2653512046857891e-02 1.1738121968403341e+01 -8.7595556032336735e-03
-1.0717649033869847e-02 1.1592501968857803e+01 7.3684136532752020e-02
ITEM: ATOMS id element xu yu zu
1 Al 1.42592 1.35886 1.45363
2 Ni -0.0613853 -0.0701925 0.102348
3 Al 1.44901 1.36522 4.34446
4 Ni -0.0267933 -0.056142 2.85227
5 Al 1.41801 1.51155 7.15016
6 Ni 0.0282821 -0.0865237 5.67974
7 Al 1.46062 1.46637 10.0667
8 Ni -0.0162289 0.0458076 8.60894
9 Al 1.46417 4.21397 1.38111
10 Ni 0.1165 2.79598 0.101097
11 Al 1.37389 4.47728 4.31082
12 Ni 0.065199 2.88103 2.96466
13 Al 1.48504 4.43029 7.19912
14 Ni 0.00685144 2.87339 5.58244
15 Al 1.37327 4.26166 10.0362
16 Ni 0.0218749 2.98014 8.61409
17 Al 1.328 7.37962 1.46266
18 Ni 0.0594197 5.68017 0.118214
19 Al 1.28933 7.29074 4.4003
20 Ni -0.0657282 5.76497 2.78716
21 Al 1.3786 7.27733 7.27463
22 Ni -0.211864 5.82477 5.8876
23 Al 1.45353 7.2468 10.1223
24 Ni 0.0588478 5.71487 8.72226
25 Al 1.30826 10.1558 1.39061
26 Ni -0.104599 8.78146 0.00282264
27 Al 1.41869 10.2477 4.27461
28 Ni -0.143034 8.86061 2.85424
29 Al 1.45848 10.3398 7.10923
30 Ni -0.0559102 8.74073 5.91542
31 Al 1.37572 10.378 10.1135
32 Ni 0.00226525 8.82256 8.80002
33 Al 4.35235 1.34988 1.56069
34 Ni 2.988 -0.217121 0.0343938
35 Al 4.39296 1.33623 4.35952
36 Ni 2.80236 -0.176969 2.89154
37 Al 4.41406 1.40866 7.12978
38 Ni 2.9687 -0.0421002 5.7817
39 Al 4.28089 1.34907 10.253
40 Ni 2.98157 -0.00510348 8.58952
41 Al 4.40293 4.3906 1.40706
42 Ni 2.79027 2.85547 0.0618067
43 Al 4.32821 4.34229 4.19726
44 Ni 2.8806 2.86692 2.97575
45 Al 4.31123 4.41221 7.21887
46 Ni 2.84997 2.86814 5.69046
47 Al 4.24891 4.31515 10.1681
48 Ni 2.91077 2.81323 8.60184
49 Al 4.43994 7.2563 1.38648
50 Ni 2.9072 5.78531 -0.197481
51 Al 4.22049 7.12901 4.28985
52 Ni 2.73386 5.82358 2.73958
53 Al 4.29703 7.29911 7.24213
54 Ni 2.89427 5.84997 5.74113
55 Al 4.23598 7.46154 10.0992
56 Ni 2.85616 5.77163 8.61516
57 Al 4.33092 10.1332 1.40047
58 Ni 2.75804 8.79782 0.00417423
59 Al 4.35864 10.1841 4.38245
60 Ni 2.82592 8.66553 3.00656
61 Al 4.363 10.2075 7.13566
62 Ni 2.93337 8.64076 5.82049
63 Al 4.33737 10.3884 10.0286
64 Ni 2.79853 8.63876 8.55779
65 Al 7.20015 1.36698 1.31822
66 Ni 5.77555 -0.21119 0.126806
67 Al 7.18431 1.46684 4.29711
68 Ni 5.7717 -0.209198 2.88068
69 Al 7.14533 1.5315 7.1522
70 Ni 5.78503 0.00265419 5.82105
71 Al 7.19127 1.50235 10.2669
72 Ni 5.65024 0.0499701 8.70767
73 Al 7.3314 4.35603 1.44051
74 Ni 5.78976 2.87804 0.0777376
75 Al 7.2516 4.54279 4.4041
76 Ni 5.88506 2.91319 2.76001
77 Al 7.16609 4.29887 7.34409
78 Ni 5.79487 2.99487 5.73866
79 Al 7.21032 4.34213 10.219
80 Ni 5.84247 3.01521 8.84156
81 Al 7.33661 7.28101 1.41058
82 Ni 5.8054 5.72087 0.0391539
83 Al 7.27524 7.30336 4.33715
84 Ni 5.76541 5.99177 2.94697
85 Al 7.19465 7.38692 7.2688
86 Ni 5.75175 5.82411 5.78787
87 Al 7.15538 7.37719 10.091
88 Ni 5.78863 5.94557 8.76907
89 Al 7.17268 10.104 1.49162
90 Ni 5.7751 8.81142 -0.224512
91 Al 7.27418 10.2971 4.40182
92 Ni 5.76899 8.66669 3.05234
93 Al 7.17388 10.3009 7.28172
94 Ni 5.93343 8.67984 5.84358
95 Al 7.18749 10.2574 10.1331
96 Ni 5.62471 8.82006 8.58274
97 Al 10.2128 1.40055 1.48586
98 Ni 8.75517 -0.0666065 -0.0443302
99 Al 10.106 1.412 4.3118
100 Ni 8.77091 -0.01332 2.88318
101 Al 10.0664 1.43399 7.14142
102 Ni 8.58329 -0.134728 5.87156
103 Al 10.19 1.3745 10.1475
104 Ni 8.61195 0.0843123 8.7418
105 Al 10.1163 4.39724 1.51331
106 Ni 8.81337 2.7472 -0.0299569
107 Al 10.085 4.50374 4.28333
108 Ni 8.64333 3.08077 2.89071
109 Al 10.0312 4.36133 7.31906
110 Ni 8.66044 2.92783 5.76
111 Al 10.161 4.30865 10.0618
112 Ni 8.72856 2.92305 8.71806
113 Al 10.2229 7.29673 1.40848
114 Ni 8.62669 5.73063 0.0228383
115 Al 10.2237 7.321 4.39441
116 Ni 8.78746 5.86006 2.80433
117 Al 10.228 7.32029 7.43604
118 Ni 8.76709 5.85724 6.02837
119 Al 10.285 7.28127 10.1833
120 Ni 8.65887 5.94916 8.79472
121 Al 10.0397 10.2368 1.43717
122 Ni 8.5994 8.66498 -0.116734
123 Al 10.0445 10.143 4.35482
124 Ni 8.64564 8.74291 2.77383
125 Al 10.0723 10.2868 7.33091
126 Ni 8.67728 8.67436 5.88792
127 Al 10.1387 10.2234 10.0692
128 Ni 8.61874 8.74238 8.723
ITEM: TIMESTEP
9200
ITEM: NUMBER OF ATOMS
128
ITEM: BOX BOUNDS xy xz yz pp pp pp
-8.0354743085394614e-02 1.1638608243957373e+01 5.1014806831249940e-02
-9.1181269479992888e-02 1.1651810603889771e+01 -7.4545625783180275e-02
6.1738869743788172e-03 1.1575610432849563e+01 -2.1154985413950726e-02
ITEM: ATOMS id element xu yu zu
1 Al 1.34603 1.42477 1.50867
2 Ni 0.0398098 -0.0615137 -0.00332591
3 Al 1.36771 1.37133 4.3528
4 Ni -0.069823 -0.137264 2.93782
5 Al 1.47952 1.41338 7.26506
6 Ni -0.0604343 -0.0812505 5.84866
7 Al 1.53077 1.36874 10.1511
8 Ni -0.0302049 -0.138494 8.74017
9 Al 1.32741 4.35024 1.44841
10 Ni 0.0626293 2.87791 -0.050396
11 Al 1.33048 4.2862 4.41343
12 Ni -0.0609867 2.86361 2.86154
13 Al 1.5316 4.2848 7.41488
14 Ni -0.0476784 2.74988 5.89073
15 Al 1.38787 4.29615 10.1583
16 Ni 0.0210917 2.72831 8.73044
17 Al 1.3642 7.30652 1.47692
18 Ni -0.0363709 5.83001 -0.123545
19 Al 1.51537 7.21607 4.34254
20 Ni -0.0260902 5.91785 2.95368
21 Al 1.47212 7.36878 7.22969
22 Ni 0.109127 5.81477 5.77203
23 Al 1.38932 7.17875 10.023
24 Ni -0.174991 5.65672 8.71497
25 Al 1.39871 10.1333 1.50358
26 Ni 0.0923886 8.77395 -0.0352024
27 Al 1.37823 10.1708 4.31295
28 Ni -0.041632 8.59371 2.90016
29 Al 1.40592 10.2169 7.20321
30 Ni -0.0791418 8.72091 5.84
31 Al 1.44707 10.1643 10.1279
32 Ni -0.0863327 8.80507 8.67741
33 Al 4.32234 1.35422 1.51542
34 Ni 2.77679 -0.0930269 0.11184
35 Al 4.28973 1.39261 4.38723
36 Ni 2.96632 -0.164129 2.94756
37 Al 4.39638 1.30499 7.09782
38 Ni 2.80442 -0.0763713 5.67722
39 Al 4.31367 1.21538 9.99822
40 Ni 2.85146 -0.0101458 8.68063
41 Al 4.39179 4.35613 1.33666
42 Ni 2.9661 2.76016 -0.00227308
43 Al 4.2861 4.34239 4.34423
44 Ni 2.8776 2.94118 2.82777
45 Al 4.27872 4.30588 7.1747
46 Ni 2.87999 2.85154 5.71043
47 Al 4.279 4.27051 10.1141
48 Ni 2.84077 2.88205 8.81882
49 Al 4.47526 7.26255 1.51149
50 Ni 2.87411 5.85506 0.192403
51 Al 4.42488 7.26939 4.34032
52 Ni 3.0664 5.83952 3.02935
53 Al 4.25882 7.35137 7.28176
54 Ni 2.79567 5.70657 5.85885
55 Al 4.20811 7.30334 10.1231
56 Ni 2.85621 5.77417 8.65856
57 Al 4.44005 10.2949 1.3686
58 Ni 2.95479 8.65697 0.0178829
59 Al 4.42216 10.3135 4.31541
60 Ni 2.97406 8.75556 2.89736
61 Al 4.32083 10.1945 7.25527
62 Ni 2.87483 8.81135 5.75659
63 Al 4.39429 10.2361 10.0983
64 Ni 2.89574 8.70185 8.74917
65 Al 7.11797 1.44875 1.37308
66 Ni 5.79555 -0.0234791 0.00551703
67 Al 7.16364 1.44566 4.35957
68 Ni 5.87885 0.026777 2.87981
69 Al 7.24213 1.5406 7.16159
70 Ni 5.81313 -0.11378 5.72961
71 Al 7.2385 1.38357 10.1637
72 Ni 5.82646 -0.0907028 8.49947
73 Al 7.25914 4.2821 1.37431
74 Ni 5.71408 2.79573 -0.0241589
75 Al 7.26088 4.33761 4.32922
76 Ni 5.66335 2.93395 3.00283
77 Al 7.26756 4.28102 7.2137
78 Ni 5.85264 2.85954 5.75824
79 Al 7.07088 4.24257 10.1086
80 Ni 5.69578 2.78162 8.58752
81 Al 7.33385 7.16398 1.42079
82 Ni 5.68888 5.82368 -0.0579986
83 Al 7.18204 7.29259 4.32018
84 Ni 5.79528 5.61677 2.83858
85 Al 7.16071 7.36746 7.19022
86 Ni 5.83043 5.7234 5.81639
87 Al 7.2588 7.16452 10.0525
88 Ni 5.70084 5.6085 8.59182
89 Al 7.27482 10.135 1.43558
90 Ni 5.8284 8.71043 0.0211596
91 Al 7.28072 10.2307 4.41299
92 Ni 5.94297 8.72682 2.80406
93 Al 7.25646 10.2754 7.17298
94 Ni 5.70788 8.81277 5.7834
95 Al 7.1493 10.1125 10.1025
96 Ni 5.83568 8.69037 8.72989
97 Al 10.0927 1.3142 1.47012
98 Ni 8.57237 0.0441528 0.0564419
99 Al 10.1627 1.34473 4.31473
100 Ni 8.59442 -0.159329 2.82641
101 Al 10.1624 1.32263 7.25546
102 Ni 8.72636 0.0438458 5.78318
103 Al 10.0278 1.27884 10.1641
104 Ni 8.68351 -0.0140762 8.6099
105 Al 10.0538 4.39318 1.49714
106 Ni 8.52413 2.92967 0.0194015
107 Al 10.1003 4.32919 4.32279
108 Ni 8.77506 2.7326 2.92979
109 Al 10.0976 4.26322 7.27731
110 Ni 8.74667 2.83776 5.79289
111 Al 10.1477 4.10521 10.0584
112 Ni 8.57216 2.8644 8.75206
113 Al 10.1429 7.27898 1.45863
114 Ni 8.80906 5.76158 0.0580438
115 Al 10.2336 7.19368 4.43216
116 Ni 8.59491 5.73883 2.88518
117 Al 10.1527 7.15903 7.26386
118 Ni 8.73118 5.78059 5.69135
119 Al 10.1557 7.27965 10.0962
120 Ni 8.75176 5.62064 8.68113
121 Al 10.2033 10.2395 1.46092
122 Ni 8.69942 8.85285 -0.0875801
123 Al 10.0513 10.1796 4.30438
124 Ni 8.7137 8.68744 3.08435
125 Al 10.0566 10.2012 7.27964
126 Ni 8.70344 8.76345 5.8335
127 Al 10.106 10.1852 10.129
128 Ni 8.7066 8.7242 8.72989
ITEM: TIMESTEP
9300
ITEM: NUMBER OF ATOMS
128
ITEM: BOX BOUNDS xy xz yz pp pp pp
-2.9482649290031304e-02 1.1618599853780314e+01 2.2133819252895614e-04
-1.0121714792220288e-01 1.1620809895000747e+01 7.1115464738361837e-03
-1.6482358586866752e-02 1.1598266678410798e+01 -6.2191572745186101e-02
ITEM: ATOMS id element xu yu zu
1 Al 1.39808 1.44535 1.34987
2 Ni -0.100694 -0.220459 -0.0154009
3 Al 1.40608 1.32629 4.42132
4 Ni 0.0467714 -0.0260702 2.76003
5 Al 1.4294 1.22538 7.27709
6 Ni -0.0190647 0.0489449 5.79676
7 Al 1.47324 1.36675 10.2007
8 Ni -0.0895186 -0.032167 8.72806
9 Al 1.39576 4.31189 1.40427
10 Ni -0.103167 2.90602 0.0128147
11 Al 1.4065 4.30613 4.43537
12 Ni 0.0384408 2.85666 2.77244
13 Al 1.48324 4.31562 7.37386
14 Ni -0.00460418 2.86961 5.73961
15 Al 1.44746 4.35011 10.1499
16 Ni -0.0649686 3.02006 8.82318
17 Al 1.29772 7.31339 1.45479
18 Ni 0.0248793 5.89028 0.0725573
19 Al 1.42895 7.11649 4.3331
20 Ni 0.0260515 5.73141 2.89308
21 Al 1.48545 7.21996 7.17674
22 Ni -0.155957 5.82253 5.68773
23 Al 1.4223 7.27117 10.1659
24 Ni 0.0875791 5.94092 8.7134
25 Al 1.38836 10.0937 1.50452
26 Ni -0.177796 8.64191 -0.0414978
27 Al 1.48053 10.1685 4.36932
28 Ni 0.0319678 8.72453 2.97317
29 Al 1.42495 9.99611 7.34431
30 Ni 0.151024 8.70942 5.78108
31 Al 1.4393 10.1154 10.2445
32 Ni -0.0479324 8.53964 8.67588
33 Al 4.42345 1.43753 1.36272
34 Ni 3.09789 0.0574228 -0.140279
35 Al 4.23823 1.39746 4.35738
36 Ni 2.79965 0.0707644 2.80003
37 Al 4.32108 1.30591 7.3203
38 Ni 2.93593 -0.0980819 5.83407
39 Al 4.3051 1.43019 10.042
40 Ni 2.87131 -0.215123 8.80319
41 Al 4.38017 4.38313 1.53503
42 Ni 2.84933 3.0401 -0.0135564
43 Al 4.33599 4.26726 4.43
44 Ni 2.82269 2.74166 2.91935
45 Al 4.355 4.34444 7.2569
46 Ni 2.76417 2.85624 5.91604
47 Al 4.42387 4.30905 10.0889
48 Ni 2.80548 2.87877 8.65351
49 Al 4.32789 7.17402 1.40813
50 Ni 2.9431 5.81225 -0.145447
51 Al 4.32487 7.24149 4.30127
52 Ni 2.77621 5.79439 2.8678
53 Al 4.34523 7.27632 7.35152
54 Ni 2.92145 5.79245 5.79846
55 Al 4.28554 7.23964 10.1445
56 Ni 2.83351 5.83583 8.71458
57 Al 4.32175 10.2188 1.46859
58 Ni 2.95928 8.69309 0.0144983
59 Al 4.33336 10.2415 4.43305
60 Ni 2.86192 8.59179 2.82965
61 Al 4.35537 10.1089 7.27947
62 Ni 2.96072 8.6534 5.8359
63 Al 4.4225 9.9894 10.2542
64 Ni 2.98603 8.63617 8.7202
65 Al 7.30866 1.39187 1.35083
66 Ni 5.83018 0.0524997 -0.0692836
67 Al 7.18967 1.30573 4.46485
68 Ni 5.65529 -0.0883179 2.93128
69 Al 7.23556 1.38982 7.26973
70 Ni 5.71169 -0.0451369 5.82592
71 Al 7.3407 1.40702 10.1865
72 Ni 5.69605 -0.145888 8.81035
73 Al 7.30206 4.32182 1.40518
74 Ni 5.8752 2.96556 -0.0114698
75 Al 7.17312 4.25393 4.32545
76 Ni 5.85821 2.70413 2.8863
77 Al 7.20517 4.20524 7.19848
78 Ni 5.63235 2.64973 5.85527
79 Al 7.25506 4.17301 10.0355
80 Ni 5.74913 2.80742 8.64194
81 Al 7.16729 7.15012 1.63598
82 Ni 5.90139 5.75966 0.043284
83 Al 7.24356 7.24306 4.34407
84 Ni 5.75708 5.83454 3.04559
85 Al 7.23607 7.22935 7.25128
86 Ni 5.74437 5.8065 5.7975
87 Al 7.2445 7.32523 10.1392
88 Ni 5.9006 5.87144 8.71277
89 Al 7.2085 10.1896 1.46277
90 Ni 5.84419 8.66611 0.00590689
91 Al 7.25815 10.0725 4.32983
92 Ni 5.71407 8.6986 2.91089
93 Al 7.16083 10.1609 7.15686
94 Ni 5.85433 8.53249 5.83395
95 Al 7.22257 9.99358 10.1541
96 Ni 5.81934 8.66159 8.6655
97 Al 10.1169 1.33463 1.4232
98 Ni 8.76332 -0.0898803 -0.0445624
99 Al 10.1758 1.46146 4.32002
100 Ni 8.89621 0.0243209 2.96072
101 Al 10.1331 1.34719 7.12675
102 Ni 8.70876 -0.310595 5.73231
103 Al 10.1133 1.39972 10.0549
104 Ni 8.71306 -0.179843 8.66947
105 Al 10.0534 4.43053 1.41243
106 Ni 8.77531 2.84107 -0.0604599
107 Al 10.1588 4.25857 4.3109
108 Ni 8.76988 2.99542 2.75119
109 Al 10.1882 4.36974 7.35344
110 Ni 8.75561 2.90571 5.77162
111 Al 10.2834 4.41432 10.1026
112 Ni 8.7551 2.81812 8.61468
113 Al 10.0916 7.15192 1.51258
114 Ni 8.54715 5.84483 -0.101921
115 Al 10.1487 7.16966 4.23298
116 Ni 8.69495 5.75248 2.93699
117 Al 10.1555 7.20778 7.14063
118 Ni 8.62178 5.68358 5.78848
119 Al 10.1132 7.20386 10.0917
120 Ni 8.61308 5.72933 8.65922
121 Al 10.2376 10.1652 1.46414
122 Ni 8.74108 8.58279 0.0609671
123 Al 10.1811 10.1262 4.2914
124 Ni 8.66238 8.71416 2.71765
125 Al 10.186 10.0996 7.2161
126 Ni 8.63033 8.60895 5.7106
127 Al 10.1405 10.0522 10.1023
128 Ni 8.7219 8.70732 8.57341
ITEM: TIMESTEP
9400
ITEM: NUMBER OF ATOMS
128
ITEM: BOX BOUNDS xy xz yz pp pp pp
-9.7960543389912696e-02 1.1678749891169780e+01 -5.9609629398165193e-02
-2.2767795308054062e-03 1.1630864597941351e+01 5.8614657354108209e-02
-3.2115772958069222e-02 1.1613900092781989e+01 4.6803498586804132e-02
ITEM: ATOMS id element xu yu zu
1 Al 1.41321 1.55127 1.49442
2 Ni -0.032323 0.0951847 -0.106151
3 Al 1.51694 1.43661 4.38642
4 Ni -0.00176837 0.0733203 2.93872
5 Al 1.45497 1.41556 7.14151
6 Ni 0.056621 -0.0936235 5.79296
7 Al 1.43781 1.42459 10.082
8 Ni 0.0769318 -0.132782 8.64011
9 Al 1.36389 4.29474 1.32237
10 Ni 0.0102383 3.0033 -0.174341
11 Al 1.40493 4.39043 4.3103
12 Ni 0.0143544 2.93852 2.98267
13 Al 1.51698 4.22423 7.19053
14 Ni -0.109956 2.90945 5.80828
15 Al 1.47025 4.41664 10.005
16 Ni -0.0612545 2.94386 8.53664
17 Al 1.40762 7.21532 1.48576
18 Ni -0.1433 5.75711 -0.119381
19 Al 1.33523 7.23386 4.28826
20 Ni -0.0577323 5.82427 2.84461
21 Al 1.37524 7.17933 7.27023
22 Ni 0.0133904 5.81548 5.81213
23 Al 1.41855 7.22372 10.1735
24 Ni -0.211866 5.69147 8.6635
25 Al 1.28199 10.168 1.4593
26 Ni 0.082248 8.70204 0.0293712
27 Al 1.36287 10.1223 4.30678
28 Ni -0.0147202 8.75175 2.73713
29 Al 1.4454 9.9956 7.23917
30 Ni -0.153084 8.70465 5.78871
31 Al 1.48124 10.1955 10.1137
32 Ni 0.0247546 8.7497 8.7011
33 Al 4.39748 1.32959 1.41646
34 Ni 2.69433 -0.0505741 -0.0649931
35 Al 4.35448 1.43952 4.31533
36 Ni 2.90591 -0.0506608 2.80962
37 Al 4.43421 1.55135 7.33173
38 Ni 2.83671 0.111932 5.89524
39 Al 4.3964 1.39071 10.2067
40 Ni 2.92774 0.245198 8.69595
41 Al 4.37469 4.28316 1.37718
42 Ni 2.81894 2.81255 -0.125715
43 Al 4.39669 4.2657 4.42111
44 Ni 2.85975 2.98069 2.80231
45 Al 4.40711 4.3382 7.23802
46 Ni 3.0154 2.90959 5.76966
47 Al 4.42784 4.28215 10.1875
48 Ni 2.9296 3.03235 8.76156
49 Al 4.27841 7.25383 1.40776
50 Ni 2.91035 5.72339 0.0554302
51 Al 4.29471 7.2555 4.279
52 Ni 2.98293 5.71377 2.83055
53 Al 4.30796 7.34009 7.25828
54 Ni 2.84349 5.73581 5.71776
55 Al 4.2449 7.32494 10.1426
56 Ni 3.01947 5.79586 8.70367
57 Al 4.32372 10.1345 1.4765
58 Ni 2.84943 8.69473 -0.0523969
59 Al 4.2401 10.2591 4.38212
60 Ni 2.77959 8.84859 2.82658
61 Al 4.28602 10.1999 7.27225
62 Ni 2.7307 8.70029 5.79462
63 Al 4.29902 10.1628 10.1408
64 Ni 2.79186 8.62026 8.66191
65 Al 7.31751 1.50351 1.35896
66 Ni 5.82982 -0.0848913 0.0376861
67 Al 7.1286 1.39409 4.45112
68 Ni 5.83436 0.0566933 2.83255
69 Al 7.21425 1.45066 7.2429
70 Ni 5.76016 -0.00954071 5.77431
71 Al 7.35779 1.52763 10.2385
72 Ni 5.93403 0.10218 8.68339
73 Al 7.25597 4.32791 1.4892
74 Ni 5.84977 2.78029 -0.00136256
75 Al 7.35048 4.39258 4.38664
76 Ni 5.722 2.96085 2.86587
77 Al 7.34653 4.31792 7.34996
78 Ni 5.90329 3.03772 5.81077
79 Al 7.3205 4.37112 10.2462
80 Ni 5.9825 2.94095 8.75679
81 Al 7.18446 7.23429 1.52832
82 Ni 5.73444 5.73391 -0.0467713
83 Al 7.15798 7.27044 4.35727
84 Ni 5.76026 5.73054 2.776
85 Al 7.12872 7.22912 7.169
86 Ni 5.76841 5.7197 5.69739
87 Al 7.22144 7.32116 10.2157
88 Ni 5.76256 5.7292 8.7085
89 Al 7.22374 10.1202 1.46667
90 Ni 5.71303 8.79317 -0.0502343
91 Al 7.24603 10.1449 4.41044
92 Ni 5.77706 8.6865 2.8817
93 Al 7.21547 10.0798 7.17183
94 Ni 5.63582 8.8535 5.66745
95 Al 7.17956 10.1782 10.0826
96 Ni 5.73773 8.74741 8.73679
97 Al 10.1423 1.37666 1.48242
98 Ni 8.7474 0.0509992 -0.00495309
99 Al 10.2041 1.45861 4.42881
100 Ni 8.57658 -0.0886809 2.85264
101 Al 10.2062 1.42366 7.2743
102 Ni 8.72867 0.180567 5.83439
103 Al 10.1214 1.56032 10.0706
104 Ni 8.80604 0.0424226 8.67229
105 Al 10.1198 4.24387 1.51774
106 Ni 8.72183 2.90019 -0.0102851
107 Al 10.1717 4.28954 4.34506
108 Ni 8.61716 2.82173 3.04602
109 Al 10.0931 4.38271 7.25444
110 Ni 8.67812 2.81381 5.84995
111 Al 10.2837 4.37874 10.0638
112 Ni 8.70794 2.92503 8.71655
113 Al 10.1233 7.26424 1.45143
114 Ni 8.80637 5.75632 0.132663
115 Al 10.132 7.15104 4.29153
116 Ni 8.69833 5.78274 2.82554
117 Al 10.1894 7.31643 7.23054
118 Ni 8.80094 5.93764 5.77561
119 Al 10.1833 7.34749 10.2361
120 Ni 8.73293 5.9105 8.67908
121 Al 10.2017 10.2371 1.44621
122 Ni 8.53045 8.79147 -0.0525019
123 Al 10.1275 10.276 4.30918
124 Ni 8.6817 8.70563 3.11734
125 Al 10.0892 10.1741 7.26402
126 Ni 8.70684 8.83574 5.81711
127 Al 10.1605 10.2191 10.2251
128 Ni 8.63909 8.67253 8.78286
ITEM: TIMESTEP
9500
ITEM: NUMBER OF ATOMS
128
ITEM: BOX BOUNDS xy xz yz pp pp pp
-5.9004474814897345e-02 1.1617714118800684e+01 -8.5938570226656592e-03
-7.7878261814934291e-04 1.1624800423265766e+01 -1.4480818815463065e-02
-2.5493348955881956e-02 1.1607277668779787e+01 4.2237320823863604e-02
ITEM: ATOMS id element xu yu zu
1 Al 1.45566 1.47297 1.54494
2 Ni -0.0108475 -0.0855586 0.0670237
3 Al 1.42426 1.43769 4.41447
4 Ni -0.105547 -0.0636154 2.90149
5 Al 1.52112 1.48934 7.14552
6 Ni -0.176545 0.129241 5.85108
7 Al 1.47232 1.39356 10.168
8 Ni -0.110569 0.210063 8.69675
9 Al 1.45992 4.2261 1.50886
10 Ni -0.103156 2.78301 0.0385598
11 Al 1.46052 4.46095 4.30912
12 Ni -0.119815 2.87879 2.96001
13 Al 1.35478 4.37424 7.19244
14 Ni -0.0103406 2.94359 5.82444
15 Al 1.34766 4.30958 10.1305
16 Ni -0.0966265 2.96528 8.82795
17 Al 1.38141 7.28589 1.42892
18 Ni -0.0430083 5.74512 0.0110921
19 Al 1.31488 7.27767 4.36058
20 Ni -0.0490046 5.7806 2.94784
21 Al 1.46576 7.45768 7.22364
22 Ni -0.0768948 5.79622 5.77589
23 Al 1.48191 7.31176 10.1569
24 Ni 0.0580639 5.89554 8.72129
25 Al 1.35109 10.0259 1.42808
26 Ni -0.124388 8.66893 -0.174476
27 Al 1.45418 10.1628 4.26256
28 Ni -0.100303 8.67253 2.9816
29 Al 1.47031 10.2207 7.12
30 Ni 0.10533 8.75704 5.8193
31 Al 1.45442 10.2525 10.0689
32 Ni -0.0294812 8.66693 8.72963
33 Al 4.42266 1.41659 1.52874
34 Ni 2.97364 0.145616 -0.00895769
35 Al 4.53254 1.40265 4.34876
36 Ni 2.84846 0.126608 2.9847
37 Al 4.32838 1.4537 7.27555
38 Ni 3.0364 -0.0095489 5.63799
39 Al 4.25271 1.47534 10.1596
40 Ni 2.88062 -0.0569434 8.55559
41 Al 4.30586 4.45069 1.48271
42 Ni 2.82337 2.91659 0.0213158
43 Al 4.38294 4.33301 4.42838
44 Ni 2.87205 2.81091 2.94933
45 Al 4.32977 4.31352 7.23169
46 Ni 2.86874 3.00069 5.75036
47 Al 4.17844 4.44565 10.1198
48 Ni 2.94619 2.83728 8.63044
49 Al 4.2905 7.29807 1.42847
50 Ni 2.80338 5.83512 -0.0565549
51 Al 4.45899 7.159 4.35951
52 Ni 2.77904 5.96779 2.83155
53 Al 4.36829 7.1576 7.38129
54 Ni 2.88404 5.84434 5.8081
55 Al 4.31275 7.27919 10.1083
56 Ni 2.7944 5.80399 8.65472
57 Al 4.24553 10.1383 1.40389
58 Ni 2.76919 8.68993 -0.0808277
59 Al 4.36873 10.0491 4.30551
60 Ni 2.85607 8.61502 2.86826
61 Al 4.30622 10.0558 7.15288
62 Ni 2.93681 8.71836 5.68255
63 Al 4.25855 10.1527 10.1493
64 Ni 2.94344 8.7293 8.76195
65 Al 7.2676 1.49009 1.37676
66 Ni 5.72843 0.0730424 -0.0568097
67 Al 7.35114 1.43232 4.36812
68 Ni 5.69237 -0.106404 2.88976
69 Al 7.19261 1.45183 7.16395
70 Ni 5.86221 -0.0211894 5.83887
71 Al 7.20298 1.48212 10.0878
72 Ni 5.63004 -0.0366516 8.66115
73 Al 7.23761 4.4269 1.43572
74 Ni 5.77772 2.86094 -0.0460996
75 Al 7.19185 4.47532 4.33293
76 Ni 5.79687 2.9239 2.85157
77 Al 7.249 4.24105 7.34648
78 Ni 5.78358 2.94739 5.69961
79 Al 7.12688 4.26621 10.2154
80 Ni 5.70067 2.95533 8.6705
81 Al 7.28388 7.3519 1.39039
82 Ni 5.76932 5.8971 0.0288527
83 Al 7.26413 7.32521 4.22751
84 Ni 5.83736 5.94915 2.79119
85 Al 7.32193 7.20991 7.31294
86 Ni 5.88437 5.9944 5.87261
87 Al 7.29519 7.36183 10.143
88 Ni 5.86034 5.84726 8.71147
89 Al 7.21645 10.2198 1.44276
90 Ni 5.74376 8.63357 -0.0897302
91 Al 7.27571 10.0531 4.37479
92 Ni 5.80788 8.72675 2.84285
93 Al 7.21242 10.0331 7.24324
94 Ni 5.79942 8.60342 5.92299
95 Al 7.14558 10.1924 10.1776
96 Ni 5.70624 8.68032 8.72794
97 Al 10.1249 1.33153 1.45747
98 Ni 8.68441 -0.0256313 0.0528533
99 Al 10.1322 1.51871 4.47316
100 Ni 8.81862 0.0504196 2.93112
101 Al 10.0203 1.52606 7.30426
102 Ni 8.64833 -0.206759 5.80127
103 Al 9.94377 1.46349 10.1623
104 Ni 8.64265 0.0173179 8.71337
105 Al 10.1381 4.34455 1.3782
106 Ni 8.64298 2.7515 0.00963127
107 Al 10.1003 4.3469 4.31578
108 Ni 8.83633 2.94416 2.77941
109 Al 10.1299 4.38599 7.30288
110 Ni 8.682 3.07786 5.63864
111 Al 10.2628 4.37653 10.1365
112 Ni 8.68812 2.88403 8.75795
113 Al 10.2572 7.11284 1.43644
114 Ni 8.63843 5.79601 -0.111184
115 Al 10.0427 7.22088 4.37864
116 Ni 8.7582 5.94871 2.87232
117 Al 10.1889 7.19921 7.23554
118 Ni 8.56878 5.836 5.75792
119 Al 10.1801 7.13446 10.1736
120 Ni 8.68788 5.72119 8.75156
121 Al 10.1946 10.1909 1.47337
122 Ni 8.83924 8.65911 -0.155158
123 Al 10.1023 10.1159 4.38794
124 Ni 8.6716 8.69582 2.68046
125 Al 10.2009 10.1097 7.23485
126 Ni 8.70267 8.57123 5.84613
127 Al 10.1704 10.2157 10.1129
128 Ni 8.68827 8.81448 8.73027
ITEM: TIMESTEP
9600
ITEM: NUMBER OF ATOMS
128
ITEM: BOX BOUNDS xy xz yz pp pp pp
-7.8226607999683812e-02 1.1682038790584086e+01 6.2107119925696438e-02
-1.3891291423004754e-01 1.1642143192203566e+01 -4.0079257165225056e-02
-1.1925940959294223e-02 1.1593710260783210e+01 -7.8554041850240119e-02
ITEM: ATOMS id element xu yu zu
1 Al 1.50771 1.45031 1.46118
2 Ni -0.0286592 0.00992025 -0.0691314
3 Al 1.39607 1.38401 4.29187
4 Ni -0.0160975 -0.0373369 2.88357
5 Al 1.42083 1.43744 7.15076
6 Ni -0.0203214 -0.152063 5.73121
7 Al 1.52281 1.27553 10.1617
8 Ni -0.0662634 -0.165438 8.66344
9 Al 1.53304 4.33375 1.51752
10 Ni 0.0835178 2.98798 -0.00247722
11 Al 1.35096 4.30951 4.37981
12 Ni 0.00425678 2.87734 2.72123
13 Al 1.35708 4.35663 7.13902
14 Ni -0.13316 2.82487 5.6905
15 Al 1.336 4.22594 10.1766
16 Ni -0.00728967 2.74901 8.59278
17 Al 1.60791 7.30673 1.44756
18 Ni 0.0235371 5.91026 -0.105933
19 Al 1.38781 7.26688 4.33202
20 Ni 0.0184203 5.89749 2.82482
21 Al 1.34698 7.30075 7.20608
22 Ni -0.029544 5.71199 5.82649
23 Al 1.54239 7.20555 10.1329
24 Ni -0.064989 5.57606 8.7305
25 Al 1.42619 10.1504 1.48963
26 Ni 0.0988862 8.79688 0.0538628
27 Al 1.46415 10.1458 4.40716
28 Ni 0.0813428 8.74151 2.88611
29 Al 1.40351 10.2688 7.27283
30 Ni -0.157014 8.61906 5.83116
31 Al 1.46803 10.1189 10.1589
32 Ni -0.00431067 8.69436 8.56755
33 Al 4.30841 1.32207 1.51567
34 Ni 2.81324 -0.184556 0.0459119
35 Al 4.34384 1.35436 4.333
36 Ni 2.92204 -0.193636 2.9022
37 Al 4.2803 1.34602 7.2803
38 Ni 2.76052 -0.20647 5.92978
39 Al 4.26699 1.34924 10.2489
40 Ni 2.88794 -0.0840805 8.83976
41 Al 4.32618 4.42498 1.46151
42 Ni 2.95447 2.91305 0.0904671
43 Al 4.34793 4.26346 4.39636
44 Ni 2.88098 2.98702 2.92875
45 Al 4.25207 4.19206 7.23585
46 Ni 2.80036 2.77015 5.83613
47 Al 4.207 4.22863 10.0847
48 Ni 2.82853 2.85465 8.62422
49 Al 4.34744 7.21714 1.43158
50 Ni 2.88965 5.72674 0.0379403
51 Al 4.46044 7.279 4.35399
52 Ni 2.86468 5.69868 2.94823
53 Al 4.459 7.15187 7.24399
54 Ni 2.93448 5.79195 5.76594
55 Al 4.37171 7.27918 10.0778
56 Ni 2.92426 5.75514 8.79403
57 Al 4.51431 10.1649 1.44453
58 Ni 2.94702 8.77824 0.0943855
59 Al 4.36458 10.0866 4.34483
60 Ni 2.86842 8.74652 2.93499
61 Al 4.40507 10.1345 7.26096
62 Ni 2.84926 8.68777 5.91733
63 Al 4.32669 10.0755 10.096
64 Ni 2.78375 8.70942 8.68934
65 Al 7.22291 1.40297 1.35296
66 Ni 5.79762 -0.0987951 0.0547772
67 Al 7.30616 1.42823 4.40875
68 Ni 5.86617 -0.0907336 2.88784
69 Al 7.20787 1.40095 7.22616
70 Ni 5.78392 -0.117578 5.65566
71 Al 7.21247 1.41702 10.1999
72 Ni 5.86044 -0.0283198 8.7984
73 Al 7.19733 4.34469 1.41568
74 Ni 5.72206 2.89597 0.104971
75 Al 7.22541 4.31309 4.46394
76 Ni 5.77625 2.83152 2.96836
77 Al 7.19605 4.36009 7.28678
78 Ni 5.83772 2.80504 5.81944
79 Al 7.14451 4.11255 10.0869
80 Ni 5.71913 2.73531 8.60468
81 Al 7.277 7.1999 1.41991
82 Ni 5.81245 5.69672 -0.119755
83 Al 7.39671 7.10842 4.34571
84 Ni 5.83512 5.78894 2.91812
85 Al 7.2414 7.19034 7.24521
86 Ni 5.72506 5.64953 5.71129
87 Al 7.26312 7.16208 10.1314
88 Ni 5.67514 5.74055 8.73621
89 Al 7.34049 10.1129 1.44678
90 Ni 5.78712 8.72618 -0.0387862
91 Al 7.28779 10.0314 4.35945
92 Ni 5.83507 8.58266 2.75781
93 Al 7.2838 10.1756 7.22003
94 Ni 5.93249 8.66908 5.7319
95 Al 7.30788 10.086 10.1122
96 Ni 5.83201 8.68237 8.72519
97 Al 10.0822 1.3708 1.34827
98 Ni 8.65259 -0.00992218 -0.117575
99 Al 10.0874 1.37393 4.24554
100 Ni 8.59244 -0.303787 2.82481
101 Al 10.1743 1.35348 7.24585
102 Ni 8.65557 0.0157011 5.73214
103 Al 10.0888 1.36638 10.0883
104 Ni 8.69889 -0.0454038 8.66312
105 Al 10.2571 4.38236 1.41535
106 Ni 8.73422 2.91159 -0.0456188
107 Al 10.055 4.26995 4.26503
108 Ni 8.54701 2.90368 2.93071
109 Al 10.1841 4.22317 7.27572
110 Ni 8.65885 2.81175 5.89113
111 Al 10.219 4.20562 10.0996
112 Ni 8.70383 2.82473 8.66548
113 Al 10.2618 7.2457 1.4209
114 Ni 8.76877 5.78651 -0.0366601
115 Al 10.1153 7.22675 4.32738
116 Ni 8.62685 5.68468 2.72903
117 Al 10.1606 7.10905 7.2382
118 Ni 8.90067 5.71144 5.92287
119 Al 10.2124 7.09632 10.2124
120 Ni 8.6903 5.69284 8.68543
121 Al 10.252 10.3291 1.41871
122 Ni 8.64044 8.72866 -0.0651146
123 Al 10.2137 10.2062 4.33719
124 Ni 8.81413 8.63625 2.96804
125 Al 10.1697 10.2091 7.14429
126 Ni 8.74519 8.72346 5.86008
127 Al 10.2452 10.0763 10.1461
128 Ni 8.79248 8.62236 8.63584
ITEM: TIMESTEP
9700
ITEM: NUMBER OF ATOMS
128
ITEM: BOX BOUNDS xy xz yz pp pp pp
4.7276750861691141e-05 1.1681072135540782e+01 3.2787577521252491e-02
-1.1690472527284036e-01 1.1663440152471123e+01 6.6547514946464534e-02
3.4460681529125736e-02 1.1547323638294777e+01 -3.5248892625472830e-02
ITEM: ATOMS id element xu yu zu
1 Al 1.41731 1.42522 1.4411
2 Ni -0.0711382 -0.0864708 0.124197
3 Al 1.39387 1.35108 4.33769
4 Ni -0.00119862 -0.11232 2.88392
5 Al 1.48898 1.33468 7.23123
6 Ni -0.00351311 -0.0602972 5.72912
7 Al 1.52748 1.27426 10.0935
8 Ni -0.0121555 -0.154109 8.828
9 Al 1.56725 4.27817 1.52791
10 Ni -0.0432891 2.82554 0.0622573
11 Al 1.59899 4.23369 4.36908
12 Ni 0.0670125 2.82214 3.07056
13 Al 1.507 4.25465 7.18203
14 Ni 0.237886 2.80681 5.89028
15 Al 1.55365 4.37791 10.1981
16 Ni 0.0485634 2.99385 8.70649
17 Al 1.57523 7.28535 1.45562
18 Ni -0.0548857 5.7018 0.0328696
19 Al 1.4748 7.27927 4.25116
20 Ni 0.000525806 5.67669 2.88768
21 Al 1.39985 7.33477 7.20338
22 Ni 0.0432744 5.81392 5.80236
23 Al 1.58194 7.17021 10.0739
24 Ni 0.0362532 5.86011 8.64675
25 Al 1.44129 10.0744 1.40539
26 Ni 0.0156966 8.56644 0.0350004
27 Al 1.5099 10.1959 4.2995
28 Ni -0.0673284 8.59979 2.80868
29 Al 1.47805 10.1825 7.24746
30 Ni 0.10813 8.76274 5.70105
31 Al 1.61892 10.148 10.1576
32 Ni 0.0450884 8.78657 8.88703
33 Al 4.31653 1.33816 1.3427
34 Ni 2.90758 0.0258402 -0.0667325
35 Al 4.38389 1.4966 4.20873
36 Ni 2.87397 -0.0765683 2.89154
37 Al 4.37625 1.50368 7.23498
38 Ni 2.96189 -0.041953 5.71508
39 Al 4.41572 1.30503 9.97629
40 Ni 2.80111 -0.161325 8.63697
41 Al 4.24967 4.31873 1.36084
42 Ni 2.83151 2.76474 -0.0415894
43 Al 4.40928 4.41425 4.4223
44 Ni 2.89086 2.70811 2.74781
45 Al 4.38576 4.20943 7.264
46 Ni 2.94527 2.77875 5.79821
47 Al 4.45572 4.30883 10.092
48 Ni 2.98561 2.67143 8.74642
49 Al 4.41643 7.30395 1.5565
50 Ni 3.02893 5.90962 0.0176739
51 Al 4.46452 7.29851 4.40905
52 Ni 3.01285 5.84339 2.88969
53 Al 4.47328 7.229 7.11654
54 Ni 2.83679 5.65598 5.80354
55 Al 4.49149 7.21909 9.9371
56 Ni 3.01381 5.75938 8.54891
57 Al 4.44345 10.1961 1.41675
58 Ni 2.92753 8.67706 -0.0436553
59 Al 4.3608 10.3025 4.27013
60 Ni 2.99722 8.68234 2.87055
61 Al 4.29797 10.2703 7.30574
62 Ni 2.95562 8.78312 5.6695
63 Al 4.42249 10.0834 10.0987
64 Ni 3.04985 8.65099 8.70234
65 Al 7.23683 1.39372 1.47036
66 Ni 5.88358 -0.0643575 0.0107959
67 Al 7.28444 1.47599 4.43606
68 Ni 5.71449 -0.0633033 2.83752
69 Al 7.3251 1.43992 7.25147
70 Ni 5.79978 -0.120907 5.95572
71 Al 7.43016 1.24123 10.1215
72 Ni 5.81225 -0.192161 8.60987
73 Al 7.19004 4.35058 1.45342
74 Ni 5.87432 2.75706 -0.060577
75 Al 7.24217 4.23225 4.31638
76 Ni 5.82027 2.84129 2.87831
77 Al 7.39056 4.34565 7.12849
78 Ni 5.77236 2.82184 5.8033
79 Al 7.358 4.28649 10.0164
80 Ni 5.91201 2.83173 8.79275
81 Al 7.215 7.1894 1.59023
82 Ni 5.73332 5.92304 0.113181
83 Al 7.24759 7.20243 4.43038
84 Ni 5.82463 5.70027 2.99656
85 Al 7.29876 7.27269 7.21152
86 Ni 5.84162 5.72127 5.90227
87 Al 7.20381 7.22086 10.0841
88 Ni 5.8866 5.69668 8.61512
89 Al 7.32243 10.2357 1.56832
90 Ni 5.8831 8.70419 0.0378036
91 Al 7.24095 10.2857 4.37795
92 Ni 5.84005 8.76626 3.17616
93 Al 7.35447 10.1897 7.15621
94 Ni 5.7128 8.83775 5.8784
95 Al 7.31954 10.217 10.124
96 Ni 5.85533 8.69788 8.57938
97 Al 10.1643 1.43083 1.4463
98 Ni 8.7866 -0.0911725 0.197027
99 Al 10.1545 1.40451 4.35597
100 Ni 8.76663 0.16087 2.9046
101 Al 10.2013 1.42673 7.30075
102 Ni 8.80073 -0.14707 5.79931
103 Al 10.1041 1.43874 10.0548
104 Ni 8.72634 -0.137609 8.67544
105 Al 10.1987 4.27463 1.51063
106 Ni 8.68852 2.89128 0.0407693
107 Al 10.2231 4.30102 4.466
108 Ni 8.86088 2.83632 2.91654
109 Al 10.2096 4.35547 7.17845
110 Ni 8.80864 2.7782 5.73035
111 Al 10.2464 4.37585 10.0378
112 Ni 8.75812 2.77912 8.67974
113 Al 10.1361 7.11611 1.42695
114 Ni 8.69105 5.80094 0.0833234
115 Al 10.1716 7.40344 4.29831
116 Ni 8.82104 5.82089 3.0858
117 Al 10.0997 7.29079 7.06235
118 Ni 8.61996 5.79419 5.69625
119 Al 10.116 7.1129 10.1298
120 Ni 8.80647 5.8311 8.58395
121 Al 10.132 10.2102 1.54177
122 Ni 8.67018 8.70493 0.00816914
123 Al 10.1279 10.2215 4.33046
124 Ni 8.56395 8.71025 2.94837
125 Al 10.2334 10.1581 7.22753
126 Ni 8.7693 8.63729 5.68814
127 Al 10.1988 10.2239 10.1927
128 Ni 8.5692 8.69759 8.68344
ITEM: TIMESTEP
9800
ITEM: NUMBER OF ATOMS
128
ITEM: BOX BOUNDS xy xz yz pp pp pp
-6.0006338941567462e-02 1.1637370707704669e+01 -4.6194176824901879e-02
-1.0418402237668367e-01 1.1774807357813245e+01 4.1774225764076037e-02
-1.1387043643566130e-02 1.1593171363467473e+01 8.8839015612805938e-02
ITEM: ATOMS id element xu yu zu
1 Al 1.44887 1.48863 1.34864
2 Ni -0.0319153 -0.322332 -0.0165497
3 Al 1.30188 1.50683 4.34079
4 Ni 0.0142845 -0.147822 2.7941
5 Al 1.38132 1.39269 7.30834
6 Ni 0.0419638 -0.155212 5.91834
7 Al 1.52552 1.43161 10.1393
8 Ni 0.0264971 -0.167395 8.59538
9 Al 1.49443 4.29451 1.39098
10 Ni -0.104045 3.02237 -0.0962041
11 Al 1.53247 4.2814 4.36987
12 Ni 0.00415697 2.99489 2.73404
13 Al 1.46035 4.25761 7.09622
14 Ni -0.0969035 2.95159 5.81231
15 Al 1.37405 4.5379 10.1801
16 Ni -0.13996 2.7313 8.68841
17 Al 1.42955 7.42408 1.51251
18 Ni -0.0447181 5.82218 0.0443
19 Al 1.47287 7.28235 4.2977
20 Ni 0.0644906 5.8842 2.94379
21 Al 1.5033 7.17519 7.23488
22 Ni 0.115028 5.85576 5.85432
23 Al 1.36126 7.37731 10.2881
24 Ni 0.0540651 5.91319 8.66611
25 Al 1.40738 10.1864 1.42034
26 Ni -0.138846 8.74132 0.131748
27 Al 1.51593 10.3963 4.34853
28 Ni 0.102444 8.80412 3.00807
29 Al 1.49394 10.1307 7.32065
30 Ni 0.0886973 8.76913 5.71566
31 Al 1.37278 10.2077 10.119
32 Ni 0.0613759 8.63824 8.56945
33 Al 4.31551 1.42734 1.37399
34 Ni 2.85093 -0.135912 0.0289542
35 Al 4.29354 1.47362 4.30264
36 Ni 2.94735 0.0495754 2.74865
37 Al 4.34986 1.5875 7.29579
38 Ni 2.83339 -0.0857232 5.88483
39 Al 4.28846 1.53426 10.0834
40 Ni 2.94598 -0.0710609 8.81363
41 Al 4.23309 4.36816 1.32544
42 Ni 2.88794 2.89695 -0.0381592
43 Al 4.34791 4.43075 4.32896
44 Ni 2.87896 2.91541 2.91052
45 Al 4.40419 4.43879 7.2085
46 Ni 2.86652 2.89999 5.89557
47 Al 4.50603 4.4563 10.1436
48 Ni 2.87967 3.0571 8.67226
49 Al 4.22185 7.20644 1.41617
50 Ni 2.83156 5.69962 -0.02977
51 Al 4.32367 7.30997 4.23499
52 Ni 2.82565 5.73877 2.75578
53 Al 4.44902 7.39828 7.19899
54 Ni 3.04257 5.88575 5.86761
55 Al 4.31574 7.32859 10.1303
56 Ni 2.85051 5.94592 8.84125
57 Al 4.29529 10.2298 1.44017
58 Ni 2.88506 8.66741 0.048602
59 Al 4.35465 10.2442 4.2916
60 Ni 2.85505 8.68892 2.87122
61 Al 4.30446 10.3168 7.27973
62 Ni 2.92536 8.72771 5.66655
63 Al 4.24022 10.24 10.1785
64 Ni 2.81586 8.9044 8.78048
65 Al 7.2305 1.25483 1.41804
66 Ni 5.72663 -0.186323 -0.0292344
67 Al 7.34955 1.50859 4.37441
68 Ni 5.80126 -0.0592168 2.89184
69 Al 7.3059 1.40647 7.26125
70 Ni 5.83798 0.0122926 5.69365
71 Al 7.29241 1.48212 10.1513
72 Ni 5.83306 -0.0812327 8.73915
73 Al 7.17572 4.27022 1.48589
74 Ni 5.85585 2.96539 0.0569005
75 Al 7.19857 4.35361 4.33695
76 Ni 5.82189 2.82396 2.88748
77 Al 7.21009 4.47359 7.17528
78 Ni 5.86177 2.80105 5.76554
79 Al 7.28099 4.34609 10.0344
80 Ni 5.75676 2.91524 8.69638
81 Al 7.07675 7.31673 1.4629
82 Ni 5.88689 5.72463 -0.0134287
83 Al 7.24974 7.27069 4.27106
84 Ni 5.72968 5.82203 2.81332
85 Al 7.30153 7.31281 7.23337
86 Ni 5.73193 5.76664 5.66674
87 Al 7.13155 7.46223 10.0423
88 Ni 5.82686 5.93553 8.66209
89 Al 7.17176 10.226 1.36477
90 Ni 5.72644 8.81352 -0.0687664
91 Al 7.18914 10.2725 4.24215
92 Ni 5.71249 8.87551 2.66488
93 Al 7.20558 10.2628 7.22215
94 Ni 5.82405 8.68425 5.65093
95 Al 7.28261 10.3251 10.1187
96 Ni 5.68599 8.81575 8.72354
97 Al 10.1855 1.3437 1.49619
98 Ni 8.55124 -0.0931279 -0.0737554
99 Al 10.1297 1.30674 4.31526
100 Ni 8.84247 -0.231468 2.96663
101 Al 10.0583 1.45332 7.22583
102 Ni 8.70939 -0.10909 5.81491
103 Al 10.1888 1.46871 10.1683
104 Ni 8.79436 -0.167904 8.63046
105 Al 10.1691 4.3692 1.48771
106 Ni 8.67391 2.74846 -0.0526401
107 Al 10.1476 4.39262 4.42675
108 Ni 8.68449 2.89592 3.07621
109 Al 10.1806 4.43841 7.26025
110 Ni 8.67447 2.97109 5.88219
111 Al 10.165 4.48939 10.1194
112 Ni 8.72432 2.91993 8.70893
113 Al 10.0813 7.18393 1.52165
114 Ni 8.62108 5.83747 0.0384821
115 Al 10.0942 7.40729 4.3919
116 Ni 8.52353 5.79108 2.8708
117 Al 10.1045 7.27911 7.09795
118 Ni 8.74821 5.84609 5.9395
119 Al 10.0657 7.20809 10.2107
120 Ni 8.60164 5.83993 8.69726
121 Al 10.0373 10.2709 1.44059
122 Ni 8.59911 8.64432 0.118897
123 Al 10.1741 10.2048 4.44856
124 Ni 8.75564 8.76029 2.99658
125 Al 10.1888 10.2051 7.14862
126 Ni 8.57416 8.83868 5.81582
127 Al 10.1902 10.4038 10.1577
128 Ni 8.88981 8.71739 8.65651
ITEM: TIMESTEP
9900
ITEM: NUMBER OF ATOMS
128
ITEM: BOX BOUNDS xy xz yz pp pp pp
-9.3148677689138301e-02 1.1582829555619266e+01 -6.2631804503831641e-03
-2.6430975408417545e-02 1.1642096397486201e+01 -8.5840261443414140e-02
-3.2700330075321915e-02 1.1614484649899222e+01 3.3881102254019357e-02
ITEM: ATOMS id element xu yu zu
1 Al 1.50041 1.48656 1.49664
2 Ni 0.0313945 0.144279 -0.0118903
3 Al 1.4465 1.52473 4.40239
4 Ni -0.0247854 0.111069 3.02369
5 Al 1.38665 1.49734 7.22666
6 Ni 0.0155746 0.118798 5.64495
7 Al 1.40579 1.55266 10.1677
8 Ni 0.0231667 0.0749716 8.72532
9 Al 1.45658 4.24252 1.40128
10 Ni -0.0580638 2.69627 0.0653122
11 Al 1.35418 4.26855 4.29875
12 Ni -0.16425 2.75953 2.99874
13 Al 1.43879 4.32643 7.08777
14 Ni -0.0285442 2.89264 5.77936
15 Al 1.25026 4.49112 10.2767
16 Ni 0.016341 3.03116 8.64717
17 Al 1.48098 7.34957 1.48735
18 Ni -0.0920481 5.86338 -0.104586
19 Al 1.39976 7.33938 4.24792
20 Ni -0.116042 5.75837 2.79373
21 Al 1.35426 7.13414 7.23051
22 Ni -0.168028 5.68327 5.80213
23 Al 1.38379 7.28564 10.1497
24 Ni -0.130888 5.77694 8.79971
25 Al 1.3903 10.2616 1.41281
26 Ni 0.18805 8.76339 -0.0217334
27 Al 1.3899 10.1414 4.4685
28 Ni -0.0521449 8.63484 2.88758
29 Al 1.39876 10.2471 7.25467
30 Ni -0.109977 8.62213 5.81742
31 Al 1.37426 10.1747 10.0331
32 Ni -0.0409037 8.8962 8.64592
33 Al 4.25641 1.435 1.56275
34 Ni 2.83948 0.101374 -0.0678529
35 Al 4.40238 1.39975 4.38218
36 Ni 2.81224 -0.0441614 2.99677
37 Al 4.3515 1.48496 7.30382
38 Ni 2.90297 0.0180224 5.75779
39 Al 4.1286 1.49301 10.1099
40 Ni 2.78228 0.0748987 8.62428
41 Al 4.2828 4.29197 1.4051
42 Ni 2.86402 2.88544 0.0635692
43 Al 4.37812 4.36127 4.35762
44 Ni 2.77995 2.93733 2.85868
45 Al 4.34514 4.37929 7.18111
46 Ni 2.91262 2.96001 5.71906
47 Al 4.29114 4.34229 10.2441
48 Ni 2.87404 2.78052 8.66392
49 Al 4.24733 7.09413 1.5328
50 Ni 2.78727 5.78542 -0.0217576
51 Al 4.251 7.16948 4.34275
52 Ni 2.91346 5.703 2.9558
53 Al 4.33809 7.1798 7.31139
54 Ni 2.80807 5.70295 5.68571
55 Al 4.23182 7.29177 10.3343
56 Ni 2.85383 5.73747 8.71119
57 Al 4.39537 10.1544 1.44888
58 Ni 2.82953 8.86132 0.0093385
59 Al 4.36715 10.0649 4.30075
60 Ni 2.92387 8.83336 2.84982
61 Al 4.33922 10.0933 7.42927
62 Ni 2.92787 8.80922 5.90312
63 Al 4.2143 10.234 10.2248
64 Ni 2.91165 8.66454 8.68808
65 Al 7.26677 1.36571 1.3359
66 Ni 5.93039 0.0645847 0.00877209
67 Al 7.23811 1.53381 4.2896
68 Ni 5.77767 0.00610899 2.84621
69 Al 7.22096 1.383 7.14094
70 Ni 5.74571 -0.143131 5.77582
71 Al 7.20144 1.50408 10.1522
72 Ni 5.68413 0.0156743 8.70915
73 Al 7.13502 4.38084 1.43793
74 Ni 5.72201 2.77457 -0.0966449
75 Al 7.19661 4.28938 4.38891
76 Ni 5.84522 2.90091 2.97328
77 Al 7.1978 4.37814 7.27224
78 Ni 5.70205 2.94252 5.86369
79 Al 7.13106 4.3565 10.1134
80 Ni 5.70869 2.84657 8.61956
81 Al 7.26401 7.26357 1.36879
82 Ni 5.74393 5.70766 -0.0320074
83 Al 7.18829 7.27167 4.29442
84 Ni 5.8882 5.71766 2.93889
85 Al 7.21106 7.15142 7.28455
86 Ni 5.72366 5.97427 5.87939
87 Al 7.16688 7.27807 10.0777
88 Ni 5.64957 5.82274 8.88185
89 Al 7.10473 10.1502 1.38542
90 Ni 5.8043 8.69922 0.0900217
91 Al 7.21721 10.1323 4.28781
92 Ni 5.7859 8.53211 2.89844
93 Al 7.20508 10.1629 7.28097
94 Ni 5.68452 8.8189 5.83999
95 Al 7.09346 10.2789 10.1882
96 Ni 5.73318 8.69207 8.83003
97 Al 10.1503 1.32796 1.52267
98 Ni 8.77304 -0.134558 -0.0841006
99 Al 9.98104 1.3394 4.34467
100 Ni 8.54889 -0.00570698 2.86311
101 Al 10.0995 1.44241 7.2352
102 Ni 8.62052 -0.031882 5.75969
103 Al 10.0803 1.55755 10.0849
104 Ni 8.49031 0.0306906 8.69952
105 Al 10.3084 4.30079 1.36015
106 Ni 8.66011 2.90725 -0.10135
107 Al 10.0571 4.19088 4.33177
108 Ni 8.65359 2.84538 2.67848
109 Al 9.98858 4.32009 7.17391
110 Ni 8.62373 2.80895 5.77452
111 Al 10.0271 4.2533 10.1466
112 Ni 8.56898 2.84425 8.6472
113 Al 10.1305 7.33527 1.39374
114 Ni 8.81653 5.82188 -0.109121
115 Al 10.0318 7.2915 4.37575
116 Ni 8.81001 5.85242 2.8392
117 Al 10.0021 7.16476 7.17748
118 Ni 8.57337 5.74151 5.68254
119 Al 10.0681 7.29116 10.1113
120 Ni 8.70263 5.85996 8.71604
121 Al 10.133 10.2452 1.38923
122 Ni 8.82719 8.80997 -0.191768
123 Al 10.0922 10.1194 4.35051
124 Ni 8.65634 8.72932 2.86253
125 Al 10.0857 10.177 7.12669
126 Ni 8.75658 8.59661 5.77182
127 Al 10.1681 10.434 10.0745
128 Ni 8.44412 8.70816 8.64933
ITEM: TIMESTEP
10000
ITEM: NUMBER OF ATOMS
128
ITEM: BOX BOUNDS xy xz yz pp pp pp
-4.5489076158219774e-02 1.1671359919989756e+01 5.2927349739778841e-02
-9.2220156651349430e-02 1.1567855200416986e+01 -8.8408257321554284e-03
-6.8387620699864371e-02 1.1650171940523780e+01 -1.0614927605812731e-01
ITEM: ATOMS id element xu yu zu
1 Al 1.44641 1.39667 1.36899
2 Ni -0.0515218 -0.0840098 -0.093498
3 Al 1.43564 1.37535 4.29034
4 Ni -0.0882966 -0.144651 2.84212
5 Al 1.42546 1.46477 7.17726
6 Ni -0.258967 -0.120005 5.89141
7 Al 1.44955 1.27848 10.1854
8 Ni -0.0400112 0.0181401 8.61064
9 Al 1.58987 4.18631 1.40628
10 Ni 0.0893409 2.96569 -0.120008
11 Al 1.48931 4.23658 4.39578
12 Ni 0.0054047 2.93041 2.78985
13 Al 1.34365 4.36556 7.16485
14 Ni -0.0680318 2.83911 5.7503
15 Al 1.46905 4.23576 10.2265
16 Ni -0.045959 2.70132 8.7211
17 Al 1.46495 7.29297 1.32566
18 Ni 0.174923 5.67563 -0.0857021
19 Al 1.34903 7.19217 4.20136
20 Ni 0.014325 5.84071 2.84367
21 Al 1.41083 7.27001 7.28029
22 Ni -0.0146495 5.79723 5.79693
23 Al 1.48372 7.06234 10.2285
24 Ni 0.0760266 5.77072 8.63994
25 Al 1.53314 9.99764 1.29352
26 Ni -0.099307 8.73158 -0.182878
27 Al 1.40097 10.0496 4.28344
28 Ni -0.042635 8.65137 2.79335
29 Al 1.39678 10.1991 7.26338
30 Ni -0.0443428 8.72956 5.77975
31 Al 1.44033 9.98185 10.1571
32 Ni 0.0646839 8.58965 8.77576
33 Al 4.39397 1.46593 1.42102
34 Ni 2.94615 -0.0314706 0.0385588
35 Al 4.4846 1.34561 4.32879
36 Ni 2.97644 -0.0473483 2.83406
37 Al 4.42213 1.39765 7.35431
38 Ni 2.9128 -0.0664908 5.68134
39 Al 4.22307 1.43442 10.1307
40 Ni 2.92677 -0.0557237 8.70513
41 Al 4.28161 4.42761 1.44063
42 Ni 2.88019 2.77514 -0.00324374
43 Al 4.29114 4.3572 4.30784
44 Ni 3.01496 2.85355 2.87326
45 Al 4.41742 4.26237 7.14978
46 Ni 2.95137 2.8621 5.71574
47 Al 4.39995 4.29351 10.3607
48 Ni 2.89821 2.84479 8.61212
49 Al 4.30078 7.24095 1.43749
50 Ni 2.98337 5.76806 0.00390294
51 Al 4.30608 7.09467 4.25476
52 Ni 2.78694 5.90215 2.79514
53 Al 4.32866 7.0824 7.31213
54 Ni 2.88439 5.82437 5.85827
55 Al 4.35203 7.06781 10.1444
56 Ni 2.78079 5.73614 8.6891
57 Al 4.40472 9.99181 1.44361
58 Ni 2.96225 8.56903 -0.134717
59 Al 4.46941 9.91107 4.32274
60 Ni 2.85174 8.52915 2.94624
61 Al 4.33309 9.83327 7.19721
62 Ni 2.76492 8.48401 5.68046
63 Al 4.29996 10.0495 10.0737
64 Ni 2.79241 8.7706 8.73808
65 Al 7.23551 1.38582 1.43289
66 Ni 5.66157 -0.120928 -0.0601266
67 Al 7.26739 1.41255 4.3148
68 Ni 5.83386 -0.110983 2.85261
69 Al 7.26321 1.3808 7.29728
70 Ni 5.77207 -0.00206701 5.87051
71 Al 7.26856 1.35767 10.2714
72 Ni 5.8003 -0.097117 8.73181
73 Al 7.17994 4.44619 1.45801
74 Ni 5.86137 3.00799 -0.0547102
75 Al 7.24076 4.29146 4.322
76 Ni 5.80758 2.94767 2.70862
77 Al 7.25126 4.25467 7.30726
78 Ni 5.85948 2.8874 5.6576
79 Al 7.16833 4.29668 10.2428
80 Ni 5.78428 2.90132 8.88264
81 Al 7.27557 7.3217 1.40199
82 Ni 5.73573 5.91468 -0.0253399
83 Al 7.25663 7.23712 4.38095
84 Ni 5.74581 5.92653 2.7898
85 Al 7.34641 7.06487 7.36877
86 Ni 5.93994 5.61256 5.72498
87 Al 7.2982 7.11527 10.0517
88 Ni 5.90323 5.71544 8.60109
89 Al 7.14295 10.1394 1.32521
90 Ni 5.75563 8.66769 -0.122054
91 Al 7.34051 10.0539 4.3479
92 Ni 5.91288 8.75939 2.82067
93 Al 7.26263 10.1291 7.39699
94 Ni 5.88408 8.48566 5.90187
95 Al 7.20706 10.0143 10.295
96 Ni 5.77452 8.58604 8.63319
97 Al 10.2902 1.46896 1.45601
98 Ni 8.65913 0.120055 0.0095192
99 Al 10.2135 1.4422 4.30937
100 Ni 8.74749 0.0646836 2.84287
101 Al 10.0776 1.48063 7.20284
102 Ni 8.6368 -0.0380256 5.84898
103 Al 10.1845 1.2815 10.2257
104 Ni 8.75697 0.00819439 8.70747
105 Al 10.3028 4.35959 1.44222
106 Ni 8.78452 2.85602 -0.0963494
107 Al 10.2742 4.3485 4.3148
108 Ni 8.68589 2.88885 2.99539
109 Al 10.1206 4.27179 7.23412
110 Ni 8.57574 2.8967 5.84042
111 Al 10.2199 4.13417 10.2123
112 Ni 8.7069 2.85504 8.76711
113 Al 10.2099 7.2059 1.35322
114 Ni 8.69718 5.7268 -0.115896
115 Al 10.1027 7.28313 4.46692
116 Ni 8.66017 5.71442 2.84255
117 Al 10.0961 7.21682 7.27705
118 Ni 8.85688 5.83138 5.91176
119 Al 10.2333 6.91738 10.2393
120 Ni 8.67599 5.64027 8.78687
121 Al 10.1167 10.1917 1.36215
122 Ni 8.6883 8.63162 0.0294133
123 Al 10.1283 10.0545 4.36959
124 Ni 8.7823 8.5623 2.79416
125 Al 10.1652 10.009 7.29475
126 Ni 8.71604 8.73932 5.88428
127 Al 10.1665 10.164 10.2782
128 Ni 8.84984 8.68022 8.79309
ITEM: TIMESTEP
10100
ITEM: NUMBER OF ATOMS
128
ITEM: BOX BOUNDS xy xz yz pp pp pp
-8.9899835407100004e-02 1.1702545839084932e+01 -5.0057800970828230e-02
-9.0383369406324531e-03 1.1578020592465226e+01 8.0919484824757110e-02
-5.1481802715357183e-02 1.1633266122539265e+01 -1.2802064299175809e-02
ITEM: ATOMS id element xu yu zu
1 Al 1.4423 1.55529 1.34657
2 Ni -0.0238564 0.121126 0.032709
3 Al 1.43012 1.39326 4.31914
4 Ni -0.0794575 0.144451 2.77876
5 Al 1.37759 1.38214 7.35637
6 Ni 0.17058 -0.00999778 5.71907
7 Al 1.51726 1.41729 10.1898
8 Ni -0.0257547 -0.104774 8.87623
9 Al 1.4744 4.31314 1.3237
10 Ni -0.0102564 2.88341 -0.0154809
11 Al 1.42184 4.28841 4.4472
12 Ni 0.00301912 2.93915 2.94257
13 Al 1.41047 4.36444 7.28695
14 Ni 0.0128557 2.89023 5.76388
15 Al 1.41287 4.32643 10.2783
16 Ni 0.0671291 2.88205 8.72289
17 Al 1.53674 7.18706 1.49458
18 Ni -0.163755 5.86521 -0.0555045
19 Al 1.57495 7.28292 4.3001
20 Ni -0.0342544 5.69446 2.81996
21 Al 1.402 7.18132 7.2967
22 Ni -0.00213952 5.71761 5.84578
23 Al 1.39928 7.22501 10.1772
24 Ni -0.00232762 5.715 8.76196
25 Al 1.44282 10.0288 1.39861
26 Ni -0.0763565 8.58841 0.105046
27 Al 1.39144 10.0571 4.40638
28 Ni -0.0601368 8.70535 2.92638
29 Al 1.28162 10.0968 7.3811
30 Ni -0.133956 8.67246 5.79542
31 Al 1.48241 10.0653 10.1547
32 Ni -0.105132 8.74135 8.72304
33 Al 4.23141 1.49076 1.38476
34 Ni 2.80358 -0.0525218 -0.102441
35 Al 4.27003 1.44162 4.30405
36 Ni 2.79587 -0.0251092 2.8316
37 Al 4.38275 1.41598 7.22358
38 Ni 2.88258 0.0340635 5.86943
39 Al 4.33816 1.4399 10.1455
40 Ni 2.90716 0.00579677 8.71037
41 Al 4.27968 4.38145 1.45343
42 Ni 2.91841 3.06322 -0.141424
43 Al 4.25945 4.35278 4.37807
44 Ni 2.78063 2.93526 2.86039
45 Al 4.40988 4.32508 7.13072
46 Ni 2.80577 2.80816 5.7817
47 Al 4.41981 4.32512 10.2587
48 Ni 2.95217 2.75131 8.72012
49 Al 4.34783 7.17867 1.28427
50 Ni 2.73568 5.86824 -0.225329
51 Al 4.27216 7.2537 4.22277
52 Ni 3.02072 5.76478 2.90106
53 Al 4.34741 7.30745 7.15831
54 Ni 2.89529 5.70642 5.73757
55 Al 4.34256 7.21061 10.2358
56 Ni 2.9875 5.81149 8.56303
57 Al 4.41372 10.13 1.36172
58 Ni 2.77701 8.77501 -0.0891942
59 Al 4.32929 10.2384 4.27389
60 Ni 2.88442 8.77535 2.8722
61 Al 4.44264 10.1421 7.2485
62 Ni 3.02868 8.92182 5.87239
63 Al 4.36031 10.1322 10.056
64 Ni 2.93225 8.57852 8.66282
65 Al 7.20669 1.32212 1.47469
66 Ni 5.93521 -0.026886 -0.0544659
67 Al 7.28298 1.44933 4.33666
68 Ni 5.81948 -0.008349 2.84696
69 Al 7.33586 1.48362 7.22891
70 Ni 5.92962 0.0733704 5.70421
71 Al 7.34563 1.47789 10.2399
72 Ni 5.80025 0.0654605 8.68041
73 Al 7.09714 4.30898 1.54734
74 Ni 5.68003 2.86703 -0.0334645
75 Al 7.23695 4.26946 4.38872
76 Ni 5.71695 2.80022 3.05208
77 Al 7.27632 4.37711 7.2573
78 Ni 5.79145 2.90184 5.79496
79 Al 7.26503 4.29324 10.1163
80 Ni 5.80122 2.88961 8.63914
81 Al 7.26999 7.2987 1.45867
82 Ni 5.79056 5.63331 -0.150115
83 Al 7.2755 7.22424 4.44604
84 Ni 5.80531 5.70017 2.92532
85 Al 7.21334 7.12573 7.34417
86 Ni 5.69736 5.86049 5.83155
87 Al 7.30668 7.00533 10.1481
88 Ni 5.7671 5.74823 8.70604
89 Al 7.10934 10.0615 1.36506
90 Ni 5.8296 8.73545 -0.113749
91 Al 7.31061 10.1157 4.31511
92 Ni 5.74653 8.63965 2.93628
93 Al 7.31353 10.2023 7.31881
94 Ni 5.8073 8.84832 5.697
95 Al 7.25964 10.0264 10.1824
96 Ni 5.8363 8.75975 8.6989
97 Al 10.1321 1.45425 1.38398
98 Ni 8.66726 -0.0298204 -0.132537
99 Al 10.2439 1.48027 4.24279
100 Ni 8.68881 -0.0686257 2.82883
101 Al 10.2441 1.43988 7.26209
102 Ni 8.73507 0.063902 5.81014
103 Al 10.2499 1.41162 10.1743
104 Ni 8.7337 0.0787525 8.79236
105 Al 10.2355 4.32659 1.48416
106 Ni 8.60214 3.02078 -0.0504914
107 Al 10.2734 4.31205 4.32005
108 Ni 8.79171 2.91645 2.82263
109 Al 10.1473 4.24916 7.26713
110 Ni 8.90417 2.89712 5.71299
111 Al 10.152 4.29376 10.2869
112 Ni 8.78758 2.87204 8.78364
113 Al 10.1379 7.29076 1.44195
114 Ni 8.65437 5.81279 0.0413318
115 Al 10.2622 7.24008 4.37539
116 Ni 8.75747 5.83668 2.84383
117 Al 10.0649 7.17687 7.12774
118 Ni 8.71436 5.68071 5.7606
119 Al 10.2218 7.12653 10.1689
120 Ni 8.80916 5.80898 8.62585
121 Al 10.1418 10.2103 1.40184
122 Ni 8.65588 8.63428 -0.174301
123 Al 10.1813 10.1675 4.40024
124 Ni 8.64331 8.74734 2.93207
125 Al 10.0775 10.0964 7.22987
126 Ni 8.79641 8.60273 5.73348
127 Al 10.2372 10.1178 10.3181
128 Ni 8.68228 8.5065 8.68469
ITEM: TIMESTEP
10200
ITEM: NUMBER OF ATOMS
128
ITEM: BOX BOUNDS xy xz yz pp pp pp
-9.0254780242676830e-02 1.1583797630561479e+01 -5.7780399954686930e-02
-5.6740159015673086e-02 1.1744106327468732e+01 -3.0461069550405978e-02
1.0392869978091746e-02 1.1571391449845819e+01 1.0558184862928209e-01
ITEM: ATOMS id element xu yu zu
1 Al 1.35102 1.47553 1.42909
2 Ni -0.112246 -0.13932 -0.106869
3 Al 1.35463 1.53488 4.35634
4 Ni 0.092269 -0.0456309 3.03667
5 Al 1.39853 1.3321 7.29656
6 Ni -0.129073 0.0732325 5.82198
7 Al 1.34541 1.52627 10.141
8 Ni -0.0183467 0.0816239 8.65176
9 Al 1.35603 4.32317 1.36794
10 Ni -0.125942 2.9111 -0.0281709
11 Al 1.36353 4.31506 4.34263
12 Ni -0.113626 2.84739 2.71426
13 Al 1.3303 4.47308 7.2795
14 Ni 0.00296167 2.92994 5.88347
15 Al 1.39384 4.42193 10.2302
16 Ni -0.140454 3.05692 8.76627
17 Al 1.48051 7.2586 1.46658
18 Ni 0.0411179 5.89476 -0.023625
19 Al 1.54264 7.33077 4.35536
20 Ni -0.0467422 5.95718 2.95
21 Al 1.50317 7.26382 7.36675
22 Ni 0.0116546 5.82285 5.70399
23 Al 1.37283 7.40238 10.165
24 Ni -0.102137 6.00488 8.61675
25 Al 1.50353 10.1283 1.41076
26 Ni -0.0456775 8.73015 -0.108061
27 Al 1.43924 10.1288 4.31249
28 Ni -0.0246192 8.66469 2.90202
29 Al 1.30583 10.1754 7.30175
30 Ni 0.0134423 8.79998 5.75696
31 Al 1.41807 10.3292 10.1876
32 Ni -0.081829 8.72298 8.57357
33 Al 4.31414 1.51471 1.38567
34 Ni 2.88258 0.0266187 0.00264294
35 Al 4.24972 1.56886 4.26957
36 Ni 2.96082 0.0368115 2.89575
37 Al 4.23039 1.45028 7.3133
38 Ni 2.84127 -0.0117555 5.72871
39 Al 4.28489 1.50074 10.0707
40 Ni 2.82146 0.0122212 8.84976
41 Al 4.35816 4.32412 1.46596
42 Ni 2.79659 2.78589 0.0760188
43 Al 4.20503 4.39146 4.37547
44 Ni 2.96782 2.85186 2.84215
45 Al 4.40295 4.41552 7.14856
46 Ni 2.87397 2.91174 5.90501
47 Al 4.33212 4.37046 10.2679
48 Ni 2.74374 2.96387 8.75437
49 Al 4.27404 7.21268 1.53119
50 Ni 3.02911 5.75065 0.15146
51 Al 4.25832 7.2997 4.31435
52 Ni 2.81252 5.82473 3.00075
53 Al 4.30206 7.41033 7.288
54 Ni 2.85268 5.84657 5.85923
55 Al 4.25226 7.2468 10.2006
56 Ni 2.78332 5.96994 8.80513
57 Al 4.39139 10.2398 1.45025
58 Ni 2.94836 8.60247 0.0417105
59 Al 4.29029 10.2896 4.36115
60 Ni 2.87334 8.76824 2.83658
61 Al 4.29178 10.3044 7.29165
62 Ni 2.74819 8.69362 5.79877
63 Al 4.37813 10.235 10.1589
64 Ni 2.92626 8.92994 8.78904
65 Al 7.24499 1.29491 1.45323
66 Ni 5.75962 0.0591002 0.0291332
67 Al 7.13198 1.37113 4.37357
68 Ni 5.77025 0.0873894 2.88587
69 Al 7.24186 1.36658 7.19413
70 Ni 5.7391 -0.0684817 5.89047
71 Al 7.31465 1.55074 10.1043
72 Ni 5.94672 -0.018404 8.69117
73 Al 7.13755 4.37948 1.43527
74 Ni 5.86111 2.91254 -0.102781
75 Al 7.1449 4.24846 4.31213
76 Ni 5.8199 2.89584 2.78485
77 Al 7.21764 4.37024 7.17639
78 Ni 5.75346 2.74656 5.79629
79 Al 7.1751 4.47295 10.0998
80 Ni 5.78142 2.81774 8.64199
81 Al 7.20546 7.20471 1.50407
82 Ni 5.7398 5.87827 0.0439626
83 Al 7.19364 7.3908 4.35913
84 Ni 5.60652 5.7995 2.99613
85 Al 7.16237 7.23779 7.20945
86 Ni 5.81358 5.61003 5.74626
87 Al 7.18837 7.28775 10.1068
88 Ni 5.81167 5.81708 8.57392
89 Al 7.09535 10.1995 1.4278
90 Ni 5.72296 8.62013 0.153674
91 Al 7.17567 10.2038 4.27334
92 Ni 5.72778 8.82904 2.82566
93 Al 7.20606 10.2703 7.18286
94 Ni 5.59116 8.77413 5.86558
95 Al 7.19778 10.2007 10.2109
96 Ni 5.76957 8.79102 8.68353
97 Al 10.1313 1.31657 1.44697
98 Ni 8.77864 -0.141661 0.119074
99 Al 10.1619 1.56345 4.28232
100 Ni 8.76064 0.0863486 2.90139
101 Al 10.1408 1.57777 7.3251
102 Ni 8.76268 -0.0674255 5.72697
103 Al 10.0019 1.44009 10.1465
104 Ni 8.73193 -0.00815402 8.58484
105 Al 10.0826 4.33194 1.51038
106 Ni 8.70525 2.87731 -0.0282212
107 Al 10.1795 4.26082 4.31733
108 Ni 8.64135 2.88895 2.85984
109 Al 10.0509 4.41403 7.16272
110 Ni 8.64199 2.85794 5.81726
111 Al 10.0494 4.57436 10.1875
112 Ni 8.65321 2.95614 8.53574
113 Al 10.0705 7.17542 1.43963
114 Ni 8.6215 5.838 -0.084402
115 Al 10.1313 7.28995 4.45676
116 Ni 8.56342 5.68443 2.93439
117 Al 9.99494 7.35497 7.11093
118 Ni 8.58136 5.87628 5.7221
119 Al 10.0438 7.42666 10.1174
120 Ni 8.50937 5.79439 8.59855
121 Al 10.188 10.1464 1.44933
122 Ni 8.63724 8.70765 0.172855
123 Al 10.1187 10.1566 4.3298
124 Ni 8.6453 8.71911 2.91833
125 Al 10.0931 10.2216 7.14156
126 Ni 8.60906 8.83689 5.72097
127 Al 10.0145 10.2663 10.0398
128 Ni 8.62055 8.89478 8.52913
ITEM: TIMESTEP
10300
ITEM: NUMBER OF ATOMS
128
ITEM: BOX BOUNDS xy xz yz pp pp pp
-9.2011994037301897e-02 1.1669420835159933e+01 8.6542501128889129e-02
-1.8070975633550715e-01 1.1713974076994763e+01 -9.0917979830163170e-02
8.1638163410655551e-03 1.1573620503482847e+01 -4.8519999164522244e-02
ITEM: ATOMS id element xu yu zu
1 Al 1.41325 1.5281 1.39267
2 Ni 0.0548654 -0.230911 0.0711961
3 Al 1.41117 1.40555 4.42101
4 Ni -0.134299 -0.170687 2.78357
5 Al 1.41282 1.22977 7.23186
6 Ni 0.171573 -0.197286 5.77172
7 Al 1.4373 1.30121 10.085
8 Ni -0.0783532 -0.18896 8.61423
9 Al 1.39645 4.37086 1.3234
10 Ni 0.0895842 2.92175 -0.00264645
11 Al 1.44444 4.3952 4.29802
12 Ni 0.0726378 2.88588 3.05087
13 Al 1.39628 4.35018 7.13154
14 Ni -0.0981895 2.90168 5.70035
15 Al 1.36577 4.18441 10.0757
16 Ni 0.000525978 2.69979 8.52781
17 Al 1.50086 7.30234 1.43142
18 Ni -0.0539251 5.74744 -0.00723437
19 Al 1.4432 7.26368 4.32067
20 Ni 0.00318716 5.63626 2.86847
21 Al 1.50812 7.16985 7.36586
22 Ni -0.0994391 5.82582 5.89505
23 Al 1.38991 7.1672 10.0682
24 Ni 0.021156 5.67351 8.74575
25 Al 1.49809 10.1975 1.47366
26 Ni -0.0535162 8.74052 0.13327
27 Al 1.53621 10.1855 4.30594
28 Ni 0.0917949 8.84427 2.91776
29 Al 1.48141 10.1383 7.19121
30 Ni 0.0043099 8.75265 5.79791
31 Al 1.43096 10.2744 10.1153
32 Ni 0.0322612 8.72562 8.78984
33 Al 4.32482 1.28674 1.4613
34 Ni 2.90442 -0.159734 -0.00630572
35 Al 4.28537 1.39396 4.20682
36 Ni 2.84512 -0.174959 2.87924
37 Al 4.27241 1.43026 7.33142
38 Ni 2.92754 -0.0473585 5.8727
39 Al 4.35573 1.33195 10.1998
40 Ni 2.84335 -0.1387 8.59008
41 Al 4.4477 4.23382 1.35269
42 Ni 2.85009 2.9061 -0.0552452
43 Al 4.39999 4.25771 4.21854
44 Ni 2.80755 2.81228 2.86842
45 Al 4.43439 4.27911 7.14738
46 Ni 2.93825 2.84629 5.73913
47 Al 4.38211 4.22251 10.3031
48 Ni 2.87581 2.78157 8.73481
49 Al 4.29656 7.24049 1.39244
50 Ni 2.81863 5.76555 -0.0824225
51 Al 4.26378 7.10395 4.25216
52 Ni 2.98159 5.71173 2.77539
53 Al 4.33746 7.29965 7.24637
54 Ni 2.85298 5.70013 5.72872
55 Al 4.25236 7.20471 10.2304
56 Ni 2.92705 5.64686 8.63939
57 Al 4.42882 10.1344 1.50348
58 Ni 2.97019 8.81293 -0.00945556
59 Al 4.29664 10.2469 4.372
60 Ni 2.83981 8.61067 2.95106
61 Al 4.41539 10.2462 7.21186
62 Ni 3.00182 8.68231 5.74926
63 Al 4.23268 10.1504 10.0941
64 Ni 2.80111 8.60492 8.62275
65 Al 7.36303 1.25899 1.45998
66 Ni 5.85444 -0.278483 0.00960967
67 Al 7.16867 1.32516 4.33005
68 Ni 5.73185 -0.307263 2.90612
69 Al 7.1291 1.35439 7.24827
70 Ni 5.71599 -0.10414 5.7721
71 Al 7.18489 1.35095 10.0547
72 Ni 5.53468 -0.186234 8.70483
73 Al 7.31552 4.21498 1.45899
74 Ni 5.9195 2.7529 0.119311
75 Al 7.26823 4.36241 4.36996
76 Ni 5.84419 2.74876 2.92395
77 Al 7.26407 4.45617 7.26856
78 Ni 5.73894 2.88138 5.86049
79 Al 7.22695 4.41592 10.1551
80 Ni 5.83738 2.88743 8.86594
81 Al 7.22313 7.33872 1.38125
82 Ni 5.89861 5.7271 0.00296145
83 Al 7.32021 7.31954 4.2945
84 Ni 5.92834 5.68683 2.81798
85 Al 7.28117 7.19463 7.2485
86 Ni 5.72368 5.85579 5.86047
87 Al 7.18 7.25827 10.1194
88 Ni 5.78182 5.79206 8.75774
89 Al 7.25586 10.2218 1.45152
90 Ni 5.89166 8.87041 -0.0458462
91 Al 7.22237 10.1833 4.36625
92 Ni 5.78571 8.73504 3.02676
93 Al 7.2129 10.2706 7.19282
94 Ni 5.84547 8.71612 5.72513
95 Al 7.18852 10.1984 10.0519
96 Ni 5.6902 8.74437 8.58797
97 Al 10.1563 1.38314 1.48893
98 Ni 8.70809 -0.104074 -0.0626324
99 Al 10.1847 1.34242 4.29041
100 Ni 8.65549 -0.226455 2.95257
101 Al 10.0602 1.31955 7.28526
102 Ni 8.53485 -0.149241 5.81236
103 Al 10.1241 1.1883 10.1519
104 Ni 8.60691 -0.271868 8.66716
105 Al 10.1448 4.20511 1.47309
106 Ni 8.7907 2.81304 -0.0737719
107 Al 10.1386 4.30533 4.34621
108 Ni 8.79889 2.88203 2.95644
109 Al 10.1009 4.19903 7.23596
110 Ni 8.66395 2.8713 5.7941
111 Al 10.0947 4.3531 10.1185
112 Ni 8.64683 2.74498 8.76123
113 Al 10.1061 7.22358 1.47627
114 Ni 8.69366 5.9159 0.0626098
115 Al 10.1611 7.23415 4.43007
116 Ni 8.74805 5.9059 2.87996
117 Al 10.1943 7.34528 7.26867
118 Ni 8.66424 5.77451 5.87575
119 Al 10.136 7.29432 10.2143
120 Ni 8.65027 5.9327 8.69398
121 Al 10.0868 10.2241 1.36581
122 Ni 8.69901 8.74825 -0.00815141
123 Al 10.177 10.18 4.40704
124 Ni 8.68535 8.80131 2.93988
125 Al 10.0991 10.1683 7.16782
126 Ni 8.66658 8.75493 5.76142
127 Al 10.1325 10.1637 10.1509
128 Ni 8.66649 8.62642 8.71021
ITEM: TIMESTEP
10400
ITEM: NUMBER OF ATOMS
128
ITEM: BOX BOUNDS xy xz yz pp pp pp
3.2886525264621547e-02 1.1679758094168317e+01 8.3231841380908819e-02
-2.0002759704244460e-01 1.1657572719293466e+01 4.7628458228129972e-02
1.0645403704363510e-02 1.1571138916119558e+01 -1.2423919757275242e-01
ITEM: ATOMS id element xu yu zu
1 Al 1.49258 1.48861 1.48628
2 Ni 0.00951247 0.0673619 0.00113594
3 Al 1.5917 1.50444 4.38748
4 Ni 0.138335 -0.0924424 3.07515
5 Al 1.60674 1.25596 7.24124
6 Ni -0.121155 -0.183957 5.82117
7 Al 1.62692 1.28778 10.1221
8 Ni 0.209915 -0.139291 8.70531
9 Al 1.36059 4.23471 1.45358
10 Ni 0.0381589 2.71114 -0.021026
11 Al 1.45145 4.26077 4.28573
12 Ni -0.0853756 2.73339 2.93603
13 Al 1.50432 4.38074 7.25467
14 Ni 0.0977322 2.68661 5.86028
15 Al 1.5083 4.182 10.2293
16 Ni 0.0639974 2.77635 8.80606
17 Al 1.5947 7.27353 1.4901
18 Ni 0.0865097 5.78434 0.0146966
19 Al 1.44023 7.16316 4.33471
20 Ni -0.00275886 5.83928 2.88584
21 Al 1.56478 7.38836 7.23812
22 Ni 0.10725 5.58225 5.78673
23 Al 1.55035 7.06145 9.97076
24 Ni 0.066645 5.6444 8.66369
25 Al 1.45287 10.1441 1.51868
26 Ni 0.187109 8.75003 -0.0939361
27 Al 1.55482 10.0573 4.27504
28 Ni 0.0658888 8.61101 2.97838
29 Al 1.63021 10.293 7.12547
30 Ni 0.110717 8.69406 5.74449
31 Al 1.60916 10.087 10.1257
32 Ni 0.113681 8.72593 8.60927
33 Al 4.34714 1.43041 1.59584
34 Ni 2.85654 -0.119715 0.0692703
35 Al 4.44518 1.39192 4.31403
36 Ni 2.98035 -0.112523 2.94419
37 Al 4.34428 1.254 7.15704
38 Ni 2.93617 -0.13665 5.65526
39 Al 4.42408 1.27121 10.1369
40 Ni 2.99411 -0.120822 8.62207
41 Al 4.43037 4.37811 1.41202
42 Ni 2.99487 2.80925 0.0618421
43 Al 4.49261 4.35817 4.31552
44 Ni 3.07215 2.88618 2.96426
45 Al 4.38354 4.14224 7.13349
46 Ni 2.99446 2.81012 5.68039
47 Al 4.39723 4.22915 10.2004
48 Ni 3.03814 2.66144 8.67544
49 Al 4.35519 7.31702 1.38759
50 Ni 2.99059 5.7616 0.0801023
51 Al 4.32094 7.17115 4.34578
52 Ni 2.93914 5.84325 2.9675
53 Al 4.46058 7.07346 7.24887
54 Ni 2.99374 5.75848 5.83202
55 Al 4.44545 7.17747 10.1407
56 Ni 2.83264 5.80799 8.69429
57 Al 4.4371 10.1856 1.43057
58 Ni 2.94881 8.57324 0.0174112
59 Al 4.42745 10.1114 4.31102
60 Ni 3.13194 8.73052 2.87027
61 Al 4.46107 10.0494 7.29857
62 Ni 2.90446 8.61725 5.71941
63 Al 4.41089 10.146 10.181
64 Ni 3.0397 8.5903 8.67156
65 Al 7.21086 1.46468 1.41047
66 Ni 5.65781 0.0104426 0.0732317
67 Al 7.24775 1.28519 4.33545
68 Ni 5.79449 -0.0152955 2.91587
69 Al 7.28659 1.34258 7.14978
70 Ni 5.87215 -0.143615 5.81296
71 Al 7.14622 1.3191 10.0595
72 Ni 5.88472 -0.113196 8.50861
73 Al 7.26419 4.38546 1.39928
74 Ni 5.68212 2.82376 -0.04929
75 Al 7.38679 4.38616 4.27243
76 Ni 5.84557 2.95395 2.91649
77 Al 7.36685 4.37886 7.21727
78 Ni 5.97905 2.89762 5.67942
79 Al 7.20743 4.16692 10.0919
80 Ni 5.75927 2.70346 8.52642
81 Al 7.3498 7.27543 1.33811
82 Ni 5.83325 5.76399 0.00149154
83 Al 7.34775 7.32062 4.25009
84 Ni 5.83533 5.86873 2.83919
85 Al 7.44088 7.09314 7.29053
86 Ni 6.00305 5.69257 5.84584
87 Al 7.39878 7.11695 10.1409
88 Ni 5.84761 5.59108 8.71114
89 Al 7.22251 10.2457 1.43789
90 Ni 5.74474 8.67078 -0.0548286
91 Al 7.28793 10.0432 4.4156
92 Ni 5.9575 8.71887 2.79938
93 Al 7.29388 10.0902 7.19437
94 Ni 5.81339 8.61694 5.82222
95 Al 7.22143 10.1555 10.0989
96 Ni 5.91372 8.58826 8.78283
97 Al 10.1034 1.38469 1.51199
98 Ni 8.62284 -0.123292 0.0481125
99 Al 10.1877 1.40288 4.31468
100 Ni 8.65197 -0.0395532 2.87474
101 Al 10.2358 1.33049 7.40209
102 Ni 8.69541 -0.173415 5.91366
103 Al 10.078 1.20095 10.1505
104 Ni 8.66241 0.0118003 8.72671
105 Al 10.115 4.27604 1.41828
106 Ni 8.60526 2.69495 0.140918
107 Al 10.1571 4.18208 4.30105
108 Ni 8.64658 2.68695 2.89586
109 Al 10.1746 4.09755 7.14173
110 Ni 8.74788 2.75933 5.835
111 Al 10.2237 4.20165 10.1263
112 Ni 8.70561 2.72129 8.67428
113 Al 10.0724 7.30651 1.26668
114 Ni 8.7982 5.73057 -0.0228085
115 Al 10.1128 7.16153 4.37686
116 Ni 8.73773 5.68602 2.85975
117 Al 10.3178 7.22093 7.25445
118 Ni 8.77797 5.7892 5.86409
119 Al 10.2702 7.22136 10.0646
120 Ni 8.79172 5.56786 8.78044
121 Al 10.1629 10.2391 1.38882
122 Ni 8.78791 8.8311 -0.108229
123 Al 10.1004 10.1211 4.37939
124 Ni 8.77197 8.69977 2.98256
125 Al 10.1298 10.1323 7.27289
126 Ni 8.80223 8.61955 5.86893
127 Al 10.2371 10.1152 10.1091
128 Ni 8.74737 8.70535 8.7103
ITEM: TIMESTEP
10500
ITEM: NUMBER OF ATOMS
128
ITEM: BOX BOUNDS xy xz yz pp pp pp
-1.0058551604912730e-01 1.1677554046896013e+01 -6.9596726200870485e-02
-3.4184397487877050e-02 1.1693369634573685e+01 6.4780937223850935e-02
-7.6139133313580132e-02 1.1657923453137510e+01 7.7400917262030758e-02
ITEM: ATOMS id element xu yu zu
1 Al 1.43185 1.36489 1.34336
2 Ni 0.0878435 -0.260087 -0.105838
3 Al 1.51345 1.53885 4.35308
4 Ni -0.126911 -0.08351 2.74374
5 Al 1.53109 1.36687 7.3287
6 Ni 0.119926 0.0979707 5.82486
7 Al 1.47884 1.4829 10.266
8 Ni -0.0794524 0.0926633 8.67653
9 Al 1.3716 4.32445 1.44824
10 Ni 0.0472857 2.99181 0.0284058
11 Al 1.41605 4.3515 4.34353
12 Ni 0.0924103 2.91392 2.76709
13 Al 1.28968 4.51827 7.28569
14 Ni -0.163122 2.99592 5.67498
15 Al 1.43794 4.44343 10.256
16 Ni 0.07343 2.84937 8.75594
17 Al 1.4284 7.31169 1.35171
18 Ni -0.0369797 5.83413 -0.0919895
19 Al 1.33232 7.32379 4.35478
20 Ni 0.0270545 5.78108 2.90922
21 Al 1.36967 7.38274 7.31172
22 Ni -0.0994244 5.89781 5.76246
23 Al 1.53647 7.29666 10.1245
24 Ni 0.0680599 5.89866 8.89158
25 Al 1.31648 10.0906 1.46066
26 Ni -0.329888 8.77255 -0.0938667
27 Al 1.39786 10.1781 4.39318
28 Ni -0.039072 8.80928 2.89538
29 Al 1.4534 10.2741 7.28412
30 Ni -0.0616371 8.67825 5.91618
31 Al 1.37197 10.0976 10.2305
32 Ni -0.0765755 8.62858 8.80026
33 Al 4.37307 1.47235 1.49533
34 Ni 3.01641 0.102356 -0.0471134
35 Al 4.35445 1.31199 4.25201
36 Ni 2.95038 -0.0808569 2.89049
37 Al 4.33867 1.4225 7.29523
38 Ni 2.99402 -0.0797354 5.867
39 Al 4.33731 1.636 10.1576
40 Ni 2.90423 -0.0719419 8.73835
41 Al 4.38174 4.41887 1.34691
42 Ni 2.83001 2.99041 -0.0353145
43 Al 4.2956 4.36575 4.38594
44 Ni 2.79433 2.91768 2.91811
45 Al 4.30424 4.30274 7.2661
46 Ni 2.84588 2.90689 5.88514
47 Al 4.3936 4.43056 10.2661
48 Ni 2.81317 2.97502 8.61008
49 Al 4.2649 7.28218 1.3539
50 Ni 2.79836 5.8468 -0.0452738
51 Al 4.3189 7.26711 4.31055
52 Ni 2.80659 5.87205 2.91621
53 Al 4.19252 7.26486 7.18437
54 Ni 2.77247 5.84527 5.75502
55 Al 4.45048 7.44734 10.1242
56 Ni 2.94207 5.76358 8.65441
57 Al 4.37241 10.1693 1.35052
58 Ni 3.00055 8.81574 -0.0222013
59 Al 4.28489 10.0641 4.21056
60 Ni 2.70165 8.70212 2.87981
61 Al 4.36049 10.2246 7.35319
62 Ni 2.96962 8.79501 5.85249
63 Al 4.39261 10.279 10.3032
64 Ni 2.91421 8.80748 8.8038
65 Al 7.33194 1.57886 1.34285
66 Ni 5.78864 -0.0119236 -0.147498
67 Al 7.2103 1.47736 4.27134
68 Ni 5.82408 -0.181682 2.87104
69 Al 7.23457 1.34919 7.34724
70 Ni 5.84299 -0.117552 5.72807
71 Al 7.26078 1.46355 10.219
72 Ni 5.76688 0.00135864 8.87308
73 Al 7.21594 4.37005 1.43629
74 Ni 5.73002 2.94731 -0.0135105
75 Al 7.22371 4.34486 4.33152
76 Ni 5.73579 2.84834 2.90202
77 Al 7.23681 4.40352 7.24073
78 Ni 5.60529 2.87415 5.86757
79 Al 7.18534 4.39169 10.0803
80 Ni 5.77724 2.95779 8.74037
81 Al 7.1578 7.14012 1.39995
82 Ni 5.7058 5.7951 -0.16859
83 Al 7.35827 7.31521 4.24177
84 Ni 5.88098 5.73868 3.01591
85 Al 7.3065 7.22282 7.24373
86 Ni 5.80754 5.8873 5.79898
87 Al 7.24752 7.35019 10.2117
88 Ni 5.88894 5.90783 8.60336
89 Al 7.22583 10.1951 1.46196
90 Ni 5.81345 8.61652 -0.0700772
91 Al 7.25467 9.99218 4.32958
92 Ni 5.83724 8.64057 2.81967
93 Al 7.21473 10.2294 7.20252
94 Ni 5.93998 8.75975 5.90094
95 Al 7.23091 10.1637 10.2318
96 Ni 5.83898 8.79529 8.70401
97 Al 10.1692 1.59241 1.32803
98 Ni 8.68516 0.0301542 -0.0957334
99 Al 10.2646 1.59456 4.09139
100 Ni 8.71573 -0.113231 2.83518
101 Al 10.0939 1.47655 7.14154
102 Ni 8.67587 -0.0522772 5.63867
103 Al 10.1568 1.43936 10.0826
104 Ni 8.70868 -0.083577 8.69442
105 Al 10.1861 4.47182 1.37913
106 Ni 8.677 2.97487 -0.132247
107 Al 10.1287 4.39748 4.22153
108 Ni 8.66994 3.00148 2.81434
109 Al 10.2301 4.33077 7.27101
110 Ni 8.70097 2.95492 5.71631
111 Al 10.3236 4.45284 10.1279
112 Ni 8.77385 2.9287 8.73797
113 Al 10.0769 7.24696 1.19017
114 Ni 8.5396 5.7066 -0.109596
115 Al 10.1363 7.33589 4.25181
116 Ni 8.67619 5.8489 2.83691
117 Al 10.1059 7.3039 7.33957
118 Ni 8.70221 5.70353 5.72068
119 Al 10.1032 7.27792 10.1959
120 Ni 8.65482 5.75209 8.69939
121 Al 10.063 10.237 1.32781
122 Ni 8.67968 8.71354 -0.0578129
123 Al 10.1495 10.185 4.40875
124 Ni 8.67128 8.62492 2.65287
125 Al 10.1686 10.1958 7.21872
126 Ni 8.66463 8.79579 5.81548
127 Al 10.0965 10.2297 10.1765
128 Ni 8.75751 8.78504 8.72954
ITEM: TIMESTEP
10600
ITEM: NUMBER OF ATOMS
128
ITEM: BOX BOUNDS xy xz yz pp pp pp
-1.2062581631232810e-01 1.1612002142707283e+01 -3.1565415020380523e-02
4.9592900345714064e-02 1.1635797388908081e+01 -5.8842578408584860e-02
-5.8680252360461260e-02 1.1640464572184374e+01 1.0360596943002853e-01
ITEM: ATOMS id element xu yu zu
1 Al 1.30071 1.545 1.34423
2 Ni -0.201517 0.271308 -0.0272319
3 Al 1.37758 1.47726 4.24459
4 Ni 0.0157551 0.0463554 2.79464
5 Al 1.37886 1.42961 7.2648
6 Ni -0.0792853 -0.0470377 5.79181
7 Al 1.36423 1.65258 10.2047
8 Ni -0.00319815 0.0673685 8.77618
9 Al 1.34174 4.268 1.38422
10 Ni -0.0407038 2.97318 -0.195968
11 Al 1.41936 4.43942 4.34951
12 Ni -0.0496233 3.00799 2.99941
13 Al 1.48215 4.31703 7.24816
14 Ni 0.0292599 2.86745 5.7872
15 Al 1.33666 4.59065 10.1806
16 Ni -0.188944 3.09437 8.59316
17 Al 1.58572 7.15849 1.47575
18 Ni -0.0596184 5.73837 -0.0773101
19 Al 1.39803 7.22899 4.30575
20 Ni -0.00899325 5.79626 2.80206
21 Al 1.23896 7.17207 7.26062
22 Ni -0.0353908 5.8383 5.81617
23 Al 1.32173 7.30568 10.0744
24 Ni -0.170199 5.90353 8.62307
25 Al 1.27008 10.0562 1.39081
26 Ni 0.0758635 8.56462 -0.0747419
27 Al 1.38521 10.0959 4.25673
28 Ni -0.0936814 8.60363 2.77395
29 Al 1.43941 10.168 7.27443
30 Ni -0.0955256 8.77614 5.64508
31 Al 1.32767 10.1311 10.1599
32 Ni -0.125974 8.80155 8.77984
33 Al 4.30016 1.40214 1.34854
34 Ni 2.8253 -0.1245 -0.144785
35 Al 4.21074 1.46173 4.21519
36 Ni 2.76185 0.083495 2.71584
37 Al 4.27135 1.61222 7.23517
38 Ni 2.73027 0.134562 5.937
39 Al 4.29175 1.44461 10.224
40 Ni 2.86048 0.19752 8.78249
41 Al 4.35134 4.27774 1.2778
42 Ni 2.89229 2.8718 -0.120014
43 Al 4.33901 4.38311 4.35063
44 Ni 2.86771 2.81264 2.77226
45 Al 4.27485 4.38192 7.35506
46 Ni 2.87092 2.91179 5.77152
47 Al 4.37752 4.2732 10.2302
48 Ni 2.90276 2.95959 8.79512
49 Al 4.37916 7.25697 1.3931
50 Ni 3.02179 5.76291 -0.117858
51 Al 4.25687 7.33892 4.43003
52 Ni 2.86156 5.84454 2.86478
53 Al 4.17788 7.31641 7.19129
54 Ni 2.95036 5.83792 5.84038
55 Al 4.28801 7.37798 10.1535
56 Ni 2.82175 5.98995 8.72743
57 Al 4.34408 10.1053 1.32226
58 Ni 2.8001 8.5449 -0.0903223
59 Al 4.21787 10.2786 4.22484
60 Ni 2.94605 8.74776 2.87194
61 Al 4.21713 10.2558 7.26564
62 Ni 2.6922 8.75614 5.84715
63 Al 4.35609 10.1351 10.1861
64 Ni 2.83785 8.66849 8.61937
65 Al 7.33944 1.58043 1.37791
66 Ni 5.85815 0.045573 -0.022521
67 Al 7.22164 1.59988 4.33544
68 Ni 5.73272 0.227209 2.86277
69 Al 7.21008 1.43744 7.41468
70 Ni 5.74041 0.214273 5.76997
71 Al 7.1872 1.59935 10.2439
72 Ni 5.81771 0.195687 8.76454
73 Al 7.28775 4.32198 1.47275
74 Ni 5.80366 2.87399 -0.0444995
75 Al 7.19704 4.44124 4.31366
76 Ni 5.71606 2.95059 2.84752
77 Al 7.24461 4.5141 7.25268
78 Ni 5.82821 2.93167 5.70469
79 Al 7.16465 4.41393 10.197
80 Ni 5.80697 2.98602 8.66373
81 Al 7.26753 7.15204 1.58415
82 Ni 5.79293 5.7328 0.0520285
83 Al 7.24899 7.28471 4.3052
84 Ni 5.61237 5.82611 2.86911
85 Al 7.06834 7.28818 7.25442
86 Ni 5.68963 5.79822 5.77705
87 Al 7.00595 7.33369 10.2726
88 Ni 5.68252 5.7978 8.814
89 Al 7.30799 10.0588 1.52638
90 Ni 5.67658 8.73108 -0.0590615
91 Al 7.23225 10.1527 4.40269
92 Ni 5.66191 8.75355 3.01276
93 Al 7.13806 10.1817 7.17447
94 Ni 5.67678 8.79972 5.64717
95 Al 7.23034 10.1516 10.1284
96 Ni 5.74879 8.70558 8.70586
97 Al 10.0552 1.49298 1.53915
98 Ni 8.71808 0.0935554 -0.161714
99 Al 10.1681 1.57102 4.35988
100 Ni 8.6839 0.151661 2.87671
101 Al 10.1316 1.54967 7.21742
102 Ni 8.65655 0.130386 5.92235
103 Al 10.0828 1.67241 10.044
104 Ni 8.75754 0.314115 8.80293
105 Al 10.2095 4.32132 1.46891
106 Ni 8.69631 2.90234 0.0413977
107 Al 10.111 4.40131 4.43553
108 Ni 8.74689 2.93361 2.85811
109 Al 10.139 4.49821 7.22814
110 Ni 8.73265 2.91657 5.76227
111 Al 10.1191 4.52665 10.1411
112 Ni 8.66501 2.97651 8.61511
113 Al 10.0993 7.23948 1.34887
114 Ni 8.70256 5.81191 0.0221713
115 Al 10.1447 7.22303 4.37562
116 Ni 8.62625 5.69591 2.98082
117 Al 10.111 7.48674 7.30147
118 Ni 8.65412 5.90525 5.82619
119 Al 10.0509 7.35552 10.2185
120 Ni 8.68108 5.96042 8.63746
121 Al 10.2122 9.95666 1.35152
122 Ni 8.53065 8.51122 -0.087109
123 Al 10.1089 10.1377 4.26508
124 Ni 8.59928 8.72258 3.03108
125 Al 10.1164 10.1284 7.29388
126 Ni 8.68118 8.73258 5.74906
127 Al 10.0579 10.1485 10.2461
128 Ni 8.57672 8.716 8.69809
ITEM: TIMESTEP
10700
ITEM: NUMBER OF ATOMS
128
ITEM: BOX BOUNDS xy xz yz pp pp pp
-9.0005798957043692e-02 1.1700281874767407e+01 6.4610170729915650e-02
-1.1119323706572354e-01 1.1583871767380368e+01 -3.6118414743466713e-02
-4.7802285238515374e-02 1.1629586605062414e+01 -1.0910578950911715e-01
ITEM: ATOMS id element xu yu zu
1 Al 1.35178 1.49168 1.44319
2 Ni 0.0297764 -0.199301 -0.13817
3 Al 1.36041 1.43353 4.27469
4 Ni -0.0977987 0.0267795 2.91212
5 Al 1.45658 1.28864 7.20186
6 Ni -0.00526942 0.0641498 5.83695
7 Al 1.41087 1.37552 10.1631
8 Ni -0.231396 -0.105326 8.7469
9 Al 1.33487 4.29092 1.36689
10 Ni -0.109799 2.95567 -0.0309911
11 Al 1.38379 4.31584 4.29206
12 Ni -0.00427647 2.85728 2.75207
13 Al 1.46695 4.217 7.28576
14 Ni -0.0623861 2.9638 5.88025
15 Al 1.40685 4.34046 10.1643
16 Ni -0.0694382 2.84505 8.84051
17 Al 1.45157 7.18899 1.48393
18 Ni -0.0657589 5.72938 -0.0463651
19 Al 1.53982 7.19914 4.27559
20 Ni -0.0554763 5.71446 2.95208
21 Al 1.49001 7.03118 7.34155
22 Ni 0.0634125 5.72376 5.74331
23 Al 1.43175 7.14194 10.1441
24 Ni -0.0507951 5.75254 8.64135
25 Al 1.38572 10.1502 1.37955
26 Ni -0.13861 8.63896 -0.0747081
27 Al 1.44956 10.1138 4.28767
28 Ni 0.0338502 8.64685 2.91094
29 Al 1.49769 10.099 7.20442
30 Ni 0.0857077 8.631 5.75734
31 Al 1.41566 10.0302 10.1101
32 Ni -0.0315175 8.50034 8.68413
33 Al 4.37199 1.38826 1.45112
34 Ni 2.8641 0.185718 -0.00628432
35 Al 4.35183 1.39148 4.32604
36 Ni 2.88797 0.0306112 2.90056
37 Al 4.31648 1.43108 7.29624
38 Ni 2.90681 0.00436097 5.67934
39 Al 4.29811 1.26849 10.1738
40 Ni 2.79474 -0.119787 8.62419
41 Al 4.43029 4.2817 1.21616
42 Ni 2.88679 2.89331 -0.0750456
43 Al 4.32468 4.38611 4.39424
44 Ni 2.86314 2.89967 2.83492
45 Al 4.29938 4.32473 7.2647
46 Ni 2.84375 2.85971 5.85912
47 Al 4.38225 4.14899 10.1588
48 Ni 2.90943 2.81508 8.69349
49 Al 4.38673 7.18184 1.47376
50 Ni 2.76315 5.7642 -0.0266021
51 Al 4.43375 7.24267 4.41493
52 Ni 2.90193 5.67355 2.84486
53 Al 4.28487 7.17079 7.28275
54 Ni 2.78858 5.70465 5.78217
55 Al 4.36431 7.14567 10.1839
56 Ni 2.99107 5.61188 8.66506
57 Al 4.34484 10.1142 1.36357
58 Ni 2.94831 8.73317 -0.109148
59 Al 4.43302 10.0996 4.2217
60 Ni 2.85 8.63451 2.82457
61 Al 4.20469 10.1105 7.27104
62 Ni 3.04086 8.66354 5.65782
63 Al 4.42199 10.0175 10.2421
64 Ni 2.87386 8.67539 8.82437
65 Al 7.37435 1.46598 1.37963
66 Ni 5.70996 0.0265379 -0.111879
67 Al 7.15416 1.48448 4.28339
68 Ni 5.74038 -0.0886254 2.90247
69 Al 7.24369 1.27567 7.37822
70 Ni 5.77826 -0.137227 5.87882
71 Al 7.23558 1.29833 10.1688
72 Ni 5.73248 -0.13179 8.60754
73 Al 7.31638 4.28478 1.44197
74 Ni 5.92019 2.87062 -0.0358978
75 Al 7.29338 4.36036 4.24408
76 Ni 5.81746 2.79761 2.82692
77 Al 7.30726 4.36171 7.24795
78 Ni 5.74257 2.87558 5.79012
79 Al 7.14396 4.24733 10.2303
80 Ni 5.79085 2.85147 8.77579
81 Al 7.4038 7.17765 1.43042
82 Ni 5.84543 5.89519 -0.0712092
83 Al 7.25629 7.28385 4.22369
84 Ni 5.90261 5.73425 2.83307
85 Al 7.29246 7.25174 7.26854
86 Ni 5.82703 5.69878 5.72676
87 Al 7.23824 7.25211 10.2004
88 Ni 5.88774 5.72346 8.64013
89 Al 7.33053 10.1128 1.4155
90 Ni 5.86796 8.68624 -0.113313
91 Al 7.31312 10.0572 4.3677
92 Ni 5.81238 8.75997 2.7679
93 Al 7.27587 10.0863 7.15729
94 Ni 5.77806 8.59541 5.92881
95 Al 7.2794 9.99431 10.191
96 Ni 5.77799 8.62962 8.77982
97 Al 10.1239 1.32232 1.51471
98 Ni 8.69861 0.025568 0.0901587
99 Al 10.1105 1.44231 4.43356
100 Ni 8.72933 -0.0440135 2.9188
101 Al 10.0776 1.36715 7.34448
102 Ni 8.75607 -0.0947448 5.78051
103 Al 10.0528 1.25776 10.148
104 Ni 8.57112 -0.306727 8.65522
105 Al 10.1575 4.25765 1.50923
106 Ni 8.68957 2.91964 -0.0521898
107 Al 10.158 4.27341 4.41663
108 Ni 8.74336 2.81391 2.99868
109 Al 10.2376 4.29147 7.29882
110 Ni 8.69057 2.83449 5.80628
111 Al 10.1655 4.27045 10.1689
112 Ni 8.7227 2.89943 8.65219
113 Al 10.1571 7.20561 1.43723
114 Ni 8.68952 5.785 -0.000667992
115 Al 10.151 7.22566 4.40641
116 Ni 8.73132 5.90057 2.82424
117 Al 10.2331 7.17823 7.22689
118 Ni 8.61571 5.82107 5.64345
119 Al 10.1553 7.06094 10.2318
120 Ni 8.69651 5.65933 8.65589
121 Al 10.3992 10.0119 1.50292
122 Ni 8.85188 8.85407 0.0492839
123 Al 10.267 9.97125 4.43411
124 Ni 8.70405 8.70056 2.80041
125 Al 10.3213 9.88956 7.17318
126 Ni 8.59088 8.66975 5.78423
127 Al 10.1374 9.9678 10.1963
128 Ni 8.75332 8.57823 8.77699
ITEM: TIMESTEP
10800
ITEM: NUMBER OF ATOMS
128
ITEM: BOX BOUNDS xy xz yz pp pp pp
-4.2047245512634265e-02 1.1658365568517544e+01 -2.0378537248973188e-02
-1.2386396075214948e-01 1.1639240438034895e+01 5.4912540429964962e-02
9.4970095722279879e-03 1.1572287310251660e+01 -6.6407842541019529e-02
ITEM: ATOMS id element xu yu zu
1 Al 1.51481 1.46791 1.6311
2 Ni -0.0170974 0.0567728 0.155545
3 Al 1.44671 1.32646 4.36699
4 Ni 0.0915359 -0.0500282 2.88241
5 Al 1.53232 1.47788 7.05292
6 Ni 0.0175626 -0.109452 5.76198
7 Al 1.53815 1.28487 10.184
8 Ni 0.183019 -0.0358096 8.519
9 Al 1.33974 4.3563 1.46507
10 Ni 0.0261822 2.78729 0.0504244
11 Al 1.37294 4.33795 4.42617
12 Ni -0.0585124 2.85228 2.96536
13 Al 1.42027 4.38018 7.25025
14 Ni -0.140168 2.80381 5.71586
15 Al 1.44867 4.19718 10.1479
16 Ni -0.149973 2.80707 8.57187
17 Al 1.37177 7.3489 1.56508
18 Ni -0.0467628 5.8849 0.00786334
19 Al 1.42088 7.19088 4.2824
20 Ni -0.0072501 5.80246 2.78063
21 Al 1.5219 7.10179 7.24271
22 Ni -0.163206 5.68695 5.80639
23 Al 1.52367 7.21872 10.0929
24 Ni -0.0052412 5.7 8.81597
25 Al 1.35355 10.2547 1.49339
26 Ni 0.0912007 8.91314 0.0288056
27 Al 1.45609 10.1482 4.44044
28 Ni 0.0481717 8.7954 2.98546
29 Al 1.47656 10.2064 7.312
30 Ni -0.0520066 8.58736 5.84324
31 Al 1.46877 10.1332 10.1296
32 Ni 0.0343751 8.68282 8.6098
33 Al 4.29852 1.37902 1.45871
34 Ni 2.91387 -0.16968 -0.0294436
35 Al 4.39207 1.30391 4.37191
36 Ni 2.93704 -0.0298712 2.97503
37 Al 4.34819 1.32305 7.37898
38 Ni 2.94 -0.177948 5.92887
39 Al 4.38625 1.39744 10.1984
40 Ni 2.92358 -0.0793183 8.75254
41 Al 4.35796 4.3376 1.40577
42 Ni 2.85218 2.91539 0.0907194
43 Al 4.48444 4.33993 4.45031
44 Ni 2.85734 2.8854 2.93397
45 Al 4.22157 4.35572 7.31786
46 Ni 3.00181 2.94995 5.8087
47 Al 4.37109 4.23382 10.0243
48 Ni 2.8739 2.92885 8.67036
49 Al 4.29871 7.2097 1.45249
50 Ni 2.94488 5.76474 0.00262416
51 Al 4.36177 7.24559 4.38244
52 Ni 2.82282 5.83968 2.84926
53 Al 4.39863 7.18761 7.25976
54 Ni 3.03668 5.74651 5.72828
55 Al 4.37125 7.28125 10.203
56 Ni 2.74283 5.74133 8.7645
57 Al 4.31118 10.188 1.56762
58 Ni 2.79942 8.73562 0.0922212
59 Al 4.4038 10.1272 4.40771
60 Ni 2.97482 8.68306 2.9739
61 Al 4.30411 10.0722 7.26171
62 Ni 2.85715 8.56531 5.80986
63 Al 4.39676 10.0502 10.2136
64 Ni 2.91245 8.58991 8.62016
65 Al 7.3093 1.39266 1.36151
66 Ni 5.8118 0.0239523 0.025492
67 Al 7.27279 1.48032 4.19412
68 Ni 5.76842 -0.051665 2.92664
69 Al 7.27586 1.22783 7.23436
70 Ni 5.77311 -0.107511 5.69545
71 Al 7.27239 1.33541 10.1158
72 Ni 5.8083 -0.0951438 8.82796
73 Al 7.21999 4.31928 1.37881
74 Ni 5.68667 2.93223 -0.00981846
75 Al 7.35353 4.38915 4.34438
76 Ni 5.85003 2.91308 2.93197
77 Al 7.24144 4.40256 7.31106
78 Ni 5.88497 2.743 5.8046
79 Al 7.21531 4.17602 10.156
80 Ni 5.83504 2.75023 8.6004
81 Al 7.37218 7.14084 1.44032
82 Ni 5.81407 5.68283 -0.0486698
83 Al 7.27824 7.09219 4.30007
84 Ni 5.87115 5.83597 2.83909
85 Al 7.33476 7.28599 7.24177
86 Ni 5.78393 5.88918 5.83178
87 Al 7.23172 7.2798 10.1169
88 Ni 5.6918 5.77766 8.78034
89 Al 7.23553 10.0937 1.36924
90 Ni 5.66036 8.76369 -0.0263444
91 Al 7.24828 9.98687 4.3612
92 Ni 5.78037 8.57941 2.83089
93 Al 7.30596 10.2044 7.20665
94 Ni 5.82467 8.5989 5.66669
95 Al 7.21666 10.0231 10.0952
96 Ni 5.76154 8.5984 8.70395
97 Al 10.1069 1.37109 1.50323
98 Ni 8.6445 -0.0530717 -0.212556
99 Al 10.0373 1.29153 4.30102
100 Ni 8.61057 -0.0503704 2.93152
101 Al 10.1047 1.33458 7.1721
102 Ni 8.62051 -0.194029 5.78744
103 Al 10.2707 1.26677 10.0571
104 Ni 8.84732 0.0260173 8.68342
105 Al 10.1546 4.32456 1.37166
106 Ni 8.67369 2.80473 -0.042425
107 Al 10.1617 4.28279 4.26643
108 Ni 8.63459 2.87007 2.75541
109 Al 10.1093 4.23985 7.3202
110 Ni 8.73523 2.83689 5.74788
111 Al 10.2024 4.20007 10.1141
112 Ni 8.69493 2.68108 8.72918
113 Al 10.097 7.32725 1.40102
114 Ni 8.73222 5.80595 -0.0647049
115 Al 10.1094 7.18586 4.29691
116 Ni 8.69635 5.71564 2.89128
117 Al 10.2534 7.20224 7.28767
118 Ni 8.7449 5.67947 5.85017
119 Al 10.3088 7.26736 10.1385
120 Ni 8.80326 5.83672 8.75532
121 Al 10.1457 10.1572 1.41395
122 Ni 8.66362 8.66088 -0.0981769
123 Al 10.1424 10.0621 4.42079
124 Ni 8.71774 8.78002 2.89228
125 Al 10.2697 10.0448 7.21623
126 Ni 8.81846 8.63893 5.78074
127 Al 10.1921 10.111 10.1419
128 Ni 8.77985 8.69842 8.59205
ITEM: TIMESTEP
10900
ITEM: NUMBER OF ATOMS
128
ITEM: BOX BOUNDS xy xz yz pp pp pp
-5.7817342089306639e-02 1.1573831642024599e+01 -5.7457479596444455e-02
-8.7232655972087514e-02 1.1782318603516854e+01 -8.3125402921761498e-03
1.4274910096621518e-02 1.1567509409727252e+01 1.1330162772100949e-01
ITEM: ATOMS id element xu yu zu
1 Al 1.47517 1.31625 1.58722
2 Ni 0.0211641 -0.152327 -0.0360124
3 Al 1.46553 1.37712 4.34341
4 Ni 0.0374068 -0.0539802 2.94559
5 Al 1.49595 1.48115 7.10793
6 Ni 0.0193816 -0.0385164 5.73085
7 Al 1.46728 1.37424 10.2001
8 Ni -0.0225753 0.00606314 8.74353
9 Al 1.4204 4.27543 1.52812
10 Ni -0.0278403 2.86669 0.0716187
11 Al 1.387 4.35414 4.32046
12 Ni 0.0529979 2.80539 2.8753
13 Al 1.46933 4.46432 7.31363
14 Ni 0.0763905 2.90072 5.79071
15 Al 1.57691 4.28736 10.0454
16 Ni 0.168689 2.92348 8.69207
17 Al 1.2542 7.26366 1.47316
18 Ni 0.0383035 5.63984 0.0323086
19 Al 1.37849 7.34593 4.2248
20 Ni -0.0466425 5.81084 2.9394
21 Al 1.37657 7.41436 7.26133
22 Ni 0.0313301 5.78918 5.77794
23 Al 1.38935 7.22438 10.0056
24 Ni -0.0764586 5.80729 8.57778
25 Al 1.30262 10.0747 1.47021
26 Ni -0.0802694 8.75794 0.01394
27 Al 1.378 10.2519 4.33337
28 Ni -0.175145 8.64068 2.77658
29 Al 1.35686 10.412 7.2305
30 Ni -0.179525 8.94951 5.67888
31 Al 1.43522 10.3664 10.2229
32 Ni -0.0601137 8.95583 8.79994
33 Al 4.25078 1.3824 1.37032
34 Ni 2.90473 -0.0452946 0.0911787
35 Al 4.51964 1.37701 4.28181
36 Ni 2.94257 -0.134491 2.8943
37 Al 4.36382 1.44865 7.23495
38 Ni 2.91643 0.0457937 5.60425
39 Al 4.37795 1.51924 10.0904
40 Ni 2.92102 0.0773553 8.46492
41 Al 4.31095 4.37001 1.38446
42 Ni 2.87424 2.76056 -0.0259363
43 Al 4.29886 4.43998 4.54375
44 Ni 2.9418 2.88322 2.90809
45 Al 4.16414 4.36833 7.27139
46 Ni 2.85135 2.91977 5.727
47 Al 4.32753 4.50008 10.0481
48 Ni 2.95403 2.83291 8.59133
49 Al 4.23102 7.33152 1.4498
50 Ni 2.74252 5.7688 0.0403632
51 Al 4.36638 7.27873 4.4208
52 Ni 2.91495 5.81033 2.98798
53 Al 4.3649 7.2405 7.17048
54 Ni 2.70072 5.86894 5.8942
55 Al 4.34906 7.39741 10.0578
56 Ni 2.88674 5.84968 8.61297
57 Al 4.29163 10.1773 1.58177
58 Ni 2.96866 8.78366 -0.0799915
59 Al 4.33602 10.2304 4.3862
60 Ni 2.86951 8.65086 2.91276
61 Al 4.14842 10.1678 7.14454
62 Ni 2.86009 8.74118 5.74295
63 Al 4.24782 10.2852 10.0317
64 Ni 2.75943 8.77494 8.67623
65 Al 7.23335 1.41792 1.44646
66 Ni 5.68059 -0.240101 -0.0161992
67 Al 7.30229 1.44916 4.30384
68 Ni 5.74159 -0.0222693 2.86961
69 Al 7.239 1.41022 7.27299
70 Ni 5.80235 -0.0245513 5.90546
71 Al 7.25402 1.48294 10.2037
72 Ni 5.72866 0.0248162 8.52239
73 Al 7.22707 4.40056 1.41033
74 Ni 5.78028 2.81844 0.0169952
75 Al 7.33187 4.37504 4.22787
76 Ni 5.73022 2.88522 2.78045
77 Al 7.30406 4.37645 7.30019
78 Ni 5.76788 3.04558 5.82581
79 Al 7.1987 4.37582 10.2451
80 Ni 5.70219 3.01046 8.79253
81 Al 7.26653 7.28045 1.54905
82 Ni 5.62698 5.8256 0.0375118
83 Al 7.08812 7.18441 4.40625
84 Ni 5.77919 5.72955 2.94488
85 Al 7.2093 7.31675 7.30649
86 Ni 5.91672 5.70926 5.78185
87 Al 7.23037 7.43745 10.0874
88 Ni 5.85178 5.77635 8.64117
89 Al 7.16709 10.2074 1.43552
90 Ni 5.83579 8.68185 -0.00337308
91 Al 7.19236 10.2107 4.45059
92 Ni 5.82011 8.78473 3.05465
93 Al 7.30982 10.3788 7.29791
94 Ni 5.74497 8.83427 5.88706
95 Al 7.06313 10.3051 10.2009
96 Ni 5.70904 8.80663 8.71248
97 Al 10.1896 1.46405 1.45832
98 Ni 8.73163 -0.0174645 0.185436
99 Al 10.1079 1.44223 4.317
100 Ni 8.61279 -0.0216746 2.84312
101 Al 10.165 1.54023 7.25904
102 Ni 8.74342 0.0886759 5.82049
103 Al 9.99103 1.47415 10.0919
104 Ni 8.51984 0.00354195 8.72007
105 Al 10.1004 4.33991 1.45399
106 Ni 8.73311 2.82844 0.0516228
107 Al 10.145 4.41876 4.31628
108 Ni 8.65664 2.82442 2.98528
109 Al 10.143 4.34435 7.18431
110 Ni 8.571 2.83216 5.85228
111 Al 10.1932 4.42776 10.0505
112 Ni 8.74959 2.94953 8.64048
113 Al 9.93736 7.30082 1.33477
114 Ni 8.72245 5.84115 0.0122519
115 Al 9.97668 7.41074 4.33405
116 Ni 8.69782 5.80339 2.73979
117 Al 10.142 7.44393 7.1943
118 Ni 8.62966 5.95465 5.83644
119 Al 10.1313 7.37212 10.0406
120 Ni 8.6713 5.77578 8.67073
121 Al 10.053 10.234 1.46579
122 Ni 8.60425 8.81662 -0.0110561
123 Al 9.94601 10.2533 4.34056
124 Ni 8.59635 8.77333 2.92236
125 Al 10.1143 10.2332 7.25135
126 Ni 8.59114 8.90207 5.87643
127 Al 10.0163 10.3853 10.1619
128 Ni 8.59374 8.90578 8.80961
ITEM: TIMESTEP
11000
ITEM: NUMBER OF ATOMS
128
ITEM: BOX BOUNDS xy xz yz pp pp pp
-6.4872114659791202e-02 1.1636865332874745e+01 4.6768444445387053e-02
-6.8820258962865033e-02 1.1666050394361543e+01 -5.6559546054340375e-02
-3.7805283653875144e-02 1.1619589603477753e+01 1.5445815574916337e-02
ITEM: ATOMS id element xu yu zu
1 Al 1.42086 1.36172 1.41726
2 Ni 0.0638481 -0.19342 0.054494
3 Al 1.3886 1.34647 4.37284
4 Ni -0.00730702 -0.0765894 2.72999
5 Al 1.39132 1.33779 7.29811
6 Ni -0.0421203 -0.100918 5.87733
7 Al 1.39101 1.34409 10.2482
8 Ni -0.0531527 -0.165808 8.74526
9 Al 1.48468 4.37659 1.32706
10 Ni 0.116282 2.96073 -0.0968572
11 Al 1.29246 4.36545 4.39949
12 Ni 0.0235673 2.98834 2.8429
13 Al 1.50563 4.44338 7.22464
14 Ni -0.0255148 2.75893 5.82784
15 Al 1.45215 4.36937 10.0038
16 Ni -0.172072 2.80495 8.74852
17 Al 1.30926 7.26338 1.45476
18 Ni -0.0351596 5.88669 -0.094771
19 Al 1.50501 7.24487 4.2296
20 Ni 0.0567263 5.73465 2.9763
21 Al 1.4435 7.2423 7.33443
22 Ni -0.0634577 5.93095 5.94816
23 Al 1.38837 7.3182 10.1217
24 Ni 0.0362989 5.88812 8.73211
25 Al 1.42941 10.0852 1.40032
26 Ni -0.0485294 8.631 -0.040126
27 Al 1.45233 10.3349 4.36437
28 Ni 0.0994436 8.81281 2.98923
29 Al 1.41773 10.1405 7.2588
30 Ni 0.034664 8.67241 5.87072
31 Al 1.46113 10.2373 10.2026
32 Ni -0.146357 8.62138 8.68918
33 Al 4.26241 1.39936 1.34463
34 Ni 2.93279 -0.133631 -0.0225141
35 Al 4.30885 1.34391 4.23047
36 Ni 2.86783 -0.0323139 2.82522
37 Al 4.26078 1.33791 7.37084
38 Ni 2.83746 -0.167822 5.92909
39 Al 4.37009 1.4933 10.1641
40 Ni 2.90073 -0.193303 8.79185
41 Al 4.44997 4.36716 1.37845
42 Ni 2.98566 2.90526 -0.0407786
43 Al 4.21817 4.34858 4.39044
44 Ni 2.78204 2.86387 2.72179
45 Al 4.25051 4.33251 7.23348
46 Ni 2.81909 2.85918 5.83497
47 Al 4.30303 4.3839 10.0196
48 Ni 2.78142 2.91834 8.81371
49 Al 4.42419 7.29328 1.35696
50 Ni 3.06387 5.83121 -0.116706
51 Al 4.42844 7.29518 4.24903
52 Ni 2.83951 5.83415 2.7815
53 Al 4.29827 7.41576 7.12919
54 Ni 2.9777 5.8412 5.71334
55 Al 4.37557 7.27366 10.0892
56 Ni 2.8012 5.82372 8.6346
57 Al 4.41113 10.2209 1.44283
58 Ni 2.87952 8.59843 0.0200764
59 Al 4.3664 10.2127 4.32488
60 Ni 2.92613 8.74247 2.85472
61 Al 4.39149 10.1646 7.164
62 Ni 2.95463 8.76083 5.72228
63 Al 4.37546 10.178 10.2022
64 Ni 2.97151 8.80948 8.73499
65 Al 7.22867 1.36916 1.55529
66 Ni 5.89008 0.0691701 0.0620983
67 Al 7.35873 1.4384 4.32405
68 Ni 5.75809 -0.2173 2.88793
69 Al 7.22059 1.29124 7.22199
70 Ni 5.66369 0.0381054 5.68509
71 Al 7.19703 1.47388 10.1997
72 Ni 5.78625 -0.0812042 8.84064
73 Al 7.25522 4.35882 1.48823
74 Ni 5.81555 2.86106 -0.0828444
75 Al 7.22588 4.35315 4.31705
76 Ni 5.81409 2.89718 3.00667
77 Al 7.29413 4.33511 7.21356
78 Ni 5.70784 2.78698 5.68354
79 Al 7.14932 4.34375 10.1484
80 Ni 5.77528 2.91916 8.68017
81 Al 7.35962 7.22915 1.47167
82 Ni 5.88281 5.7036 -0.100453
83 Al 7.1971 7.33054 4.40958
84 Ni 5.81479 5.79442 2.85634
85 Al 7.11378 7.12567 7.1859
86 Ni 5.7285 5.94253 5.72787
87 Al 7.22075 7.37474 10.0768
88 Ni 5.73723 5.87103 8.67839
89 Al 7.25809 10.1778 1.29071
90 Ni 5.75595 8.70089 -0.157209
91 Al 7.33152 10.1342 4.34259
92 Ni 5.77812 8.7344 2.77413
93 Al 7.35234 10.2414 7.32675
94 Ni 5.82054 8.7035 5.70168
95 Al 7.25426 10.1274 10.209
96 Ni 5.85643 8.73181 8.67415
97 Al 10.1462 1.5023 1.35335
98 Ni 8.56213 -0.0722617 -0.15447
99 Al 10.1931 1.34435 4.29133
100 Ni 8.77042 0.027053 2.94946
101 Al 10.079 1.48625 7.24625
102 Ni 8.53604 -0.0626389 5.79393
103 Al 9.98481 1.41493 10.2536
104 Ni 8.69688 0.025857 8.74184
105 Al 10.1644 4.36818 1.39852
106 Ni 8.60024 2.84735 -0.0664974
107 Al 10.1595 4.38118 4.28141
108 Ni 8.72895 2.83404 2.88156
109 Al 10.2152 4.32776 7.33552
110 Ni 8.86175 2.86523 5.74897
111 Al 10.1016 4.43185 10.1436
112 Ni 8.61299 2.83926 8.80595
113 Al 10.1129 7.18052 1.47302
114 Ni 8.62073 5.60274 0.107726
115 Al 10.1672 7.41794 4.34675
116 Ni 8.62469 5.83769 3.08675
117 Al 10.0714 7.3086 7.17736
118 Ni 8.71957 5.69671 5.77248
119 Al 9.98175 7.30342 10.2301
120 Ni 8.69932 5.83605 8.67972
121 Al 10.1013 10.1837 1.37185
122 Ni 8.65383 8.61181 0.0370755
123 Al 10.1483 10.1826 4.34121
124 Ni 8.72411 8.68578 2.78829
125 Al 10.1026 10.1942 7.17954
126 Ni 8.7583 8.76927 5.76045
127 Al 10.1287 10.1504 10.1743
128 Ni 8.70639 8.65399 8.66571
ITEM: TIMESTEP
11100
ITEM: NUMBER OF ATOMS
128
ITEM: BOX BOUNDS xy xz yz pp pp pp
-7.1650066029311787e-03 1.1677040462024305e+01 5.9011499774296303e-02
-1.1734008195825926e-01 1.1573472351712681e+01 2.9079635823170302e-02
-5.0072878024706391e-02 1.1631857197848586e+01 -1.2565205006933142e-01
ITEM: ATOMS id element xu yu zu
1 Al 1.50831 1.46133 1.2384
2 Ni -0.0999331 0.119643 -0.173947
3 Al 1.36421 1.37999 4.34771
4 Ni 0.0474833 -0.024536 3.01418
5 Al 1.43014 1.34912 7.25633
6 Ni 0.127062 -0.00391945 5.8445
7 Al 1.4878 1.45145 10.1182
8 Ni 0.0447148 -0.0281961 8.76095
9 Al 1.42985 4.27714 1.43014
10 Ni -0.172782 2.85224 -0.0176379
11 Al 1.42258 4.2633 4.33698
12 Ni 0.0304102 2.74767 2.8511
13 Al 1.56944 4.329 7.29771
14 Ni 0.0327171 2.84926 5.84359
15 Al 1.4217 4.33247 10.1213
16 Ni 0.0837787 2.89712 8.80008
17 Al 1.61216 7.29643 1.43682
18 Ni -0.140271 5.80563 0.00513857
19 Al 1.50461 7.17913 4.23179
20 Ni 0.0457399 5.79686 2.81421
21 Al 1.43957 7.00538 7.36568
22 Ni 0.141895 5.5807 5.66564
23 Al 1.41331 7.15952 10.2082
24 Ni 0.0122701 5.67896 8.689
25 Al 1.41875 10.2301 1.31753
26 Ni 0.098136 8.67198 1.43497e-05
27 Al 1.52017 10.1437 4.33608
28 Ni 0.0264085 8.57318 2.80295
29 Al 1.45278 10.0303 7.19061
30 Ni 0.0246557 8.6475 5.7723
31 Al 1.49554 10.1296 10.116
32 Ni 0.139277 8.55246 8.67325
33 Al 4.22654 1.40021 1.30451
34 Ni 2.79538 0.00110716 -0.0826466
35 Al 4.26496 1.37758 4.41988
36 Ni 2.86903 0.0692996 2.75583
37 Al 4.30922 1.34598 7.34315
38 Ni 2.85597 -0.00630627 5.90427
39 Al 4.40711 1.41017 10.1626
40 Ni 2.91654 -0.0769185 8.82391
41 Al 4.35986 4.29508 1.42961
42 Ni 2.83993 2.98098 -0.115324
43 Al 4.34477 4.27232 4.41127
44 Ni 2.9204 2.85306 3.00522
45 Al 4.34822 4.33052 7.21189
46 Ni 2.90362 2.79156 5.92315
47 Al 4.41974 4.16221 10.1074
48 Ni 2.98911 2.90089 8.68188
49 Al 4.44154 7.23347 1.50391
50 Ni 2.9616 5.74392 0.00492823
51 Al 4.36526 7.24175 4.38472
52 Ni 2.9284 5.65275 2.98701
53 Al 4.41066 7.17333 7.22547
54 Ni 2.88934 5.70154 5.86
55 Al 4.49435 7.01597 10.2673
56 Ni 3.03599 5.64999 8.86777
57 Al 4.57968 10.155 1.47017
58 Ni 3.01568 8.74493 -0.0203141
59 Al 4.31094 10.2061 4.29679
60 Ni 2.87088 8.79926 2.82108
61 Al 4.39341 10.0536 7.23034
62 Ni 2.9941 8.68348 5.90565
63 Al 4.41866 9.92554 10.1571
64 Ni 3.01722 8.49688 8.74703
65 Al 7.26387 1.41573 1.40171
66 Ni 5.80554 -0.038241 -0.113293
67 Al 7.29054 1.37686 4.32011
68 Ni 5.78765 0.229954 2.80917
69 Al 7.41059 1.24995 7.12036
70 Ni 5.89429 -0.134922 5.76241
71 Al 7.31347 1.4125 10.1958
72 Ni 5.81423 -0.0503946 8.69549
73 Al 7.28188 4.48694 1.39388
74 Ni 5.77691 2.87966 0.0463377
75 Al 7.27374 4.28143 4.22705
76 Ni 5.77809 2.80964 2.84964
77 Al 7.22825 4.33595 7.15617
78 Ni 5.7598 2.72096 5.88351
79 Al 7.20449 4.17062 10.171
80 Ni 5.78531 2.67556 8.59364
81 Al 7.49314 7.23787 1.5071
82 Ni 5.76808 5.71494 0.00334055
83 Al 7.28595 7.25181 4.25647
84 Ni 5.72728 5.7048 2.98894
85 Al 7.10794 7.06453 7.14377
86 Ni 5.75739 5.73592 5.71213
87 Al 7.22654 7.21983 10.0514
88 Ni 5.86586 5.62332 8.67528
89 Al 7.38557 10.1741 1.29207
90 Ni 5.99561 8.72089 0.117882
91 Al 7.28944 10.106 4.23762
92 Ni 5.84367 8.59902 2.88548
93 Al 7.31498 10.0313 7.23517
94 Ni 5.74725 8.66669 5.67536
95 Al 7.3398 10.0118 10.2143
96 Ni 5.85624 8.5519 8.8062
97 Al 10.1086 1.41748 1.52005
98 Ni 8.85652 0.0107259 -0.00078303
99 Al 10.1231 1.3648 4.32115
100 Ni 8.65163 -0.0849011 2.83077
101 Al 10.2147 1.41916 7.24254
102 Ni 8.8098 -0.152067 5.72163
103 Al 9.99508 1.41992 10.1523
104 Ni 8.59639 -0.182232 8.65875
105 Al 10.219 4.32789 1.40485
106 Ni 8.76669 2.97847 -0.0103586
107 Al 10.1859 4.25834 4.31855
108 Ni 8.74779 2.90023 2.92806
109 Al 10.207 4.27571 7.25882
110 Ni 8.63444 2.80865 5.78265
111 Al 10.0918 4.27691 10.1607
112 Ni 8.76896 2.77104 8.509
113 Al 10.201 7.19734 1.49843
114 Ni 8.79048 5.92354 -0.192446
115 Al 10.1945 7.16924 4.36688
116 Ni 8.80626 5.63131 2.73666
117 Al 10.2457 7.19147 7.16385
118 Ni 8.69846 5.74335 5.78003
119 Al 10.1482 7.22989 10.1531
120 Ni 8.60031 5.65613 8.58611
121 Al 10.2545 10.0691 1.38297
122 Ni 8.75763 8.70929 -0.162039
123 Al 10.3056 10.0496 4.37843
124 Ni 8.8654 8.71864 3.03388
125 Al 10.1222 9.97785 7.28284
126 Ni 8.77305 8.61935 5.72912
127 Al 10.3004 10.0141 10.1508
128 Ni 8.66525 8.61677 8.6606
ITEM: TIMESTEP
11200
ITEM: NUMBER OF ATOMS
128
ITEM: BOX BOUNDS xy xz yz pp pp pp
-1.0452682679217182e-01 1.1694169068481321e+01 -3.8862581437294132e-02
1.3101135040831657e-02 1.1577481366840006e+01 4.6720503302543979e-02
-7.3372271605085970e-02 1.1655156591428966e+01 8.7981820570935780e-03
ITEM: ATOMS id element xu yu zu
1 Al 1.49513 1.43762 1.3142
2 Ni -0.0251841 -0.0827888 -0.0810311
3 Al 1.32294 1.41999 4.25819
4 Ni -0.108334 0.0111276 2.85917
5 Al 1.33712 1.46421 7.06232
6 Ni -0.125525 0.00174111 5.70999
7 Al 1.48352 1.42622 10.0729
8 Ni -0.0188188 0.0198712 8.60907
9 Al 1.29926 4.22997 1.42512
10 Ni 0.0232602 2.91103 -0.166662
11 Al 1.41459 4.40386 4.42551
12 Ni -0.0870218 2.95397 2.91023
13 Al 1.43859 4.41136 7.21226
14 Ni 0.0104667 3.00811 5.71647
15 Al 1.42251 4.26375 10.0279
16 Ni -0.161955 2.9198 8.54388
17 Al 1.34188 7.32651 1.40056
18 Ni 0.0491664 5.66512 -0.168368
19 Al 1.30915 7.19259 4.1823
20 Ni -0.132282 5.79033 2.88668
21 Al 1.46307 7.22132 7.35981
22 Ni -0.0944575 5.96366 5.90929
23 Al 1.39881 7.1913 10.144
24 Ni -0.0171907 5.76462 8.68778
25 Al 1.38795 10.2048 1.40701
26 Ni -0.206008 8.69184 -0.206927
27 Al 1.31823 10.143 4.33221
28 Ni -0.0647795 8.79199 2.85909
29 Al 1.37386 10.1021 7.18619
30 Ni 0.0251838 8.68403 5.84204
31 Al 1.35105 10.1775 10.21
32 Ni -0.00878549 8.6618 8.80858
33 Al 4.4634 1.36187 1.42333
34 Ni 2.90451 0.0872638 -0.0717966
35 Al 4.30916 1.49845 4.29994
36 Ni 2.95552 -0.0653211 3.00266
37 Al 4.35373 1.59845 7.26994
38 Ni 2.96605 -0.0656993 5.75577
39 Al 4.42945 1.46126 10.1311
40 Ni 2.90343 0.129121 8.56162
41 Al 4.30977 4.29545 1.34423
42 Ni 2.94009 2.7847 -0.0108685
43 Al 4.37425 4.40567 4.24557
44 Ni 2.88867 2.8117 2.76653
45 Al 4.31099 4.35144 7.27392
46 Ni 2.95757 2.96845 5.72017
47 Al 4.35414 4.37686 10.2751
48 Ni 2.932 2.89644 8.8169
49 Al 4.26855 7.18366 1.36726
50 Ni 2.80218 5.70008 -0.00523302
51 Al 4.44735 7.21731 4.41882
52 Ni 2.78141 5.76694 2.75304
53 Al 4.46354 7.19293 7.178
54 Ni 2.84721 5.81285 5.66777
55 Al 4.36792 7.15937 10.1627
56 Ni 2.89776 5.77955 8.61857
57 Al 4.27464 10.0905 1.36166
58 Ni 2.72354 8.7056 -0.0413971
59 Al 4.31616 10.0989 4.36519
60 Ni 2.82758 8.62133 2.82886
61 Al 4.23141 10.0524 7.23164
62 Ni 2.82971 8.67792 5.59972
63 Al 4.25843 10.1106 10.1461
64 Ni 2.80726 8.69181 8.82271
65 Al 7.23041 1.30505 1.47541
66 Ni 5.75723 0.00974684 0.0195525
67 Al 7.17343 1.3529 4.33768
68 Ni 5.78985 -0.211786 2.79893
69 Al 7.26007 1.52475 7.27527
70 Ni 5.70016 -0.0120043 5.91291
71 Al 7.34121 1.39876 10.1375
72 Ni 5.81198 -0.114998 8.72601
73 Al 7.2901 4.40202 1.51083
74 Ni 5.93414 2.86876 -0.170276
75 Al 7.32818 4.306 4.32979
76 Ni 5.83483 2.95875 2.83211
77 Al 7.28945 4.48074 7.3755
78 Ni 5.87241 2.96225 5.73472
79 Al 7.34504 4.41598 10.3002
80 Ni 5.9206 3.08806 9.01745
81 Al 7.21659 7.27788 1.47042
82 Ni 5.77466 5.90926 -0.0213576
83 Al 7.23466 7.41316 4.3466
84 Ni 5.76446 5.77749 2.72505
85 Al 7.25873 7.22407 7.30916
86 Ni 5.88498 5.71203 5.87608
87 Al 7.25789 7.3274 10.1577
88 Ni 5.8521 5.90922 8.8231
89 Al 7.19344 10.0752 1.33636
90 Ni 5.59472 8.73321 -0.165278
91 Al 7.25788 10.1715 4.31916
92 Ni 5.75495 8.69806 2.92024
93 Al 7.30253 10.2224 7.30836
94 Ni 5.74144 8.6289 5.89666
95 Al 7.24512 10.0438 10.2434
96 Ni 5.70138 8.70231 8.60476
97 Al 10.2025 1.49265 1.32985
98 Ni 8.59231 -0.0260447 -0.0824668
99 Al 10.2109 1.45449 4.33237
100 Ni 8.8326 0.127218 2.96597
101 Al 10.1659 1.52448 7.18067
102 Ni 8.61928 0.0834842 5.84756
103 Al 10.2635 1.43552 10.2555
104 Ni 8.82276 0.0403541 8.63468
105 Al 10.1542 4.32864 1.44512
106 Ni 8.66856 2.78583 -0.151374
107 Al 10.2177 4.36449 4.29919
108 Ni 8.72009 2.85921 2.85459
109 Al 10.0602 4.31046 7.26915
110 Ni 8.73472 2.84956 5.72482
111 Al 10.2182 4.28703 10.2806
112 Ni 8.66402 2.9403 8.81697
113 Al 10.2011 7.19368 1.46515
114 Ni 8.6841 5.64708 0.125538
115 Al 10.1597 7.33645 4.34888
116 Ni 8.7182 5.96888 2.94085
117 Al 10.2961 7.30666 7.29233
118 Ni 8.70006 5.86392 5.77596
119 Al 10.1818 7.1409 10.3592
120 Ni 8.80996 5.83346 8.8156
121 Al 10.1591 10.1264 1.35894
122 Ni 8.65893 8.76923 -0.00449995
123 Al 10.1093 10.0724 4.3368
124 Ni 8.57705 8.6023 2.73413
125 Al 10.0809 10.0998 7.22848
126 Ni 8.76934 8.69148 5.8849
127 Al 10.1846 10.1643 10.1792
128 Ni 8.78894 8.71584 8.76009
ITEM: TIMESTEP
11300
ITEM: NUMBER OF ATOMS
128
ITEM: BOX BOUNDS xy xz yz pp pp pp
-8.4233073746431214e-02 1.1613170201840211e+01 -3.2896628309291111e-02
4.8740509698355083e-03 1.1699763614787276e+01 -1.9950563420814145e-02
-1.1001247623496191e-02 1.1592785567447368e+01 1.2285334593336787e-01
ITEM: ATOMS id element xu yu zu
1 Al 1.5043 1.45733 1.52421
2 Ni -0.0263042 0.11272 0.103853
3 Al 1.44183 1.45778 4.45144
4 Ni -0.038406 -0.075646 2.94617
5 Al 1.40403 1.54927 7.22256
6 Ni 0.0603398 0.0531954 5.77104
7 Al 1.51661 1.49046 10.1539
8 Ni 0.0480057 0.191609 8.59953
9 Al 1.32977 4.27677 1.46863
10 Ni -0.0129294 2.78318 0.0313229
11 Al 1.4273 4.44879 4.47746
12 Ni -0.0885575 2.91382 2.92867
13 Al 1.33183 4.46204 7.26746
14 Ni -0.148452 2.91179 5.81426
15 Al 1.36009 4.43181 10.1721
16 Ni 0.0928192 2.90799 8.78945
17 Al 1.40862 7.30029 1.48419
18 Ni -0.158565 5.80623 0.0591696
19 Al 1.33804 7.25481 4.31408
20 Ni -0.0734418 5.83144 2.79128
21 Al 1.25773 7.23995 7.26921
22 Ni -0.090694 5.76177 5.68157
23 Al 1.39627 7.3432 10.0822
24 Ni -0.0598085 5.90318 8.74946
25 Al 1.4348 10.1241 1.54171
26 Ni 0.0805029 8.81781 0.141663
27 Al 1.37236 10.0885 4.37709
28 Ni -0.143403 8.64816 2.89925
29 Al 1.40538 10.2412 7.15675
30 Ni -0.213183 8.73464 5.68416
31 Al 1.26129 10.216 10.1956
32 Ni -0.0978953 8.87758 8.61924
33 Al 4.3674 1.47327 1.47266
34 Ni 2.8215 -0.0715058 0.00612846
35 Al 4.30721 1.52197 4.30627
36 Ni 2.8845 0.0534396 2.83069
37 Al 4.31086 1.56076 7.06883
38 Ni 2.89525 0.131001 5.75378
39 Al 4.18755 1.6416 10.0523
40 Ni 2.93145 0.0652038 8.72005
41 Al 4.25488 4.42857 1.48471
42 Ni 2.818 2.89407 -0.0187841
43 Al 4.34887 4.46815 4.32282
44 Ni 2.86384 3.05107 2.96884
45 Al 4.28165 4.47632 7.24454
46 Ni 2.86616 3.01838 5.68897
47 Al 4.31626 4.39098 10.1738
48 Ni 2.93605 3.02688 8.51247
49 Al 4.22889 7.24545 1.34702
50 Ni 2.87481 5.86744 -0.112658
51 Al 4.2957 7.29132 4.33535
52 Ni 2.88956 5.90247 2.83438
53 Al 4.44827 7.30368 7.26503
54 Ni 2.95405 5.8467 5.88131
55 Al 4.32066 7.3338 10.0513
56 Ni 2.713 5.83328 8.73204
57 Al 4.36114 10.1659 1.39578
58 Ni 2.82943 8.67877 -0.132107
59 Al 4.30918 10.1513 4.40632
60 Ni 2.83819 8.71022 2.97441
61 Al 4.41714 10.1731 7.22263
62 Ni 2.85592 8.65846 5.9039
63 Al 4.31725 10.2694 10.0954
64 Ni 2.73439 8.79706 8.56667
65 Al 7.14913 1.33578 1.43125
66 Ni 5.77852 -0.0734331 -0.0986403
67 Al 7.31744 1.4555 4.38081
68 Ni 5.75878 0.13378 2.95612
69 Al 7.32055 1.51912 7.27277
70 Ni 5.9377 0.122559 5.73771
71 Al 7.13156 1.6514 10.2064
72 Ni 5.7301 0.169166 8.62125
73 Al 7.25216 4.47632 1.39907
74 Ni 5.59729 2.88974 0.111359
75 Al 7.25609 4.39 4.34178
76 Ni 5.74807 2.96326 2.9541
77 Al 7.20576 4.51841 7.24397
78 Ni 5.72382 3.01969 5.7464
79 Al 7.19615 4.33529 10.0914
80 Ni 5.72558 2.93732 8.47347
81 Al 7.15832 7.28089 1.40125
82 Ni 5.70741 5.69839 -0.114139
83 Al 7.28381 7.34625 4.2806
84 Ni 5.86962 5.90383 2.90023
85 Al 7.18955 7.25534 7.3728
86 Ni 5.69472 6.01179 5.80355
87 Al 7.23812 7.16753 10.1338
88 Ni 5.66408 5.83717 8.70386
89 Al 7.14852 10.0845 1.41895
90 Ni 5.7786 8.63327 -0.080396
91 Al 7.18493 10.2189 4.32133
92 Ni 5.80951 8.58135 2.81113
93 Al 7.24024 10.2823 7.35333
94 Ni 5.85667 8.68073 5.82912
95 Al 7.28372 10.1319 10.2009
96 Ni 5.74078 8.69903 8.82363
97 Al 10.0456 1.41709 1.47751
98 Ni 8.75777 0.0568459 -0.0949732
99 Al 10.1988 1.46092 4.31654
100 Ni 8.47586 -0.0976134 2.82526
101 Al 10.0959 1.54611 7.29578
102 Ni 8.69425 0.0493021 5.83729
103 Al 10.2807 1.51563 10.1877
104 Ni 8.64632 0.160183 8.78317
105 Al 10.0624 4.36807 1.46411
106 Ni 8.68638 2.90464 0.0504005
107 Al 10.115 4.36269 4.24747
108 Ni 8.69819 2.91366 2.91105
109 Al 10.0889 4.26866 7.31413
110 Ni 8.66657 3.04806 5.80992
111 Al 10.2088 4.37989 10.2476
112 Ni 8.76257 2.94775 8.76701
113 Al 10.0675 7.30688 1.46204
114 Ni 8.83179 5.90647 -0.103893
115 Al 10.0272 7.21039 4.23578
116 Ni 8.70614 5.74176 2.7711
117 Al 10.209 7.31081 7.15015
118 Ni 8.688 5.82556 5.89378
119 Al 10.3241 7.37325 10.1163
120 Ni 8.71117 5.89323 8.74769
121 Al 10.0944 10.1552 1.40185
122 Ni 8.74243 8.62353 -0.115904
123 Al 10.1142 10.2383 4.37093
124 Ni 8.74025 8.80635 2.99673
125 Al 10.0449 10.1813 7.23134
126 Ni 8.62674 8.72871 5.81857
127 Al 10.1541 10.2782 10.1923
128 Ni 8.72186 8.76876 8.76331
ITEM: TIMESTEP
11400
ITEM: NUMBER OF ATOMS
128
ITEM: BOX BOUNDS xy xz yz pp pp pp
-6.8758908938027885e-02 1.1669481964314603e+01 5.6346670345270869e-02
-1.4032233791655896e-01 1.1654992058010095e+01 -3.7407934792580255e-02
-7.9297958931032753e-03 1.1589714115716969e+01 -6.7114599730209543e-02
ITEM: ATOMS id element xu yu zu
1 Al 1.47071 1.2299 1.4651
2 Ni 0.00701357 -0.223882 -0.0843269
3 Al 1.50661 1.38407 4.49419
4 Ni 0.00799594 0.0105676 2.96156
5 Al 1.31631 1.28312 7.32272
6 Ni -0.189763 -0.0285134 5.71256
7 Al 1.34626 1.30871 10.251
8 Ni -0.0775073 -0.181597 8.78287
9 Al 1.40376 4.28017 1.44501
10 Ni -0.0337273 2.84732 -0.00650272
11 Al 1.34737 4.34721 4.31991
12 Ni -0.00854995 2.8066 2.79489
13 Al 1.43852 4.25158 7.24587
14 Ni -0.0131751 2.82663 5.68798
15 Al 1.35088 4.29957 10.1741
16 Ni -0.0789296 2.83193 8.66812
17 Al 1.46706 7.28401 1.5759
18 Ni 0.132018 5.95576 -0.0244552
19 Al 1.39472 7.36191 4.33471
20 Ni -0.0515716 5.88184 2.9659
21 Al 1.37256 7.21372 7.2932
22 Ni -0.000435609 5.76787 5.83982
23 Al 1.48502 7.22033 10.0762
24 Ni 0.00322221 5.6912 8.72147
25 Al 1.49208 10.0682 1.43754
26 Ni -0.127662 8.70352 -0.0713829
27 Al 1.41733 10.1471 4.32722
28 Ni 0.0767105 8.76762 2.97927
29 Al 1.4753 10.2103 7.24055
30 Ni 0.0382201 8.67596 5.89456
31 Al 1.4349 10.0196 10.2461
32 Ni 0.0226921 8.65898 8.63359
33 Al 4.3667 1.49739 1.55461
34 Ni 2.97803 -0.0959839 -0.00133198
35 Al 4.35616 1.31666 4.41178
36 Ni 2.92171 -0.158446 2.99914
37 Al 4.37491 1.38889 7.29403
38 Ni 2.81799 -0.221392 5.78009
39 Al 4.11008 1.41164 10.2085
40 Ni 2.78631 -0.114892 8.68892
41 Al 4.34661 4.35787 1.49039
42 Ni 2.91764 2.98455 0.0568137
43 Al 4.2396 4.18592 4.42851
44 Ni 2.86898 2.86638 2.86078
45 Al 4.33763 4.28995 7.22545
46 Ni 2.89537 2.77597 5.92505
47 Al 4.33188 4.37124 10.1667
48 Ni 2.69022 2.71021 8.8357
49 Al 4.33191 7.17307 1.47937
50 Ni 2.87049 5.79254 0.0423065
51 Al 4.37819 7.15944 4.48664
52 Ni 2.87521 5.74844 3.05576
53 Al 4.43482 7.17285 7.1794
54 Ni 2.65488 5.75216 5.73613
55 Al 4.39278 7.29469 10.1855
56 Ni 2.86377 5.80833 8.68588
57 Al 4.44095 10.2417 1.40536
58 Ni 3.03072 8.78461 0.12881
59 Al 4.41387 10.0946 4.33212
60 Ni 3.05288 8.72193 2.80576
61 Al 4.40114 10.0876 7.3253
62 Ni 2.96667 8.80274 5.74478
63 Al 4.46195 10.2236 10.1478
64 Ni 2.94704 8.69063 8.78584
65 Al 7.21802 1.31708 1.41467
66 Ni 5.71373 0.0559791 0.0543494
67 Al 7.24603 1.27912 4.33136
68 Ni 5.80803 -0.0300365 2.79614
69 Al 7.24142 1.20728 7.24979
70 Ni 5.70346 -0.201074 5.82685
71 Al 7.18226 1.43175 10.1475
72 Ni 5.83216 -0.122587 8.6808
73 Al 7.32868 4.41313 1.40026
74 Ni 5.76641 2.93375 -0.0805097
75 Al 7.2058 4.13916 4.3316
76 Ni 5.7147 2.8736 2.84655
77 Al 7.2813 4.19535 7.16797
78 Ni 5.78546 2.74508 5.80969
79 Al 7.25644 4.23867 10.0293
80 Ni 5.7131 2.84785 8.75144
81 Al 7.1816 7.19668 1.40537
82 Ni 5.7786 5.82286 0.0204583
83 Al 7.25899 7.22498 4.26728
84 Ni 5.70604 5.67291 2.93889
85 Al 7.21008 7.09852 7.27271
86 Ni 5.96367 5.65483 5.82836
87 Al 7.26666 7.14546 10.1283
88 Ni 5.87318 5.71107 8.63032
89 Al 7.20551 10.2492 1.56195
90 Ni 5.90324 8.74323 0.0358103
91 Al 7.40163 10.2179 4.28073
92 Ni 5.89008 8.72443 2.88384
93 Al 7.35549 10.1543 7.12067
94 Ni 5.7469 8.76326 5.78206
95 Al 7.31163 10.1684 10.1753
96 Ni 5.88495 8.69592 8.55572
97 Al 10.1871 1.35985 1.33954
98 Ni 8.68972 -0.095601 0.10023
99 Al 10.1884 1.49983 4.2599
100 Ni 8.75744 0.0408466 2.88402
101 Al 10.1431 1.37576 7.26198
102 Ni 8.66372 -0.116874 5.70183
103 Al 10.2093 1.26214 10.146
104 Ni 8.70297 -0.163568 8.61444
105 Al 10.1886 4.42134 1.42322
106 Ni 8.75036 2.89373 -0.0951757
107 Al 10.1414 4.33333 4.18357
108 Ni 8.67443 2.95981 2.77461
109 Al 10.1578 4.15716 7.13262
110 Ni 8.7555 2.74987 5.78441
111 Al 10.1407 4.19099 10.0852
112 Ni 8.5931 2.80508 8.57799
113 Al 10.1181 7.21926 1.43277
114 Ni 8.68249 5.63776 -0.0567004
115 Al 10.1605 7.29019 4.29975
116 Ni 8.73288 5.75035 2.86776
117 Al 10.1598 7.24792 7.20813
118 Ni 8.72898 5.68262 5.78678
119 Al 10.1238 7.12738 10.1019
120 Ni 8.66898 5.55741 8.62873
121 Al 10.2178 10.1699 1.46998
122 Ni 8.72647 8.81702 -0.0532213
123 Al 10.2478 10.1899 4.29846
124 Ni 8.64932 8.5702 2.8227
125 Al 10.2022 10.1449 7.20971
126 Ni 8.78857 8.70743 5.76569
127 Al 10.0847 10.1315 10.1646
128 Ni 8.63745 8.81355 8.60002
ITEM: TIMESTEP
11500
ITEM: NUMBER OF ATOMS
128
ITEM: BOX BOUNDS xy xz yz pp pp pp
1.0819650497227329e-02 1.1640196318686572e+01 2.9964814132939544e-02
-1.7726415779876803e-01 1.1648090378465881e+01 3.9266835226953845e-02
6.6664977936143899e-03 1.1575117822030240e+01 -1.1095809915662981e-01
ITEM: ATOMS id element xu yu zu
1 Al 1.3019 1.42691 1.33464
2 Ni -0.0960711 -0.0806288 0.0342825
3 Al 1.38477 1.36124 4.36168
4 Ni -0.051885 -0.294667 2.71598
5 Al 1.48773 1.28003 7.33195
6 Ni 0.159463 -0.210575 5.81579
7 Al 1.44114 1.35174 10.0306
8 Ni -0.0185651 -0.189979 8.64466
9 Al 1.49674 4.30233 1.2871
10 Ni 0.0474799 3.00864 -0.135051
11 Al 1.53102 4.35869 4.34551
12 Ni 0.076265 2.99066 2.96308
13 Al 1.50801 4.29413 7.19805
14 Ni 0.0323591 2.73306 5.93533
15 Al 1.50128 4.35423 10.0066
16 Ni -0.00026665 2.75324 8.69786
17 Al 1.54053 7.26655 1.48729
18 Ni -0.095684 5.71424 -0.077918
19 Al 1.50455 7.12838 4.35447
20 Ni 0.111033 5.74595 2.88153
21 Al 1.43306 7.20355 7.24746
22 Ni 0.0789469 5.81272 5.80717
23 Al 1.47147 7.14656 10.0043
24 Ni 0.0545749 5.86675 8.65818
25 Al 1.50181 10.0224 1.3472
26 Ni 0.0611573 8.68246 0.00694575
27 Al 1.46485 10.1157 4.23288
28 Ni -0.0241676 8.6468 2.76744
29 Al 1.55733 10.1357 7.24696
30 Ni 0.104947 8.67898 5.71363
31 Al 1.41775 10.0731 10.1763
32 Ni -0.03323 8.57453 8.7637
33 Al 4.38238 1.36839 1.46583
34 Ni 2.80572 -0.0989731 -0.0249549
35 Al 4.26793 1.43284 4.34729
36 Ni 2.84249 0.00837639 2.69366
37 Al 4.48503 1.3463 7.31861
38 Ni 2.89721 0.0367698 5.83472
39 Al 4.3658 1.22296 10.2053
40 Ni 2.95906 -0.21128 8.79302
41 Al 4.40568 4.21878 1.4408
42 Ni 2.8227 2.75036 -0.143793
43 Al 4.2996 4.23726 4.25214
44 Ni 2.88319 2.79194 2.81503
45 Al 4.45473 4.19726 7.27615
46 Ni 2.86724 2.77873 5.7647
47 Al 4.43973 4.14831 10.1935
48 Ni 3.01236 2.7881 8.64966
49 Al 4.43166 7.20571 1.44905
50 Ni 3.04042 5.84682 0.0121768
51 Al 4.33346 7.22564 4.41747
52 Ni 2.9397 5.7644 2.76577
53 Al 4.46242 7.20181 7.18385
54 Ni 3.18619 5.68053 5.88789
55 Al 4.3563 7.09284 10.1846
56 Ni 2.9957 5.72747 8.67979
57 Al 4.35921 10.1701 1.48142
58 Ni 2.96141 8.59043 -0.042453
59 Al 4.29969 10.205 4.41741
60 Ni 2.75713 8.70354 2.99166
61 Al 4.46536 9.99399 7.25313
62 Ni 2.93168 8.61696 5.75461
63 Al 4.41351 10.0555 10.1873
64 Ni 3.03033 8.59428 8.67192
65 Al 7.20053 1.23102 1.45903
66 Ni 5.92413 -0.192672 0.0105052
67 Al 7.26273 1.33536 4.36677
68 Ni 5.78455 -0.0578955 2.98017
69 Al 7.31316 1.33064 7.23354
70 Ni 5.78845 0.121614 5.80095
71 Al 7.30834 1.41355 10.1139
72 Ni 5.75646 -0.221686 8.67366
73 Al 7.41012 4.35424 1.49288
74 Ni 5.8362 2.76357 0.0449548
75 Al 7.23325 4.25456 4.4676
76 Ni 5.77636 2.82908 2.97186
77 Al 7.31906 4.32258 7.27462
78 Ni 5.69722 2.84301 5.79367
79 Al 7.34876 4.29246 10.1041
80 Ni 5.93475 2.77664 8.69645
81 Al 7.23451 7.23812 1.54539
82 Ni 5.84668 5.75777 0.00181224
83 Al 7.26922 7.22926 4.26039
84 Ni 5.88612 5.73114 2.95754
85 Al 7.10673 7.12284 7.23723
86 Ni 5.67023 5.69877 5.76719
87 Al 7.20479 7.16288 10.1331
88 Ni 5.80915 5.77658 8.63991
89 Al 7.19952 10.1941 1.63115
90 Ni 5.77829 8.62388 0.0784987
91 Al 7.32586 10.2704 4.37093
92 Ni 5.77047 8.70017 2.99822
93 Al 7.31018 10.1718 7.16136
94 Ni 5.8656 8.68106 5.75073
95 Al 7.4022 10.0327 10.0979
96 Ni 5.80486 8.60749 8.69357
97 Al 10.1249 1.38641 1.42775
98 Ni 8.70638 -0.0369717 -0.055054
99 Al 10.25 1.28791 4.3307
100 Ni 8.6687 -0.0880192 2.84184
101 Al 10.1995 1.383 7.24488
102 Ni 8.73891 -0.0608778 5.77463
103 Al 10.3565 1.31933 10.1447
104 Ni 8.69002 -0.162759 8.63769
105 Al 10.1137 4.37191 1.49269
106 Ni 8.69588 2.89335 0.0553378
107 Al 10.1645 4.31688 4.38695
108 Ni 8.87773 2.81995 3.00798
109 Al 10.1325 4.28402 7.23385
110 Ni 8.67042 2.82988 5.74596
111 Al 10.0885 4.30583 10.0746
112 Ni 8.81126 2.79755 8.7989
113 Al 10.1762 7.15251 1.53051
114 Ni 8.65407 5.91082 0.10767
115 Al 10.2639 7.21482 4.33694
116 Ni 8.76915 5.79481 2.97526
117 Al 10.1811 7.30608 7.13658
118 Ni 8.73974 5.81323 5.79597
119 Al 10.1067 7.17186 10.199
120 Ni 8.65037 5.88995 8.66836
121 Al 10.0293 10.0849 1.37629
122 Ni 8.63045 8.51659 0.0750918
123 Al 10.23 10.1305 4.3172
124 Ni 8.74694 8.70761 3.00987
125 Al 10.1422 10.1254 7.20558
126 Ni 8.65809 8.74867 5.73577
127 Al 10.0871 10.1353 10.1573
128 Ni 8.74004 8.55377 8.67359
ITEM: TIMESTEP
11600
ITEM: NUMBER OF ATOMS
128
ITEM: BOX BOUNDS xy xz yz pp pp pp
-5.4513550161550905e-02 1.1631181115153316e+01 -3.8767961457845668e-02
-4.0253858108052931e-02 1.1730823071405597e+01 3.3651206625706191e-02
-4.1669544398400760e-02 1.1623453864222252e+01 1.0878489347379930e-01
ITEM: ATOMS id element xu yu zu
1 Al 1.41236 1.53919 1.22163
2 Ni -0.00471887 -0.0384427 -0.076058
3 Al 1.42676 1.43638 4.30323
4 Ni 0.00438871 0.157828 2.92961
5 Al 1.43332 1.52431 7.24676
6 Ni -0.105259 0.136062 5.89792
7 Al 1.40338 1.59638 10.0566
8 Ni 0.030652 -0.00732323 8.75043
9 Al 1.38284 4.41756 1.40854
10 Ni -0.194362 2.75622 -0.0856114
11 Al 1.45826 4.34638 4.28697
12 Ni -0.102866 2.8217 2.8821
13 Al 1.44393 4.4127 7.30383
14 Ni 0.0250746 2.99871 5.78884
15 Al 1.37982 4.39676 10.2465
16 Ni 0.0244684 3.00274 8.74233
17 Al 1.5218 7.3593 1.53684
18 Ni -0.0331909 5.7752 0.00576662
19 Al 1.43718 7.21441 4.27249
20 Ni -0.101937 5.72057 2.88804
21 Al 1.36816 7.27755 7.26321
22 Ni -0.00156674 5.83776 5.79278
23 Al 1.38521 7.28323 10.0362
24 Ni -0.0162593 5.76704 8.71872
25 Al 1.38391 10.1475 1.44127
26 Ni -0.0451786 8.60444 0.00606882
27 Al 1.40974 10.098 4.32534
28 Ni 0.104583 8.75555 3.00603
29 Al 1.3632 10.3677 7.1734
30 Ni -0.0291464 8.75174 5.75778
31 Al 1.42925 10.3187 10.202
32 Ni 0.123619 8.83215 8.54726
33 Al 4.28279 1.36059 1.38032
34 Ni 2.87576 -0.00757054 -0.0609332
35 Al 4.31606 1.6142 4.30869
36 Ni 2.91585 -0.0902666 3.00165
37 Al 4.42365 1.49734 7.13681
38 Ni 2.85373 0.00216066 5.72088
39 Al 4.40843 1.56127 10.094
40 Ni 2.9293 0.102675 8.59684
41 Al 4.28973 4.27421 1.44459
42 Ni 2.97805 2.90971 0.023429
43 Al 4.44889 4.38638 4.34474
44 Ni 2.85497 2.9738 2.89423
45 Al 4.38078 4.43497 7.13119
46 Ni 2.90628 3.04434 5.84206
47 Al 4.40006 4.37432 10.213
48 Ni 2.90069 2.94358 8.76781
49 Al 4.3426 7.20219 1.2552
50 Ni 2.85297 5.66885 -0.135029
51 Al 4.26384 7.27091 4.39401
52 Ni 2.8606 5.72629 2.91387
53 Al 4.41859 7.27076 7.26027
54 Ni 2.62843 5.8851 5.73767
55 Al 4.25136 7.27785 10.2528
56 Ni 2.95466 5.82246 8.76527
57 Al 4.25986 10.2112 1.33472
58 Ni 2.75919 8.79959 -0.057399
59 Al 4.32655 10.26 4.311
60 Ni 2.98492 8.67519 2.76139
61 Al 4.25931 10.202 7.21497
62 Ni 2.91802 8.77 5.81156
63 Al 4.30183 10.2041 10.069
64 Ni 2.8022 8.8302 8.68764
65 Al 7.35029 1.41729 1.52074
66 Ni 5.69388 -0.0293716 -0.038321
67 Al 7.23176 1.33238 4.33333
68 Ni 5.81162 0.0097743 2.83007
69 Al 7.2212 1.45814 7.13042
70 Ni 5.82899 -0.095709 5.7566
71 Al 7.28876 1.56575 10.153
72 Ni 5.86112 0.137105 8.66713
73 Al 7.2729 4.32525 1.41682
74 Ni 5.79571 2.9009 0.0531175
75 Al 7.28545 4.38254 4.42257
76 Ni 5.7694 2.82407 2.83859
77 Al 7.28051 4.46861 7.23885
78 Ni 5.94673 2.92093 5.70368
79 Al 7.26912 4.39489 10.1798
80 Ni 5.74328 2.98768 8.6128
81 Al 7.3077 7.2417 1.34716
82 Ni 5.76502 5.81023 0.0417221
83 Al 7.22921 7.34713 4.16082
84 Ni 5.67957 5.80919 2.78584
85 Al 7.171 7.32067 7.33063
86 Ni 5.93485 5.90844 5.7832
87 Al 7.2869 7.29716 10.1883
88 Ni 5.87771 5.76487 8.77887
89 Al 7.25565 10.3263 1.44606
90 Ni 5.78769 8.78401 -0.0483338
91 Al 7.22046 10.1385 4.26033
92 Ni 5.68108 8.78237 2.81108
93 Al 7.15845 10.3037 7.16638
94 Ni 5.61598 8.79095 5.80602
95 Al 7.23948 10.2995 10.1077
96 Ni 5.88605 8.78813 8.74134
97 Al 10.1759 1.36341 1.41235
98 Ni 8.70675 -0.0562094 0.0661783
99 Al 10.0622 1.47819 4.47997
100 Ni 8.76881 -0.0944054 2.89947
101 Al 10.2212 1.5528 7.32722
102 Ni 8.70216 -0.0869669 5.92671
103 Al 10.21 1.57771 10.0758
104 Ni 8.7105 -0.0598298 8.8103
105 Al 10.0322 4.34632 1.45149
106 Ni 8.63889 2.86536 -0.119897
107 Al 10.1675 4.34808 4.36139
108 Ni 8.71812 2.99359 2.94016
109 Al 10.112 4.36104 7.23811
110 Ni 8.83099 2.94253 5.89137
111 Al 10.1193 4.39243 10.1394
112 Ni 8.53424 2.99164 8.5727
113 Al 10.1071 7.26565 1.51904
114 Ni 8.71818 5.6811 -0.0560739
115 Al 10.199 7.24477 4.34789
116 Ni 8.64241 5.76388 2.82448
117 Al 10.2191 7.34025 7.25162
118 Ni 8.65142 5.82942 5.79002
119 Al 10.1399 7.36105 10.1531
120 Ni 8.74004 5.79878 8.64625
121 Al 10.2487 10.228 1.49442
122 Ni 8.75613 8.73117 -0.143202
123 Al 10.1354 10.2251 4.36272
124 Ni 8.67306 8.82252 2.91385
125 Al 10.0839 10.2147 7.29552
126 Ni 8.7066 8.76875 5.82112
127 Al 10.2083 10.3256 10.2398
128 Ni 8.65747 8.8175 8.77184
ITEM: TIMESTEP
11700
ITEM: NUMBER OF ATOMS
128
ITEM: BOX BOUNDS xy xz yz pp pp pp
-7.4291874506738798e-02 1.1632889976679326e+01 1.0251600738839454e-02
1.0313380183763599e-02 1.1651024249557219e+01 -3.3437818390155909e-02
-6.4904916838222526e-02 1.1646689236662077e+01 7.9553309917231987e-02
ITEM: ATOMS id element xu yu zu
1 Al 1.41432 1.5019 1.43488
2 Ni 0.0615697 0.00195704 0.0320228
3 Al 1.41354 1.49405 4.31573
4 Ni -0.0272 -0.0740999 2.9831
5 Al 1.38546 1.45083 7.16674
6 Ni -0.069598 0.1295 5.71956
7 Al 1.39764 1.57492 10.1222
8 Ni -0.0383761 0.209295 8.67281
9 Al 1.4539 4.40964 1.50625
10 Ni 0.125622 2.81603 0.0275298
11 Al 1.41703 4.45333 4.3619
12 Ni -0.0713933 2.97356 2.83586
13 Al 1.26227 4.38281 7.22168
14 Ni -0.181553 2.91736 5.8041
15 Al 1.36903 4.30633 10.2506
16 Ni -0.0761992 2.84615 8.71829
17 Al 1.39657 7.3928 1.49463
18 Ni -0.0370271 5.76265 -0.146617
19 Al 1.39904 7.24634 4.34632
20 Ni -0.065595 5.94444 2.85185
21 Al 1.37672 7.20723 7.29985
22 Ni -0.186466 5.82948 5.73724
23 Al 1.4375 7.25363 10.1875
24 Ni -0.0023517 5.86671 8.78979
25 Al 1.43757 10.0472 1.51727
26 Ni 0.0232497 8.81208 -0.121573
27 Al 1.34037 10.127 4.48242
28 Ni -0.145396 8.69478 2.75954
29 Al 1.43937 10.1342 7.3711
30 Ni -0.0262647 8.61056 5.9192
31 Al 1.46332 10.2596 10.222
32 Ni -0.102467 8.63746 8.83307
33 Al 4.37105 1.45035 1.3881
34 Ni 2.86766 0.0271708 0.0187806
35 Al 4.40057 1.51974 4.31905
36 Ni 2.93076 0.0870667 3.01723
37 Al 4.26452 1.56684 7.27886
38 Ni 3.04679 -0.0700431 5.87779
39 Al 4.23878 1.57957 10.1078
40 Ni 2.80131 0.100656 8.77215
41 Al 4.27361 4.43839 1.45784
42 Ni 2.87482 2.89635 0.0868469
43 Al 4.42107 4.4067 4.24068
44 Ni 2.99156 2.92507 2.98887
45 Al 4.31405 4.45427 7.2297
46 Ni 2.90882 2.977 5.71084
47 Al 4.2146 4.47982 10.1855
48 Ni 2.84054 3.04147 8.56052
49 Al 4.36141 7.27622 1.32427
50 Ni 2.8086 5.8067 0.0910492
51 Al 4.29032 7.32826 4.23861
52 Ni 2.75643 5.86683 2.86456
53 Al 4.31709 7.37993 7.22729
54 Ni 3.06451 5.80742 5.74388
55 Al 4.19933 7.18793 10.2687
56 Ni 2.7145 5.84688 8.74175
57 Al 4.40199 10.1296 1.41043
58 Ni 2.91537 8.69607 -0.00636494
59 Al 4.39937 10.0847 4.35468
60 Ni 2.73572 8.79377 2.98435
61 Al 4.3669 10.06 7.30973
62 Ni 2.82784 8.68377 5.78471
63 Al 4.2453 10.1664 10.1584
64 Ni 2.88731 8.71237 8.82098
65 Al 7.24195 1.42321 1.48335
66 Ni 5.71587 0.12922 -0.0563029
67 Al 7.13017 1.33739 4.36758
68 Ni 5.83615 -0.0909969 2.89671
69 Al 7.03171 1.56707 7.17039
70 Ni 5.85651 -0.0820344 5.87776
71 Al 7.26033 1.46507 10.1243
72 Ni 5.73803 0.0154348 8.71986
73 Al 7.17569 4.28745 1.28642
74 Ni 5.71099 2.92544 -0.177181
75 Al 7.26993 4.53163 4.34132
76 Ni 5.84148 2.97606 2.98385
77 Al 7.24282 4.43029 7.30149
78 Ni 5.62413 2.98023 5.83256
79 Al 7.19707 4.32839 10.1437
80 Ni 5.77075 2.97136 8.73222
81 Al 7.29984 7.10762 1.24729
82 Ni 5.82504 5.80686 -0.24694
83 Al 7.34119 7.36088 4.34758
84 Ni 5.95319 5.96747 2.86306
85 Al 7.26827 7.21934 7.36164
86 Ni 5.71508 5.82432 5.79173
87 Al 7.34448 7.3257 10.1394
88 Ni 5.68922 5.99739 8.64611
89 Al 7.2714 10.2776 1.39185
90 Ni 5.73561 8.5892 -0.20273
91 Al 7.23472 10.0029 4.23467
92 Ni 5.88116 8.59953 2.74296
93 Al 7.28733 10.2649 7.23105
94 Ni 5.98028 8.60668 5.9613
95 Al 7.27443 10.12 9.99966
96 Ni 5.68671 8.70633 8.74102
97 Al 10.3019 1.40749 1.4151
98 Ni 8.75782 0.00715699 -0.114392
99 Al 10.0612 1.54277 4.31617
100 Ni 8.64681 -0.0180338 2.81673
101 Al 10.0965 1.52303 7.10312
102 Ni 8.70102 0.0480143 5.62051
103 Al 10.1676 1.5536 10.1382
104 Ni 8.66851 0.124299 8.57312
105 Al 10.0474 4.42878 1.41783
106 Ni 8.68278 2.84825 -0.0309863
107 Al 10.0842 4.36743 4.29821
108 Ni 8.57658 2.85115 2.74938
109 Al 9.97759 4.33482 7.29146
110 Ni 8.42906 2.93355 5.68822
111 Al 10.17 4.34177 10.2373
112 Ni 8.77469 2.90938 8.81344
113 Al 10.1223 7.25748 1.25561
114 Ni 8.65943 5.74084 -0.133328
115 Al 10.2092 7.28594 4.29904
116 Ni 8.72492 5.91761 2.78738
117 Al 10.2568 7.21894 7.30729
118 Ni 8.74475 5.86446 5.73036
119 Al 10.1732 7.32073 10.2018
120 Ni 8.67838 5.76534 8.86035
121 Al 10.2755 10.2708 1.41735
122 Ni 8.71734 8.78694 -0.0893901
123 Al 10.0584 10.0987 4.21961
124 Ni 8.64986 8.5992 2.65758
125 Al 10.1838 10.2081 7.18521
126 Ni 8.7883 8.69923 5.83057
127 Al 10.2355 10.3547 10.1135
128 Ni 8.81718 8.72336 8.71399
ITEM: TIMESTEP
11800
ITEM: NUMBER OF ATOMS
128
ITEM: BOX BOUNDS xy xz yz pp pp pp
-3.5331572987452375e-02 1.1644759933390075e+01 2.4263463379398931e-02
-1.2085146070400871e-01 1.1559713434444145e+01 3.3805771993239125e-03
-4.3336314189549086e-02 1.1625120634013406e+01 -1.4292234608361504e-01
ITEM: ATOMS id element xu yu zu
1 Al 1.31201 1.44149 1.43909
2 Ni -0.129701 0.0812812 0.0508995
3 Al 1.50969 1.43612 4.33795
4 Ni -0.176337 -0.0722001 2.71147
5 Al 1.42316 1.32594 7.30164
6 Ni -0.0427707 -0.112986 5.8058
7 Al 1.30243 1.26342 10.2598
8 Ni 0.0241892 -0.0667272 8.60954
9 Al 1.63057 4.304 1.43234
10 Ni 0.0201493 2.96646 -0.00785106
11 Al 1.45944 4.43252 4.29844
12 Ni 0.0411862 2.91818 2.9611
13 Al 1.44376 4.28017 7.17418
14 Ni 0.0128783 2.90042 5.62391
15 Al 1.4453 4.20808 10.2084
16 Ni 0.0487275 2.8771 8.51992
17 Al 1.33366 7.13647 1.47219
18 Ni -0.0296653 5.73266 0.000825821
19 Al 1.34183 7.24635 4.23425
20 Ni -0.0855398 5.68694 2.88947
21 Al 1.31163 7.12848 7.28596
22 Ni 0.000357076 5.71765 5.7652
23 Al 1.48457 7.02466 10.1373
24 Ni -0.0503513 5.63182 8.68464
25 Al 1.45542 9.89123 1.40697
26 Ni -0.050158 8.67304 0.0357053
27 Al 1.47482 10.0378 4.2074
28 Ni 0.00549673 8.63617 2.83779
29 Al 1.47994 10.0145 7.19043
30 Ni -0.148013 8.60679 5.73313
31 Al 1.46531 10.0406 10.1601
32 Ni 0.0103757 8.71364 8.64792
33 Al 4.27502 1.40322 1.41516
34 Ni 2.92485 0.0368511 -0.0899564
35 Al 4.36199 1.47825 4.34378
36 Ni 2.92938 -0.143323 2.81032
37 Al 4.28417 1.41577 7.29682
38 Ni 2.66857 -0.0173101 5.71005
39 Al 4.33261 1.33135 10.0854
40 Ni 2.94356 -0.203047 8.63042
41 Al 4.25217 4.34157 1.44854
42 Ni 2.89031 2.86947 -0.097151
43 Al 4.3106 4.21225 4.3698
44 Ni 2.84031 2.91738 2.85218
45 Al 4.41324 4.24196 7.18624
46 Ni 3.00255 2.81193 5.82717
47 Al 4.28037 4.27107 10.1532
48 Ni 2.80604 2.7488 8.69003
49 Al 4.35653 7.36124 1.40759
50 Ni 2.98756 5.8128 -0.0863652
51 Al 4.35579 7.1383 4.35964
52 Ni 2.99014 5.82074 2.94683
53 Al 4.35509 7.21784 7.3068
54 Ni 2.73725 5.86288 5.77756
55 Al 4.41997 7.07179 10.2351
56 Ni 2.88123 5.68736 8.59846
57 Al 4.38181 10.0465 1.3883
58 Ni 2.88621 8.63647 -0.134837
59 Al 4.33681 9.991 4.34254
60 Ni 2.99752 8.49391 2.93301
61 Al 4.36646 10.0213 7.18129
62 Ni 2.80106 8.58791 5.81261
63 Al 4.24942 9.92248 10.0899
64 Ni 2.74823 8.5432 8.60404
65 Al 7.20943 1.46624 1.48764
66 Ni 5.8187 -0.112313 -0.090292
67 Al 7.28329 1.41148 4.37582
68 Ni 5.74245 -0.00800395 2.92167
69 Al 7.16065 1.39709 7.25294
70 Ni 5.79999 -0.0212091 5.79643
71 Al 7.2154 1.36499 10.1207
72 Ni 5.76731 -0.0593786 8.67798
73 Al 7.28192 4.27694 1.31104
74 Ni 5.75052 2.87196 0.0283183
75 Al 7.28986 4.31992 4.33562
76 Ni 5.73235 2.88445 2.75076
77 Al 7.34378 4.195 7.29026
78 Ni 5.92316 2.87789 5.78115
79 Al 7.29698 4.17758 10.2018
80 Ni 5.77332 2.77455 8.68944
81 Al 7.28388 7.12699 1.47427
82 Ni 5.71205 5.70802 0.0101484
83 Al 7.30321 7.19692 4.42111
84 Ni 5.77695 5.68641 2.85278
85 Al 7.22078 7.14289 7.32615
86 Ni 5.90358 5.78674 5.91518
87 Al 7.31128 7.0207 10.1865
88 Ni 5.80401 5.49717 8.83298
89 Al 7.30369 10.1713 1.48101
90 Ni 5.74633 8.67096 0.0225625
91 Al 7.29704 10.1599 4.37225
92 Ni 5.89143 8.70396 3.01613
93 Al 7.23493 10.0654 7.37737
94 Ni 5.84183 8.69538 5.738
95 Al 7.37412 9.95498 10.0829
96 Ni 5.83738 8.5391 8.71302
97 Al 10.1231 1.38433 1.50024
98 Ni 8.63166 0.144825 -0.0627804
99 Al 10.2146 1.44775 4.3949
100 Ni 8.58584 -0.0212828 2.83284
101 Al 10.2887 1.40359 7.17472
102 Ni 8.68496 0.0178817 5.91998
103 Al 10.1682 1.37871 10.1046
104 Ni 8.80797 0.0122361 8.90784
105 Al 10.1692 4.32647 1.42851
106 Ni 8.73695 2.94599 -0.0452873
107 Al 10.1185 4.38419 4.36684
108 Ni 8.75452 2.9398 2.90012
109 Al 10.14 4.24043 7.26089
110 Ni 8.91047 2.88685 5.80097
111 Al 10.259 4.18324 10.1364
112 Ni 8.72364 2.78998 8.73534
113 Al 10.0691 7.21066 1.39423
114 Ni 8.79714 5.81302 -0.0537269
115 Al 10.1618 7.14741 4.33852
116 Ni 8.72018 5.7085 2.8561
117 Al 10.3094 7.17779 7.24584
118 Ni 8.67542 5.65286 5.91481
119 Al 10.2698 7.04175 10.1064
120 Ni 8.80878 5.70321 8.65788
121 Al 10.1284 10.149 1.40973
122 Ni 8.65191 8.52544 -0.247315
123 Al 10.0639 10.1854 4.3319
124 Ni 8.75952 8.75891 3.00188
125 Al 10.0985 10.0587 7.2542
126 Ni 8.71393 8.60466 5.86675
127 Al 10.2725 9.99343 10.2079
128 Ni 8.73781 8.5791 8.7716
ITEM: TIMESTEP
11900
ITEM: NUMBER OF ATOMS
128
ITEM: BOX BOUNDS xy xz yz pp pp pp
-7.3413177976255448e-02 1.1671564204897264e+01 -2.8576395341546306e-02
-6.7067627212721082e-02 1.1622246454767943e+01 4.4943102438649858e-02
-3.4750791032988282e-02 1.1616535110856855e+01 -2.6605492268541035e-02
ITEM: ATOMS id element xu yu zu
1 Al 1.33003 1.43275 1.37869
2 Ni -0.0535728 -0.0994044 -0.113882
3 Al 1.4558 1.44556 4.45795
4 Ni 0.0534123 0.0293597 2.79743
5 Al 1.44957 1.37071 7.3945
6 Ni -0.0782614 0.0502793 5.77866
7 Al 1.41387 1.30486 10.2899
8 Ni -0.104281 -0.19354 8.90083
9 Al 1.53649 4.30051 1.36236
10 Ni -0.0455255 2.88216 -0.113341
11 Al 1.29328 4.29871 4.28758
12 Ni -0.089316 2.86475 2.67973
13 Al 1.46104 4.36822 7.29958
14 Ni -0.00952267 2.79529 5.95392
15 Al 1.4343 4.32885 10.1123
16 Ni -0.0276743 2.84824 8.86805
17 Al 1.32174 7.23868 1.47745
18 Ni -0.0515394 5.93491 -0.0206005
19 Al 1.472 7.26847 4.25894
20 Ni 0.02467 5.86125 2.97505
21 Al 1.53445 7.28163 7.20367
22 Ni -0.0371836 5.83727 5.8099
23 Al 1.4238 7.24697 10.139
24 Ni 0.0610253 5.83724 8.62907
25 Al 1.2816 10.0865 1.4265
26 Ni -0.0889111 8.6231 0.0318254
27 Al 1.46614 10.181 4.30568
28 Ni -0.168292 8.70481 2.9716
29 Al 1.49096 10.2161 7.26558
30 Ni 0.0565476 8.74167 5.80368
31 Al 1.43838 10.1232 10.098
32 Ni -0.102671 8.60059 8.69883
33 Al 4.33734 1.39733 1.50866
34 Ni 2.85573 -0.178277 -0.112215
35 Al 4.34902 1.42373 4.37984
36 Ni 2.76424 0.0427624 2.89708
37 Al 4.30129 1.4278 7.36183
38 Ni 2.98501 -0.0858393 5.76528
39 Al 4.41213 1.3967 10.1717
40 Ni 2.79438 -0.0110081 8.69609
41 Al 4.28859 4.36022 1.3676
42 Ni 2.80798 2.88677 -0.0696624
43 Al 4.21093 4.24361 4.32706
44 Ni 2.88436 2.85681 2.80523
45 Al 4.33703 4.16804 7.25356
46 Ni 2.79013 2.8341 5.65852
47 Al 4.43731 4.46945 10.1533
48 Ni 3.01459 2.86284 8.70801
49 Al 4.2561 7.16943 1.40003
50 Ni 2.76478 5.82289 -0.150018
51 Al 4.25291 7.25719 4.24152
52 Ni 2.85028 5.63151 2.91583
53 Al 4.35435 7.27737 7.27493
54 Ni 2.98558 5.68857 5.83522
55 Al 4.40757 7.2841 10.2151
56 Ni 2.92995 5.84005 8.7462
57 Al 4.31771 10.1235 1.33828
58 Ni 2.84924 8.68342 -0.0147291
59 Al 4.42566 10.1455 4.25024
60 Ni 2.88955 8.8062 2.82649
61 Al 4.33767 10.2166 7.25374
62 Ni 3.00283 8.74678 5.70798
63 Al 4.32783 10.1425 10.2228
64 Ni 2.99548 8.79951 8.75989
65 Al 7.32514 1.49284 1.41869
66 Ni 5.79659 0.0669944 0.0714641
67 Al 7.2602 1.36324 4.32082
68 Ni 5.88168 -0.00906326 2.81817
69 Al 7.27911 1.33093 7.21659
70 Ni 5.80954 0.0117844 5.77958
71 Al 7.30635 1.46207 10.0398
72 Ni 5.85034 -0.0196425 8.61557
73 Al 7.23124 4.29633 1.42778
74 Ni 5.86398 2.87896 -0.0526912
75 Al 7.24093 4.23084 4.35058
76 Ni 5.81406 2.80967 2.98175
77 Al 7.31756 4.21913 7.19335
78 Ni 5.64834 2.80392 5.77096
79 Al 7.24845 4.34715 10.1476
80 Ni 5.80972 2.84721 8.68684
81 Al 7.26321 7.1387 1.49665
82 Ni 5.86785 5.7815 -0.0555678
83 Al 7.17104 7.2454 4.38328
84 Ni 5.76357 5.78976 2.89252
85 Al 7.20445 7.28696 7.11741
86 Ni 5.87797 5.61325 5.7322
87 Al 7.35495 7.28819 10.1566
88 Ni 5.8285 5.83654 8.56071
89 Al 7.21539 10.2446 1.49137
90 Ni 5.8357 8.65457 -0.1626
91 Al 7.28661 10.2689 4.2806
92 Ni 5.66605 8.7185 2.81902
93 Al 7.2378 10.1478 7.2242
94 Ni 5.74675 8.70987 5.82397
95 Al 7.23122 10.266 10.0728
96 Ni 5.84312 8.80104 8.64849
97 Al 10.2038 1.30319 1.39222
98 Ni 8.8 -0.157329 0.0279579
99 Al 10.2071 1.50996 4.44065
100 Ni 8.86355 0.0182468 2.84326
101 Al 10.3007 1.35407 7.32837
102 Ni 8.84095 -0.0406971 5.75835
103 Al 10.051 1.23862 10.1304
104 Ni 8.65348 -0.165778 8.61651
105 Al 10.201 4.31713 1.38176
106 Ni 8.6578 2.94152 -0.101771
107 Al 10.1723 4.27761 4.39034
108 Ni 8.70486 2.85464 2.96519
109 Al 10.1634 4.29138 7.24614
110 Ni 8.65521 2.75421 5.90248
111 Al 10.2433 4.33372 10.1308
112 Ni 8.76768 2.93329 8.72526
113 Al 10.1424 7.14429 1.44576
114 Ni 8.59526 5.77707 0.0353613
115 Al 10.1515 7.252 4.41513
116 Ni 8.69448 5.74315 3.02303
117 Al 10.26 7.18045 7.2404
118 Ni 8.75889 5.84757 5.71886
119 Al 10.079 7.13846 10.1474
120 Ni 8.64319 5.69764 8.73101
121 Al 10.2191 10.2013 1.54907
122 Ni 8.75239 8.6594 0.226741
123 Al 10.0463 10.1741 4.32927
124 Ni 8.55794 8.61 2.8846
125 Al 10.2157 10.1306 7.16742
126 Ni 8.63029 8.77307 5.66719
127 Al 10.0995 9.92012 10.1975
128 Ni 8.61259 8.69531 8.69833
ITEM: TIMESTEP
12000
ITEM: NUMBER OF ATOMS
128
ITEM: BOX BOUNDS xy xz yz pp pp pp
-4.1571518404745662e-02 1.1576838641496424e+01 -2.8186910877388893e-02
-5.1560328724536753e-02 1.1770850079851316e+01 -1.8330285854831159e-02
9.0740945991845123e-03 1.1572710225224672e+01 1.3750543130302081e-01
ITEM: ATOMS id element xu yu zu
1 Al 1.27828 1.53779 1.42838
2 Ni -0.0551677 -0.121714 0.0795775
3 Al 1.47813 1.43685 4.37109
4 Ni -0.0670834 -0.0991365 2.95416
5 Al 1.50783 1.52918 7.20741
6 Ni 0.0814058 -0.0219017 5.87169
7 Al 1.44677 1.50606 10.0981
8 Ni 0.0184029 0.0893793 8.49978
9 Al 1.47589 4.3627 1.47559
10 Ni -0.072838 3.0001 0.0306735
11 Al 1.47287 4.28795 4.3472
12 Ni -0.0117783 2.95086 2.94946
13 Al 1.39021 4.45845 7.35887
14 Ni -0.12007 2.93819 5.87198
15 Al 1.42621 4.55371 10.1909
16 Ni -0.152216 2.87583 8.5693
17 Al 1.44028 7.37201 1.38575
18 Ni -0.0585708 5.7533 -0.10104
19 Al 1.47062 7.18127 4.29918
20 Ni -0.0266078 5.77032 2.96869
21 Al 1.41276 7.32669 7.31323
22 Ni 0.0147421 5.80931 5.84013
23 Al 1.37898 7.39319 10.2294
24 Ni -0.121088 6.02735 8.76183
25 Al 1.35302 10.2224 1.51346
26 Ni -0.0591487 8.69382 -0.00630042
27 Al 1.51425 10.1875 4.38441
28 Ni 0.221133 8.67577 2.89073
29 Al 1.51556 10.2628 7.35963
30 Ni 0.0125304 8.66126 5.84986
31 Al 1.38816 10.367 10.1226
32 Ni -0.0291786 8.8497 8.6483
33 Al 4.42357 1.47438 1.49271
34 Ni 2.86072 0.0860769 -0.00889864
35 Al 4.3046 1.56917 4.39048
36 Ni 2.9457 0.0373966 2.80107
37 Al 4.4456 1.43941 7.28251
38 Ni 2.79395 0.100999 5.86713
39 Al 4.42828 1.46305 10.044
40 Ni 2.99316 -0.0777071 8.83028
41 Al 4.26128 4.35583 1.48931
42 Ni 2.86921 2.97484 0.0207382
43 Al 4.26684 4.32024 4.33584
44 Ni 2.77454 2.92059 2.83282
45 Al 4.33973 4.29785 7.34499
46 Ni 2.98783 2.94091 6.00976
47 Al 4.27996 4.5724 10.1327
48 Ni 2.75186 3.01988 8.72743
49 Al 4.34117 7.23511 1.53384
50 Ni 2.95646 5.78333 0.138736
51 Al 4.28432 7.43872 4.31249
52 Ni 2.83905 5.82815 2.86935
53 Al 4.25325 7.35784 7.23948
54 Ni 2.78922 5.7977 5.72999
55 Al 4.21253 7.35301 10.2124
56 Ni 2.88658 5.86507 8.64143
57 Al 4.2763 10.1587 1.49398
58 Ni 3.0129 8.7588 0.00412889
59 Al 4.27108 10.2155 4.33586
60 Ni 2.86946 8.73074 3.02261
61 Al 4.28289 10.3043 7.30318
62 Ni 2.82336 8.87297 5.86859
63 Al 4.35148 10.1865 10.2935
64 Ni 2.92652 8.74825 8.66743
65 Al 7.23113 1.47554 1.42454
66 Ni 5.9137 -0.0843608 -0.0698203
67 Al 7.18651 1.5161 4.33676
68 Ni 5.7486 0.0552274 2.88316
69 Al 7.34247 1.4498 7.24206
70 Ni 5.72068 -0.0318665 5.65934
71 Al 7.34651 1.58459 10.0622
72 Ni 5.872 0.0195964 8.77897
73 Al 7.21432 4.44848 1.44132
74 Ni 5.76399 2.85039 -0.074184
75 Al 7.24571 4.357 4.32053
76 Ni 5.8535 2.9255 2.80711
77 Al 7.19473 4.41871 7.20764
78 Ni 5.83662 2.94704 5.78516
79 Al 7.19202 4.45843 10.0975
80 Ni 5.77653 2.86875 8.66811
81 Al 7.36167 7.27332 1.43864
82 Ni 5.76292 5.74931 -0.00495501
83 Al 7.27907 7.22286 4.35138
84 Ni 5.77987 5.79504 2.92725
85 Al 7.05672 7.43699 7.10559
86 Ni 5.61761 6.00892 5.75732
87 Al 7.16665 7.36791 10.1559
88 Ni 5.72843 5.96367 8.74947
89 Al 7.16914 10.2012 1.52613
90 Ni 5.68632 8.70331 0.15679
91 Al 7.21643 10.2494 4.32695
92 Ni 5.79239 8.67697 2.89364
93 Al 7.10754 10.2201 7.27828
94 Ni 5.73333 8.81298 5.64409
95 Al 7.21727 10.2718 9.9716
96 Ni 5.7523 8.71128 8.7493
97 Al 10.126 1.34566 1.48911
98 Ni 8.64956 -0.0452881 0.0201066
99 Al 10.08 1.33669 4.34378
100 Ni 8.59576 -0.0724654 2.93822
101 Al 10.087 1.48762 7.13597
102 Ni 8.6233 -0.0687104 5.66915
103 Al 10.1861 1.52205 10.1989
104 Ni 8.66966 -0.0262296 8.69787
105 Al 10.1495 4.36633 1.39524
106 Ni 8.67224 2.8878 -0.0217704
107 Al 10.2127 4.31262 4.36487
108 Ni 8.72947 2.93157 2.8155
109 Al 10.11 4.44715 7.31332
110 Ni 8.75067 3.05868 5.69663
111 Al 10.0529 4.4987 9.99986
112 Ni 8.62411 2.93656 8.69718
113 Al 10.2923 7.25991 1.41483
114 Ni 8.67699 5.82137 -0.077653
115 Al 10.1355 7.20245 4.4236
116 Ni 8.67909 5.89802 2.8611
117 Al 10.1974 7.26701 7.17979
118 Ni 8.62403 5.80419 5.81892
119 Al 9.93017 7.42995 10.0743
120 Ni 8.66393 6.04547 8.58449
121 Al 10.0705 10.216 1.55456
122 Ni 8.62496 8.67732 -0.0997413
123 Al 10.0888 10.0921 4.42026
124 Ni 8.82028 8.77581 2.94239
125 Al 10.1148 10.2718 7.15286
126 Ni 8.65549 8.703 5.71914
127 Al 10.1072 10.3103 10.0599
128 Ni 8.66154 8.81694 8.53115
ITEM: TIMESTEP
12100
ITEM: NUMBER OF ATOMS
128
ITEM: BOX BOUNDS xy xz yz pp pp pp
-6.1073735937127047e-02 1.1638630740741801e+01 4.0850123350760645e-02
-9.4087116632881621e-02 1.1642362659039311e+01 -4.5077438369983333e-02
-3.5189697921087948e-02 1.1616974017744928e+01 -3.3508777417321514e-02
ITEM: ATOMS id element xu yu zu
1 Al 1.45309 1.38675 1.38112
2 Ni -0.0648644 0.0578444 -0.01082
3 Al 1.48734 1.38671 4.27034
4 Ni 0.0326225 0.0274427 2.82362
5 Al 1.342 1.30905 7.0328
6 Ni -0.116784 0.00192341 5.63658
7 Al 1.48301 1.28383 10.0497
8 Ni -0.0596259 -0.136539 8.83586
9 Al 1.3922 4.16519 1.39987
10 Ni -0.0153378 2.67398 -0.000439222
11 Al 1.51416 4.31418 4.28256
12 Ni -0.0222839 2.85041 2.84445
13 Al 1.5151 4.20217 7.19055
14 Ni 0.0491775 2.91094 5.66603
15 Al 1.4421 4.2726 10.2079
16 Ni -0.0265894 2.85338 8.68165
17 Al 1.41045 7.24363 1.4183
18 Ni 0.0317165 5.83263 0.024207
19 Al 1.45393 7.22292 4.24531
20 Ni -0.0408725 5.86903 2.76123
21 Al 1.32761 7.23483 7.3107
22 Ni -0.109095 5.81432 5.75938
23 Al 1.37854 7.14146 10.1967
24 Ni 0.0341643 5.49978 8.60281
25 Al 1.40102 10.2397 1.49874
26 Ni 0.148573 8.75483 -0.0956042
27 Al 1.48502 10.1459 4.32055
28 Ni -0.249154 8.84481 2.85705
29 Al 1.48464 10.2041 7.17054
30 Ni -0.0188804 8.86042 5.74187
31 Al 1.48585 10.2369 10.1126
32 Ni 0.0856769 8.85014 8.72536
33 Al 4.42789 1.432 1.47376
34 Ni 2.93557 -0.170044 -0.0838355
35 Al 4.40777 1.38409 4.34996
36 Ni 2.88311 -0.0452729 3.0092
37 Al 4.37659 1.46548 7.20062
38 Ni 3.0379 -0.0984675 5.72967
39 Al 4.37343 1.24773 10.0045
40 Ni 2.74562 0.0683214 8.54462
41 Al 4.17549 4.32083 1.34778
42 Ni 2.75966 2.77992 -0.0439763
43 Al 4.4061 4.30625 4.31153
44 Ni 2.99448 2.85149 2.91423
45 Al 4.24574 4.22249 7.33514
46 Ni 2.89587 2.84787 5.66346
47 Al 4.36215 4.33852 10.2094
48 Ni 2.94831 2.81748 8.70743
49 Al 4.27415 7.11286 1.32949
50 Ni 2.86045 5.68476 -0.217109
51 Al 4.44319 7.27637 4.30315
52 Ni 2.94243 5.70752 2.976
53 Al 4.36998 7.20135 7.28209
54 Ni 2.85967 5.80588 5.93451
55 Al 4.29432 7.29032 10.1073
56 Ni 2.88154 5.72418 8.7372
57 Al 4.34331 10.0704 1.40774
58 Ni 2.76134 8.58322 -0.00966514
59 Al 4.32506 10.0122 4.34235
60 Ni 2.88837 8.64992 2.73843
61 Al 4.23059 10.1888 7.25203
62 Ni 2.88739 8.60147 5.75284
63 Al 4.30383 10.0839 10.2249
64 Ni 2.81476 8.75709 8.69935
65 Al 7.20758 1.33508 1.46411
66 Ni 5.65952 -0.0784454 0.0623761
67 Al 7.17316 1.40428 4.37719
68 Ni 5.8289 -0.0974249 2.90766
69 Al 7.12277 1.37754 7.3901
70 Ni 5.83327 -0.0713695 5.84476
71 Al 7.17053 1.3403 10.1549
72 Ni 5.68373 -0.120773 8.62147
73 Al 7.22917 4.41916 1.51272
74 Ni 5.91588 2.8853 0.0518355
75 Al 7.26684 4.29139 4.36666
76 Ni 5.77111 2.84638 2.90535
77 Al 7.28116 4.32554 7.27799
78 Ni 5.75894 2.90157 5.85734
79 Al 7.24312 4.22253 10.281
80 Ni 5.86465 2.96255 8.75152
81 Al 7.22076 7.23147 1.36785
82 Ni 5.75188 5.81174 0.00711693
83 Al 7.27635 7.20951 4.38676
84 Ni 5.78399 5.79283 2.83995
85 Al 7.24768 7.3267 7.28517
86 Ni 6.04878 5.67609 5.82744
87 Al 7.24231 7.15744 10.2387
88 Ni 5.78973 5.69283 8.76792
89 Al 7.28729 10.119 1.46754
90 Ni 5.90581 8.77808 -0.140433
91 Al 7.27705 10.243 4.42576
92 Ni 5.68577 8.74983 2.93095
93 Al 7.25577 10.1679 7.35323
94 Ni 5.71809 8.59604 5.85642
95 Al 7.21155 10.2564 10.0821
96 Ni 5.79076 8.79801 8.62678
97 Al 10.1327 1.40923 1.45987
98 Ni 8.76906 -0.0392054 -0.0394403
99 Al 10.0345 1.37965 4.28134
100 Ni 8.77984 -0.108924 2.85135
101 Al 10.1794 1.43075 7.12682
102 Ni 8.66126 -0.0865303 5.86863
103 Al 10.1054 1.47439 10.1515
104 Ni 8.55296 -0.0648532 8.65002
105 Al 10.1838 4.29271 1.37063
106 Ni 8.73834 2.83427 0.0116036
107 Al 10.2176 4.28431 4.38529
108 Ni 8.57788 2.91785 2.98955
109 Al 10.203 4.32834 7.20342
110 Ni 8.45502 2.79904 5.82207
111 Al 10.1465 4.31034 10.1511
112 Ni 8.67332 2.76458 8.54362
113 Al 10.2773 7.33343 1.37336
114 Ni 8.78502 5.79861 -0.0551127
115 Al 10.1171 7.27286 4.39979
116 Ni 8.66757 5.82272 2.80912
117 Al 10.2139 7.22237 7.35833
118 Ni 8.7232 5.89508 5.84794
119 Al 10.1705 7.25912 10.1241
120 Ni 8.75684 5.66311 8.85204
121 Al 10.2181 10.2843 1.40446
122 Ni 8.79941 8.6945 -0.0571465
123 Al 9.99078 10.1919 4.36654
124 Ni 8.57129 8.66159 2.87317
125 Al 10.2463 10.2454 7.26924
126 Ni 8.78814 8.71599 5.89271
127 Al 10.1046 10.2313 10.1141
128 Ni 8.60651 8.70268 8.8827
ITEM: TIMESTEP
12200
ITEM: NUMBER OF ATOMS
128
ITEM: BOX BOUNDS xy xz yz pp pp pp
-1.7844211236546670e-02 1.1639400428555636e+01 2.8032910516838733e-02
-1.2862976779576105e-01 1.1576926071871808e+01 1.1738986978359511e-02
-3.7780992968778015e-02 1.1619565312792615e+01 -1.3348801574770405e-01
ITEM: ATOMS id element xu yu zu
1 Al 1.42134 1.46069 1.499
2 Ni 0.090952 -0.10928 -0.0114847
3 Al 1.47431 1.46536 4.31056
4 Ni -0.138441 -0.0933777 2.90593
5 Al 1.46975 1.33093 7.19783
6 Ni -0.00950557 -0.0877474 5.8224
7 Al 1.50269 1.23157 10.2089
8 Ni 0.0567284 -0.0141155 8.61777
9 Al 1.46342 4.2365 1.39854
10 Ni 0.108514 3.0092 0.0492834
11 Al 1.50262 4.31586 4.2772
12 Ni 0.00816733 2.90151 2.83156
13 Al 1.43383 4.24892 7.20838
14 Ni -0.0405592 2.728 5.89092
15 Al 1.51036 4.31769 10.1645
16 Ni 0.0137617 2.71926 8.73822
17 Al 1.41536 7.25235 1.34789
18 Ni 0.0308981 5.70788 -0.0474062
19 Al 1.45071 7.20552 4.33661
20 Ni -0.0366423 5.70721 2.95934
21 Al 1.36443 7.14015 7.25099
22 Ni -0.0375005 5.70256 5.80063
23 Al 1.55724 7.12782 10.2471
24 Ni -0.0633303 5.82021 8.70518
25 Al 1.4759 10.0311 1.43321
26 Ni -0.139949 8.60777 0.0241241
27 Al 1.41487 10.1427 4.3566
28 Ni 0.196951 8.5308 2.85265
29 Al 1.40869 10.0411 7.21515
30 Ni -0.106039 8.54419 5.82243
31 Al 1.45018 9.99613 10.0012
32 Ni -0.0946415 8.52988 8.69105
33 Al 4.46568 1.51171 1.50239
34 Ni 2.86799 0.0722679 0.110469
35 Al 4.3019 1.38159 4.28953
36 Ni 2.92425 -0.186795 2.86066
37 Al 4.3663 1.43968 7.09901
38 Ni 2.75918 -0.0483968 5.77037
39 Al 4.27807 1.22604 10.0717
40 Ni 3.00654 -0.207614 8.62798
41 Al 4.36405 4.49131 1.39049
42 Ni 3.05723 2.92938 0.114014
43 Al 4.38848 4.33481 4.1594
44 Ni 2.8972 2.98977 2.85436
45 Al 4.20938 4.22519 7.28004
46 Ni 2.89755 2.93704 5.71267
47 Al 4.33666 4.32038 10.1845
48 Ni 2.91068 2.74501 8.74723
49 Al 4.27694 7.26481 1.37174
50 Ni 2.88306 5.93728 0.0479254
51 Al 4.49747 7.34249 4.30356
52 Ni 2.95746 5.93423 2.7665
53 Al 4.37178 7.21733 7.28477
54 Ni 2.90287 5.7292 5.63268
55 Al 4.32982 7.05748 10.1025
56 Ni 2.83038 5.63133 8.62874
57 Al 4.45362 10.063 1.34481
58 Ni 3.0196 8.77823 -0.195673
59 Al 4.3604 9.97164 4.31638
60 Ni 2.91032 8.65029 3.07929
61 Al 4.32883 10.0493 7.17571
62 Ni 2.91255 8.6429 5.81651
63 Al 4.36517 10.1315 10.1187
64 Ni 2.9097 8.55377 8.64033
65 Al 7.06301 1.39921 1.41049
66 Ni 5.76457 0.038845 -0.101697
67 Al 7.19114 1.4057 4.38273
68 Ni 5.73398 -0.174267 2.88523
69 Al 7.22386 1.37885 7.27501
70 Ni 5.70992 -0.11685 5.78664
71 Al 7.13665 1.27821 10.156
72 Ni 5.83243 -0.0476135 8.71253
73 Al 7.24736 4.33479 1.45637
74 Ni 5.72667 2.82744 -0.110992
75 Al 7.19849 4.32138 4.36178
76 Ni 5.85923 2.93493 2.94825
77 Al 7.24583 4.12291 7.17062
78 Ni 5.83698 2.83128 5.66903
79 Al 7.19001 4.15351 10.1167
80 Ni 5.70811 2.6716 8.69677
81 Al 7.21805 7.11949 1.30944
82 Ni 5.87116 5.7528 -0.176964
83 Al 7.2416 7.13478 4.39677
84 Ni 5.83633 5.86334 2.85231
85 Al 7.34413 7.14524 7.28988
86 Ni 5.6639 5.95076 5.87693
87 Al 7.39443 7.11567 10.215
88 Ni 5.82245 5.71433 8.69514
89 Al 7.28126 10.0705 1.37426
90 Ni 5.69587 8.58215 -0.0764136
91 Al 7.26543 10.0697 4.32328
92 Ni 5.97668 8.56935 2.67556
93 Al 7.31155 10.0839 7.38004
94 Ni 5.96748 8.57741 5.9608
95 Al 7.28643 9.97949 10.0554
96 Ni 5.81275 8.50484 8.84904
97 Al 10.2177 1.41812 1.36113
98 Ni 8.59016 0.0802398 -0.0257763
99 Al 10.2234 1.39735 4.23273
100 Ni 8.50102 -0.0242419 2.89594
101 Al 10.1144 1.39067 7.27749
102 Ni 8.71284 -0.0340858 5.78106
103 Al 10.2378 1.40577 10.3333
104 Ni 8.76231 -0.0739569 8.8197
105 Al 10.1764 4.32109 1.46658
106 Ni 8.65197 2.87435 -0.0269392
107 Al 10.1582 4.26532 4.45267
108 Ni 8.66199 2.75906 2.83843
109 Al 10.2952 4.26144 7.3351
110 Ni 8.8564 2.79421 5.73472
111 Al 10.191 4.2851 10.2171
112 Ni 8.77838 2.82583 8.9162
113 Al 10.1964 7.19051 1.48596
114 Ni 8.69755 5.72252 0.0131162
115 Al 10.0847 7.32162 4.35006
116 Ni 8.64007 5.78691 2.93584
117 Al 10.148 7.08825 7.18878
118 Ni 8.73839 5.76118 5.73066
119 Al 10.2275 7.09122 10.2398
120 Ni 8.86699 5.71413 8.69729
121 Al 10.2485 10.1902 1.4613
122 Ni 8.5856 8.72921 -0.0727683
123 Al 10.0774 10.166 4.31208
124 Ni 8.7615 8.77527 2.76468
125 Al 10.1927 10.0669 7.23612
126 Ni 8.63995 8.57108 5.80654
127 Al 10.1806 10.0916 10.1424
128 Ni 8.84709 8.60253 8.65791
ITEM: TIMESTEP
12300
ITEM: NUMBER OF ATOMS
128
ITEM: BOX BOUNDS xy xz yz pp pp pp
-8.2179255798762660e-02 1.1648787791220760e+01 -2.7272711293158603e-02
1.3646331510797083e-02 1.1681539805445182e+01 1.2096926891251192e-02
-5.7290104178026269e-02 1.1639074424001858e+01 1.1340181713222726e-01
ITEM: ATOMS id element xu yu zu
1 Al 1.36302 1.5213 1.43559
2 Ni -0.0946941 0.0381065 0.0702093
3 Al 1.45065 1.51909 4.4851
4 Ni 0.0996687 0.0203303 2.8145
5 Al 1.31435 1.49692 7.31909
6 Ni -0.0192617 0.0624502 5.8356
7 Al 1.3283 1.4846 10.284
8 Ni -0.0569292 -0.0128919 8.83652
9 Al 1.38243 4.26112 1.38259
10 Ni -0.128775 2.85041 -0.0967233
11 Al 1.48602 4.33397 4.33904
12 Ni -0.0145627 2.84508 2.89625
13 Al 1.40096 4.48567 7.26112
14 Ni -0.0575256 3.06322 5.70418
15 Al 1.34978 4.62814 10.2194
16 Ni -0.0290611 3.07279 8.78404
17 Al 1.41897 7.23817 1.41532
18 Ni -0.129355 5.96572 -0.0417836
19 Al 1.40076 7.36987 4.30854
20 Ni -0.063298 5.86703 2.73365
21 Al 1.3403 7.37582 7.30019
22 Ni 0.00761309 5.7865 5.78324
23 Al 1.50737 7.34419 10.2471
24 Ni -0.0506546 5.79183 8.76705
25 Al 1.37145 10.1409 1.45803
26 Ni -0.0197862 8.77606 -0.0206078
27 Al 1.45178 10.2758 4.36491
28 Ni -0.274381 8.72657 2.89192
29 Al 1.36911 10.2876 7.29289
30 Ni -0.0362923 8.69426 5.80368
31 Al 1.35714 10.1683 10.1976
32 Ni -0.119959 8.79684 8.67443
33 Al 4.30895 1.49611 1.33627
34 Ni 2.96604 -0.135213 -0.227087
35 Al 4.2955 1.49967 4.40331
36 Ni 2.81903 0.126319 2.94288
37 Al 4.27109 1.51115 7.3983
38 Ni 2.90061 -0.0189494 5.8963
39 Al 4.27991 1.58525 10.1573
40 Ni 2.70364 0.113982 8.85751
41 Al 4.28337 4.35023 1.48372
42 Ni 2.68047 2.99511 -0.0967206
43 Al 4.29907 4.25315 4.29359
44 Ni 2.82456 2.84941 2.89228
45 Al 4.22512 4.40039 7.25759
46 Ni 2.87242 2.84813 5.90351
47 Al 4.33866 4.50269 10.1834
48 Ni 2.8414 3.18525 8.64494
49 Al 4.30808 7.19145 1.48431
50 Ni 2.98435 5.7272 -0.102675
51 Al 4.26857 7.28122 4.45819
52 Ni 2.90581 5.71892 3.05318
53 Al 4.48176 7.36609 7.22431
54 Ni 2.85151 5.80085 5.96482
55 Al 4.38325 7.37862 10.192
56 Ni 2.87849 5.96327 8.79425
57 Al 4.37412 10.1345 1.38708
58 Ni 2.79258 8.57896 0.025227
59 Al 4.221 10.2482 4.29629
60 Ni 2.86385 8.70558 2.80311
61 Al 4.23835 10.2 7.20964
62 Ni 2.85863 8.80228 5.81745
63 Al 4.31113 10.2684 10.1357
64 Ni 2.83985 8.81237 8.81608
65 Al 7.19066 1.4954 1.31776
66 Ni 5.79034 0.0787151 -0.0803014
67 Al 7.32417 1.54141 4.2412
68 Ni 5.79166 0.21426 2.88897
69 Al 7.16211 1.51062 7.22097
70 Ni 5.94193 0.169877 5.78921
71 Al 7.12997 1.59952 10.1429
72 Ni 5.8239 0.133759 8.73228
73 Al 7.32319 4.37589 1.36218
74 Ni 5.73437 3.01268 -0.0365466
75 Al 7.11619 4.32834 4.24197
76 Ni 5.68249 2.8578 2.86493
77 Al 7.15147 4.27692 7.1642
78 Ni 5.75079 2.85899 5.89285
79 Al 7.2103 4.46169 10.11
80 Ni 5.81423 3.04786 8.62716
81 Al 7.11581 7.23928 1.35466
82 Ni 5.68936 5.80389 0.0397128
83 Al 7.21368 7.19108 4.36035
84 Ni 5.89085 5.75734 2.86407
85 Al 7.32733 7.33391 7.0345
86 Ni 5.96875 5.69802 5.67436
87 Al 7.22671 7.41158 10.2073
88 Ni 5.70406 5.83999 8.63216
89 Al 7.23807 10.16 1.46554
90 Ni 5.97677 8.71785 -0.0505097
91 Al 7.37251 10.2322 4.22485
92 Ni 5.66637 8.85015 3.02486
93 Al 7.24866 10.2253 7.23478
94 Ni 5.67553 8.83826 5.62398
95 Al 7.26439 10.2195 10.1322
96 Ni 5.87636 8.77094 8.52967
97 Al 10.2067 1.52085 1.39065
98 Ni 8.78254 -0.0307386 -0.0866295
99 Al 10.2817 1.50673 4.3384
100 Ni 8.9081 -0.0199525 2.81535
101 Al 10.2049 1.44666 7.21318
102 Ni 8.72004 0.00530304 5.71174
103 Al 10.109 1.49733 10.2153
104 Ni 8.69811 0.0683091 8.72051
105 Al 10.2852 4.39593 1.30286
106 Ni 8.82944 2.95082 -0.0874602
107 Al 10.0609 4.35139 4.30346
108 Ni 8.77052 3.00857 2.80901
109 Al 10.2781 4.43654 7.18388
110 Ni 8.596 2.96569 5.81553
111 Al 10.1001 4.3979 10.0534
112 Ni 8.75899 2.87191 8.5573
113 Al 10.1501 7.27513 1.36658
114 Ni 8.67169 5.77156 -0.18424
115 Al 10.085 7.30132 4.43373
116 Ni 8.7461 5.7284 2.77557
117 Al 10.1656 7.23633 7.24529
118 Ni 8.62452 5.69004 5.82942
119 Al 10.193 7.25471 10.0819
120 Ni 8.56874 5.86191 8.6291
121 Al 10.2152 10.1254 1.46628
122 Ni 8.79665 8.61931 -0.0672094
123 Al 10.2207 10.3345 4.32715
124 Ni 8.69125 8.60096 2.935
125 Al 10.122 10.1356 7.27276
126 Ni 8.8078 8.79205 5.77822
127 Al 10.1137 10.1269 10.1481
128 Ni 8.55818 8.74564 8.70276
ITEM: TIMESTEP
12400
ITEM: NUMBER OF ATOMS
128
ITEM: BOX BOUNDS xy xz yz pp pp pp
-8.4663640230022458e-02 1.1626474094518642e+01 -7.3953908456103664e-03
-9.7883452288227701e-03 1.1708207557217731e+01 -3.2578474689677964e-02
-3.4462857437974392e-02 1.1616247177261812e+01 1.1663489216515185e-01
ITEM: ATOMS id element xu yu zu
1 Al 1.28806 1.57499 1.42832
2 Ni -0.0834056 -0.0843632 -0.267113
3 Al 1.37372 1.48459 4.24402
4 Ni -0.192202 0.0675839 2.92115
5 Al 1.47803 1.54706 7.2597
6 Ni -0.0371318 0.0523627 5.70213
7 Al 1.31623 1.4585 10.1152
8 Ni -0.111916 0.096551 8.62435
9 Al 1.41685 4.30757 1.30054
10 Ni -0.0655666 2.91718 -0.11537
11 Al 1.4959 4.30912 4.3756
12 Ni -0.0392092 3.00809 2.82803
13 Al 1.46299 4.49684 7.27731
14 Ni 0.00043321 2.83555 5.89798
15 Al 1.41533 4.53512 10.0319
16 Ni -0.208417 3.02154 8.6004
17 Al 1.51999 7.32038 1.4603
18 Ni -0.022767 5.70134 -0.0832125
19 Al 1.39766 7.31486 4.32978
20 Ni -0.0343168 5.75712 2.99425
21 Al 1.34875 7.34921 7.12962
22 Ni -0.13634 5.93737 5.89145
23 Al 1.41297 7.30966 10.0531
24 Ni -0.103951 5.94328 8.5624
25 Al 1.23598 10.2024 1.45781
26 Ni -0.09779 8.56045 -0.0330181
27 Al 1.43393 10.3226 4.38343
28 Ni 0.143419 8.61487 2.83733
29 Al 1.38784 10.3025 7.2824
30 Ni -0.0292564 8.75427 5.79805
31 Al 1.45935 10.2237 10.1674
32 Ni 0.00831343 8.74829 8.741
33 Al 4.35316 1.41782 1.4448
34 Ni 2.83789 0.074879 -0.023299
35 Al 4.27612 1.51501 4.28277
36 Ni 2.8205 0.0668553 2.80817
37 Al 4.36698 1.52559 7.35858
38 Ni 2.771 0.176058 5.80333
39 Al 4.4673 1.4427 10.2807
40 Ni 2.94294 0.00355419 8.60662
41 Al 4.31799 4.26749 1.35164
42 Ni 2.93338 2.78126 -0.1398
43 Al 4.18877 4.34753 4.27587
44 Ni 2.82663 2.95371 2.85615
45 Al 4.29313 4.31357 7.34408
46 Ni 2.86006 3.00398 5.87309
47 Al 4.30042 4.43521 10.2202
48 Ni 2.93151 2.77892 8.81692
49 Al 4.36411 7.20413 1.41062
50 Ni 2.70593 5.90102 -0.0736045
51 Al 4.2837 7.36355 4.28267
52 Ni 2.81137 5.7432 2.74637
53 Al 4.38043 7.31472 7.23929
54 Ni 2.8648 5.89086 5.64945
55 Al 4.22913 7.23801 10.1847
56 Ni 2.95896 5.84268 8.69708
57 Al 4.24665 10.2314 1.48901
58 Ni 2.97468 8.7914 -0.0327558
59 Al 4.23036 10.2559 4.42868
60 Ni 2.87574 8.8155 3.01729
61 Al 4.20147 10.1696 7.15012
62 Ni 2.8935 8.65844 5.68891
63 Al 4.25465 10.3677 10.2096
64 Ni 2.97478 8.71777 8.71688
65 Al 7.20166 1.45781 1.40029
66 Ni 5.85998 -0.0593545 0.00749713
67 Al 7.14373 1.44424 4.33513
68 Ni 5.75695 -0.051346 2.80256
69 Al 7.14286 1.59513 7.21446
70 Ni 5.59724 0.0308744 5.8163
71 Al 7.26277 1.44851 10.1329
72 Ni 5.87393 0.027528 8.71457
73 Al 7.28711 4.36939 1.51318
74 Ni 5.91799 2.77291 -0.0468784
75 Al 7.1792 4.48695 4.38378
76 Ni 5.81235 2.84951 2.74154
77 Al 7.21008 4.3537 7.1896
78 Ni 5.8516 2.93165 5.771
79 Al 7.24581 4.56338 10.2499
80 Ni 5.81034 2.91579 8.89869
81 Al 7.16531 7.25071 1.44171
82 Ni 5.84742 5.7959 0.0644485
83 Al 7.14134 7.25787 4.39421
84 Ni 5.58534 5.57802 2.87915
85 Al 7.25331 7.33826 7.15174
86 Ni 5.69998 5.85479 5.7431
87 Al 7.12382 7.50341 10.2326
88 Ni 5.82085 5.92726 8.70929
89 Al 7.16108 10.1779 1.43541
90 Ni 5.70518 8.66009 0.139652
91 Al 7.27866 10.1762 4.33556
92 Ni 5.85836 8.66186 2.78536
93 Al 7.25948 10.2758 7.24535
94 Ni 5.69705 8.73838 5.86828
95 Al 7.24985 10.198 10.1484
96 Ni 5.68486 8.80827 8.78486
97 Al 10.2491 1.39516 1.3189
98 Ni 8.68492 0.025841 0.0604036
99 Al 10.1946 1.48379 4.33689
100 Ni 8.67471 0.0972952 2.94947
101 Al 10.213 1.44617 7.25857
102 Ni 8.78113 0.116204 5.85809
103 Al 10.0656 1.50422 10.1803
104 Ni 8.73652 0.0301843 8.62764
105 Al 10.1132 4.36611 1.40445
106 Ni 8.6766 2.88528 -0.0284331
107 Al 10.0732 4.2866 4.35036
108 Ni 8.75831 2.86451 2.89895
109 Al 10.0977 4.46531 7.14685
110 Ni 8.73309 2.85418 5.73977
111 Al 10.1791 4.43349 10.1268
112 Ni 8.59462 3.14314 8.89468
113 Al 10.2145 7.23131 1.43424
114 Ni 8.7212 5.92089 0.0985345
115 Al 10.1508 7.34864 4.28887
116 Ni 8.6816 5.83318 2.98948
117 Al 10.1263 7.42878 7.23936
118 Ni 8.75384 6.07672 5.72536
119 Al 10.0672 7.32185 10.1585
120 Ni 8.73459 5.99419 8.74772
121 Al 10.1357 10.049 1.45045
122 Ni 8.49537 8.70216 0.00201694
123 Al 10.1591 10.2177 4.28906
124 Ni 8.71439 8.74687 2.92667
125 Al 10.1767 10.149 7.18723
126 Ni 8.64225 8.72834 5.76497
127 Al 10.1125 10.1411 10.1395
128 Ni 8.71728 8.81375 8.61466
ITEM: TIMESTEP
12500
ITEM: NUMBER OF ATOMS
128
ITEM: BOX BOUNDS xy xz yz pp pp pp
-1.7377113348092110e-02 1.1611079954381079e+01 1.4037130409161188e-02
-1.6262559441457103e-01 1.1625355971786538e+01 -2.1186092000823327e-03
-8.5108458310534374e-03 1.1590295165654888e+01 -1.1905394245177882e-01
ITEM: ATOMS id element xu yu zu
1 Al 1.39717 1.48234 1.47331
2 Ni -0.031324 -0.0217072 0.119611
3 Al 1.38098 1.2356 4.27426
4 Ni 0.0443436 -0.10471 2.85863
5 Al 1.5701 1.36761 7.13195
6 Ni 0.00623301 -0.048642 5.91681
7 Al 1.51488 1.29377 10.1266
8 Ni 0.00237831 -0.154522 8.68225
9 Al 1.3537 4.33464 1.46607
10 Ni -0.0820799 2.90019 -0.0510493
11 Al 1.5327 4.15463 4.34838
12 Ni -0.0595398 2.78191 2.94427
13 Al 1.45144 4.16179 7.30147
14 Ni -0.178075 2.90425 5.83733
15 Al 1.43859 4.28137 10.1621
16 Ni 0.058386 2.75415 8.79164
17 Al 1.44926 7.21206 1.47802
18 Ni -0.0139919 5.8558 -0.0196007
19 Al 1.48785 7.18604 4.40942
20 Ni -0.0731666 5.79014 2.81079
21 Al 1.33078 7.05916 7.204
22 Ni 0.0908477 5.73461 5.74018
23 Al 1.41192 7.11461 10.0867
24 Ni -0.0121391 5.69137 8.7976
25 Al 1.49964 10.0285 1.45542
26 Ni 0.0750679 8.8684 -0.0196939
27 Al 1.40073 10.1855 4.34275
28 Ni -0.130632 8.84203 2.8697
29 Al 1.50815 10.1636 7.20981
30 Ni 0.0815441 8.68021 5.75057
31 Al 1.48384 10.1973 10.1377
32 Ni -0.077895 8.63851 8.55626
33 Al 4.35706 1.33953 1.44399
34 Ni 2.88773 -0.11876 0.00668957
35 Al 4.29969 1.45631 4.22599
36 Ni 2.94036 -0.127893 2.92046
37 Al 4.35135 1.38781 7.22794
38 Ni 3.00201 -0.114039 5.70688
39 Al 4.42075 1.33985 10.1839
40 Ni 2.87645 -0.0674188 8.63982
41 Al 4.40695 4.2885 1.56108
42 Ni 2.88284 2.83995 0.0787294
43 Al 4.33952 4.43199 4.31322
44 Ni 2.84017 2.80989 2.78257
45 Al 4.42124 4.28407 7.23854
46 Ni 2.9573 2.82533 5.74464
47 Al 4.31241 4.11665 10.1147
48 Ni 2.93847 2.91225 8.5592
49 Al 4.39609 7.29865 1.34148
50 Ni 2.9861 5.65072 -0.043554
51 Al 4.29792 7.15256 4.34118
52 Ni 2.88805 5.74637 2.88265
53 Al 4.27431 7.24234 7.25113
54 Ni 2.92553 5.57915 5.93904
55 Al 4.19182 7.04373 10.1142
56 Ni 2.82111 5.62015 8.78344
57 Al 4.39094 10.2393 1.41465
58 Ni 2.73461 8.65948 -0.206665
59 Al 4.17532 10.0429 4.46079
60 Ni 2.78457 8.51432 2.82046
61 Al 4.43917 10.1038 7.20283
62 Ni 2.88698 8.63002 5.79007
63 Al 4.28484 10.1069 10.1496
64 Ni 2.79489 8.71751 8.67055
65 Al 7.22241 1.37296 1.47688
66 Ni 5.8179 -0.0407531 -0.00619764
67 Al 7.2368 1.37174 4.38974
68 Ni 5.79598 -0.0634681 2.96984
69 Al 7.16463 1.34746 7.22503
70 Ni 5.88568 -0.104758 5.76206
71 Al 7.244 1.31774 10.1697
72 Ni 5.70678 -0.100451 8.63454
73 Al 7.1184 4.28029 1.4296
74 Ni 5.71261 2.88365 -0.0317405
75 Al 7.26753 4.43537 4.27631
76 Ni 5.86969 2.97617 3.01938
77 Al 7.19765 4.31609 7.23678
78 Ni 5.82759 2.88163 5.77439
79 Al 7.3175 4.16688 10.1605
80 Ni 5.8442 2.8365 8.53959
81 Al 7.22848 7.42931 1.2903
82 Ni 5.80968 5.82474 -0.034772
83 Al 7.26621 7.16491 4.39544
84 Ni 5.905 5.99467 2.75387
85 Al 7.206 7.17905 7.20523
86 Ni 5.839 5.79247 5.84886
87 Al 7.28116 7.15409 10.1994
88 Ni 5.73967 5.67335 8.78677
89 Al 7.21537 10.1699 1.42525
90 Ni 5.84856 8.70601 -0.137127
91 Al 7.23531 9.98108 4.29287
92 Ni 5.70048 8.71977 2.84966
93 Al 7.33567 10.006 7.38717
94 Ni 5.80035 8.55427 5.73918
95 Al 7.32796 9.90433 10.2403
96 Ni 5.82714 8.51782 8.69829
97 Al 10.1827 1.40093 1.41352
98 Ni 8.75045 -0.137231 -0.107385
99 Al 10.0807 1.25657 4.43926
100 Ni 8.69153 -0.200123 2.98191
101 Al 10.1925 1.28862 7.26716
102 Ni 8.54606 -0.156334 5.81975
103 Al 10.1873 1.28591 10.1599
104 Ni 8.62876 -0.236797 8.76478
105 Al 10.0453 4.25432 1.53256
106 Ni 8.73646 2.87513 0.0122509
107 Al 10.1151 4.23268 4.29945
108 Ni 8.64246 2.86767 2.92805
109 Al 10.1544 4.32842 7.26204
110 Ni 8.64291 2.95818 5.82734
111 Al 10.1172 4.25145 10.1766
112 Ni 8.69889 2.70613 8.65554
113 Al 10.1715 7.24504 1.43651
114 Ni 8.71093 5.70822 0.0593766
115 Al 10.1564 7.19448 4.36484
116 Ni 8.78469 5.81033 2.89875
117 Al 10.1108 7.25301 7.15952
118 Ni 8.63365 5.66407 5.84448
119 Al 10.1859 7.20333 10.0641
120 Ni 8.7398 5.71126 8.61604
121 Al 10.1546 10.1623 1.46805
122 Ni 8.97334 8.67333 0.0491201
123 Al 10.1387 10.087 4.31939
124 Ni 8.68766 8.7165 2.90074
125 Al 10.1291 10.1168 7.22737
126 Ni 8.62687 8.67898 5.82291
127 Al 10.2523 10.0933 10.1436
128 Ni 8.75179 8.56383 8.80814
ITEM: TIMESTEP
12600
ITEM: NUMBER OF ATOMS
128
ITEM: BOX BOUNDS xy xz yz pp pp pp
-3.5316055695300816e-02 1.1641030675577314e+01 -1.7349551989658801e-02
-1.2301382766350531e-01 1.1650586365602592e+01 4.1279852047773402e-02
-1.3255499078484334e-02 1.1595039818902325e+01 -5.4211781884651020e-02
ITEM: ATOMS id element xu yu zu
1 Al 1.52408 1.38403 1.58366
2 Ni 0.0109448 -0.0809224 -0.0645667
3 Al 1.57085 1.27416 4.31058
4 Ni -0.0155338 -0.0101127 3.07342
5 Al 1.47015 1.29454 7.17447
6 Ni -0.0200753 -0.0464512 5.6525
7 Al 1.49288 1.32438 10.1978
8 Ni 0.00489337 0.0177199 8.72659
9 Al 1.45971 4.27161 1.51638
10 Ni 0.00914925 2.66895 0.200811
11 Al 1.48534 4.30044 4.33034
12 Ni 0.0186342 2.76602 2.857
13 Al 1.52443 4.15878 7.19654
14 Ni 0.0671596 2.76782 5.62221
15 Al 1.45217 4.2543 10.1364
16 Ni -0.0283857 2.77404 8.65774
17 Al 1.37059 7.3111 1.54323
18 Ni -0.0477193 5.70663 0.00175219
19 Al 1.48674 7.35943 4.45056
20 Ni -0.0342532 5.84145 2.87424
21 Al 1.31516 7.10883 7.29586
22 Ni -0.151971 5.71726 5.76097
23 Al 1.48796 7.15097 10.2193
24 Ni 0.0558725 5.5486 8.73812
25 Al 1.42417 10.07 1.49541
26 Ni -0.0888959 8.68304 0.0200974
27 Al 1.46183 10.2086 4.30698
28 Ni 0.0163924 8.62664 3.00497
29 Al 1.40793 10.1424 7.22894
30 Ni -0.0939638 8.67303 5.86899
31 Al 1.51109 10.1869 10.1957
32 Ni 0.0644822 8.70347 8.76011
33 Al 4.24371 1.36416 1.39978
34 Ni 2.94679 -0.0224636 -0.0482095
35 Al 4.39302 1.32824 4.30718
36 Ni 2.97305 -0.0112563 2.9838
37 Al 4.31767 1.39402 7.25944
38 Ni 2.86736 -0.112401 5.88948
39 Al 4.35929 1.42968 10.2284
40 Ni 2.86153 -0.0851155 8.70203
41 Al 4.35568 4.33119 1.54167
42 Ni 2.98525 2.97857 0.014478
43 Al 4.43861 4.37667 4.35013
44 Ni 3.07464 2.88418 3.11427
45 Al 4.38996 4.3268 7.2033
46 Ni 2.94084 2.8591 5.83422
47 Al 4.27844 4.31946 10.0498
48 Ni 2.77126 2.7015 8.76609
49 Al 4.42982 7.2329 1.42905
50 Ni 2.75039 5.85498 -0.0347129
51 Al 4.38159 7.16585 4.34967
52 Ni 2.84182 5.8447 2.88828
53 Al 4.29595 7.25256 7.23578
54 Ni 2.7375 5.94865 5.64633
55 Al 4.34688 7.09673 10.1897
56 Ni 2.8265 5.74604 8.66646
57 Al 4.4291 10.3209 1.42112
58 Ni 2.92307 8.80001 0.100929
59 Al 4.22432 10.1051 4.45184
60 Ni 2.98722 8.76436 2.94121
61 Al 4.35431 10.2027 7.27394
62 Ni 2.90491 8.69571 5.87268
63 Al 4.31607 10.2309 10.1117
64 Ni 2.90923 8.65584 8.74555
65 Al 7.18145 1.29481 1.39763
66 Ni 5.66829 -0.0379813 -0.0966781
67 Al 7.25749 1.29137 4.37883
68 Ni 5.84792 -0.117023 2.7244
69 Al 7.14309 1.38279 7.20647
70 Ni 5.75504 -0.203913 5.82367
71 Al 7.23653 1.40709 10.2154
72 Ni 5.82136 -0.0124393 8.6899
73 Al 7.1645 4.22959 1.44771
74 Ni 5.82157 2.89699 0.0417494
75 Al 7.35368 4.32185 4.33644
76 Ni 5.77856 2.70743 2.79167
77 Al 7.24948 4.26674 7.20351
78 Ni 5.81099 2.88296 5.80447
79 Al 7.26612 4.19637 10.1324
80 Ni 5.65279 2.78485 8.75013
81 Al 7.16779 7.27702 1.30588
82 Ni 5.8204 5.77358 -0.0323672
83 Al 7.24842 7.18826 4.44957
84 Ni 5.77556 5.72895 2.93139
85 Al 7.24698 7.20908 7.17813
86 Ni 5.8702 5.77504 5.75598
87 Al 7.21906 7.27851 10.1168
88 Ni 5.86669 5.78344 8.57737
89 Al 7.22925 10.1088 1.37108
90 Ni 5.79378 8.76997 -0.0513505
91 Al 7.29374 10.0827 4.23429
92 Ni 5.97019 8.54513 2.79644
93 Al 7.36189 10.0977 7.21375
94 Ni 5.74507 8.70816 5.88156
95 Al 7.262 10.1884 10.1245
96 Ni 5.83099 8.70979 8.6765
97 Al 10.1932 1.35623 1.43921
98 Ni 8.60806 0.0332624 0.0479056
99 Al 10.0753 1.33721 4.30293
100 Ni 8.57029 -0.00199894 2.77942
101 Al 10.2214 1.33782 7.12141
102 Ni 8.79685 -0.154583 5.79019
103 Al 10.2156 1.39288 10.215
104 Ni 8.72074 0.0578687 8.59182
105 Al 10.0657 4.28427 1.48401
106 Ni 8.65512 2.82859 -0.0508844
107 Al 10.1011 4.30026 4.19082
108 Ni 8.67321 2.87931 2.84897
109 Al 10.1617 4.23358 7.2246
110 Ni 8.71338 2.74286 5.6989
111 Al 10.2837 4.2366 10.234
112 Ni 8.70647 2.81711 8.70599
113 Al 10.0211 7.24864 1.34438
114 Ni 8.71899 5.78425 -0.156127
115 Al 10.1474 7.20344 4.34378
116 Ni 8.71693 5.80378 2.74655
117 Al 10.2357 7.18094 7.36575
118 Ni 8.79712 5.77817 5.85439
119 Al 10.2126 7.38315 10.0748
120 Ni 8.75147 5.62647 8.78085
121 Al 10.196 10.211 1.44785
122 Ni 8.4874 8.85053 -0.225298
123 Al 10.12 10.1436 4.21621
124 Ni 8.78848 8.69486 2.89408
125 Al 10.1995 10.2362 7.30574
126 Ni 8.82768 8.65195 5.82443
127 Al 10.108 10.2993 10.1681
128 Ni 8.72674 8.72906 8.5767
ITEM: TIMESTEP
12700
ITEM: NUMBER OF ATOMS
128
ITEM: BOX BOUNDS xy xz yz pp pp pp
-6.5229629800929001e-02 1.1593145962367474e+01 -3.0629013441739447e-02
-1.7931701080482476e-02 1.1746546114507131e+01 -2.3238973815617469e-02
-1.1629505546207675e-02 1.1593413825370053e+01 1.4683009360290605e-01
ITEM: ATOMS id element xu yu zu
1 Al 1.33883 1.43297 1.46961
2 Ni -0.0915286 -0.0597025 0.0533332
3 Al 1.45604 1.40143 4.28329
4 Ni -0.0796092 -0.124606 2.68745
5 Al 1.45917 1.5025 7.28718
6 Ni 0.0265552 0.0527069 5.87724
7 Al 1.38525 1.53057 10.1063
8 Ni -0.0398187 0.00567271 8.69557
9 Al 1.51937 4.46597 1.44779
10 Ni 0.0380141 3.10632 -0.136505
11 Al 1.43064 4.41533 4.40728
12 Ni 0.0337001 3.04916 2.8746
13 Al 1.4575 4.5114 7.23344
14 Ni -0.015437 2.97418 5.95371
15 Al 1.45646 4.55579 10.0132
16 Ni 0.01209 3.06851 8.68999
17 Al 1.36979 7.34818 1.37782
18 Ni 0.0445679 5.86025 -0.0508181
19 Al 1.4814 7.24429 4.3185
20 Ni -0.0677107 5.74951 2.88866
21 Al 1.48832 7.40031 7.25655
22 Ni 0.0389277 5.9845 5.83466
23 Al 1.43561 7.31053 10.1341
24 Ni -0.113768 6.05031 8.66767
25 Al 1.46817 9.9859 1.32983
26 Ni -0.10983 8.74365 -0.0529647
27 Al 1.30599 10.2731 4.29674
28 Ni -0.136072 8.8479 2.66511
29 Al 1.34532 10.2396 7.21374
30 Ni -0.0616171 8.74662 5.76271
31 Al 1.39216 10.2884 10.1461
32 Ni -0.175036 8.84553 8.70568
33 Al 4.29833 1.39782 1.4148
34 Ni 2.8405 -0.0771857 0.0355044
35 Al 4.20251 1.47442 4.22494
36 Ni 2.89459 -0.0987574 2.81794
37 Al 4.26989 1.51636 7.26955
38 Ni 2.8708 -0.0030308 5.73879
39 Al 4.25366 1.52108 10.1835
40 Ni 2.85404 0.0462258 8.74456
41 Al 4.40976 4.30388 1.47867
42 Ni 2.80316 2.70932 -0.0526951
43 Al 4.30767 4.35026 4.30109
44 Ni 2.78441 2.84762 2.65575
45 Al 4.39876 4.35313 7.18738
46 Ni 2.80555 2.93998 5.81715
47 Al 4.19987 4.47463 10.0611
48 Ni 2.96661 3.06895 8.67025
49 Al 4.45724 7.22666 1.51279
50 Ni 2.98979 5.83875 0.0201731
51 Al 4.29508 7.22233 4.37894
52 Ni 3.0108 5.84489 2.98025
53 Al 4.34168 7.38361 7.19784
54 Ni 3.0027 5.80938 5.87182
55 Al 4.3732 7.31788 10.1399
56 Ni 2.87565 5.99606 8.72292
57 Al 4.40536 10.1544 1.38487
58 Ni 2.92907 8.56871 -0.0805497
59 Al 4.27352 10.1218 4.32937
60 Ni 2.66776 8.70228 2.92516
61 Al 4.24589 10.1698 7.11721
62 Ni 2.81314 8.75298 5.67218
63 Al 4.3387 10.3351 10.1967
64 Ni 2.83317 8.80133 8.72503
65 Al 7.24608 1.37162 1.45552
66 Ni 5.91254 -0.0226365 0.0339014
67 Al 7.26871 1.55423 4.29365
68 Ni 5.74927 0.0494603 2.98951
69 Al 7.24308 1.56486 7.25658
70 Ni 5.75705 0.153421 5.89463
71 Al 7.18 1.60031 10.2141
72 Ni 5.71716 0.0319639 8.65112
73 Al 7.15801 4.21337 1.46403
74 Ni 5.65563 2.88125 -0.181971
75 Al 7.20979 4.47171 4.32996
76 Ni 5.69614 3.11999 3.04473
77 Al 7.16476 4.49205 7.22612
78 Ni 5.73132 2.91766 5.84098
79 Al 7.24829 4.4253 10.1525
80 Ni 5.87474 3.04496 8.59566
81 Al 7.13468 7.2908 1.54609
82 Ni 5.78025 5.80509 -0.0444663
83 Al 7.10204 7.31637 4.4829
84 Ni 5.79284 5.88718 2.91781
85 Al 7.19325 7.33219 7.27256
86 Ni 5.75222 5.84712 5.86626
87 Al 7.24147 7.36975 10.2274
88 Ni 5.65459 5.85053 8.7209
89 Al 7.19822 10.1319 1.42635
90 Ni 5.82903 8.58294 0.0105592
91 Al 7.30473 10.2803 4.34091
92 Ni 5.81176 8.83761 2.98405
93 Al 7.1795 10.1933 7.32844
94 Ni 5.86499 8.81205 5.83904
95 Al 7.21666 10.1792 10.2458
96 Ni 5.7458 8.76234 8.6672
97 Al 10.1988 1.54884 1.41076
98 Ni 8.69874 -0.106549 -0.0911361
99 Al 10.304 1.53269 4.3286
100 Ni 8.72229 -0.0684479 2.9873
101 Al 10.0949 1.53652 7.22053
102 Ni 8.6807 0.261208 5.73164
103 Al 10.1459 1.53639 10.2046
104 Ni 8.78656 0.0488921 8.70213
105 Al 10.1284 4.39447 1.51085
106 Ni 8.66919 2.89737 0.0294776
107 Al 10.1075 4.45588 4.3109
108 Ni 8.65783 2.83611 2.86525
109 Al 10.0689 4.43062 7.23527
110 Ni 8.67156 2.93941 5.65101
111 Al 10.1376 4.51394 10.1965
112 Ni 8.69105 3.02065 8.78846
113 Al 10.015 7.19796 1.46735
114 Ni 8.666 5.718 0.0612473
115 Al 10.1319 7.39008 4.33908
116 Ni 8.71415 5.73928 2.97806
117 Al 10.1752 7.42215 7.25535
118 Ni 8.6197 5.80914 5.69514
119 Al 10.1284 7.38853 10.1818
120 Ni 8.70298 5.86531 8.59804
121 Al 10.0294 10.1938 1.36981
122 Ni 8.7231 8.5636 0.035319
123 Al 10.1409 10.2104 4.27166
124 Ni 8.60424 8.74569 2.81396
125 Al 10.0114 10.2273 7.25054
126 Ni 8.56896 8.82335 5.83281
127 Al 10.0396 10.2832 10.2123
128 Ni 8.62082 8.84632 8.76916
ITEM: TIMESTEP
12800
ITEM: NUMBER OF ATOMS
128
ITEM: BOX BOUNDS xy xz yz pp pp pp
-8.7403741968182097e-02 1.1647070121908810e+01 6.8794556323499021e-03
-3.8144173209282428e-03 1.1598514506569463e+01 -2.8997395515616163e-02
-5.0872042474124690e-02 1.1632656362297965e+01 1.2915769424801172e-02
ITEM: ATOMS id element xu yu zu
1 Al 1.49672 1.47499 1.3048
2 Ni -0.108016 -0.0202945 -0.231123
3 Al 1.37258 1.46792 4.43393
4 Ni -0.0339674 0.153241 2.90977
5 Al 1.35485 1.49475 7.31445
6 Ni -0.106139 0.0553685 5.82441
7 Al 1.36331 1.43973 10.1333
8 Ni -0.0613198 -0.0937918 8.70868
9 Al 1.35477 4.30416 1.47209
10 Ni -0.0990051 2.78955 -0.11477
11 Al 1.37594 4.41406 4.34438
12 Ni -0.0962131 2.79446 2.79239
13 Al 1.37194 4.44176 7.23221
14 Ni -0.00206706 2.87421 5.82488
15 Al 1.38767 4.36167 10.1406
16 Ni -0.0781136 2.98335 8.75595
17 Al 1.46302 7.31565 1.3006
18 Ni -0.170811 5.77654 -0.0663307
19 Al 1.54522 7.21708 4.29311
20 Ni -0.0405725 5.77518 2.94026
21 Al 1.49792 7.36206 7.25404
22 Ni -0.060421 5.7103 5.70015
23 Al 1.41347 7.21063 10.1489
24 Ni -0.0799478 5.82398 8.71391
25 Al 1.30449 10.1126 1.48274
26 Ni -0.00834717 8.54064 0.0427159
27 Al 1.46101 10.1897 4.32075
28 Ni -0.0952747 8.60174 3.09906
29 Al 1.38733 10.2872 7.2069
30 Ni -0.0467819 8.73202 5.7822
31 Al 1.38265 10.1553 10.2182
32 Ni -0.0301275 8.61974 8.53562
33 Al 4.21896 1.41573 1.39752
34 Ni 2.96487 -0.0104621 -0.209578
35 Al 4.23488 1.48132 4.33522
36 Ni 2.71387 0.186147 2.82072
37 Al 4.36121 1.43388 7.2529
38 Ni 2.77242 0.0916343 5.74025
39 Al 4.25412 1.46321 10.2176
40 Ni 2.90958 -0.054621 8.72829
41 Al 4.39544 4.27301 1.46461
42 Ni 2.93252 3.01395 -0.175046
43 Al 4.32132 4.29751 4.2707
44 Ni 2.82754 2.94546 2.99469
45 Al 4.32606 4.25963 7.2092
46 Ni 2.82023 2.84463 5.87047
47 Al 4.38441 4.34756 10.1223
48 Ni 2.7404 2.80084 8.78335
49 Al 4.45582 7.11754 1.35255
50 Ni 2.88429 5.79163 -0.223348
51 Al 4.23312 7.13917 4.33356
52 Ni 2.77692 5.68392 2.72682
53 Al 4.38005 7.19652 7.20377
54 Ni 2.72675 5.90285 5.816
55 Al 4.38677 7.22617 10.1559
56 Ni 2.93359 5.77341 8.7187
57 Al 4.20622 10.1705 1.32643
58 Ni 2.71966 8.7922 -0.016519
59 Al 4.23056 10.23 4.25637
60 Ni 2.9625 8.66309 2.84361
61 Al 4.31214 10.1297 7.14749
62 Ni 2.83911 8.72892 5.87121
63 Al 4.42812 10.1731 10.2213
64 Ni 2.90552 8.7487 8.67466
65 Al 7.36634 1.45016 1.42445
66 Ni 5.75296 0.00820615 -0.0568739
67 Al 7.43849 1.44509 4.30358
68 Ni 5.75609 0.00307103 2.75104
69 Al 7.26357 1.45971 7.16593
70 Ni 5.76499 -0.0095925 5.67215
71 Al 7.18495 1.53967 10.2271
72 Ni 5.86278 0.00353521 8.78309
73 Al 7.29273 4.30865 1.51658
74 Ni 5.97802 2.83459 0.122779
75 Al 7.30213 4.30598 4.35081
76 Ni 5.77848 2.67378 2.80362
77 Al 7.08188 4.37516 7.2532
78 Ni 5.77221 2.88883 5.78429
79 Al 7.23031 4.29374 10.1647
80 Ni 5.74158 2.84708 8.78295
81 Al 7.20925 7.35771 1.493
82 Ni 5.81203 5.75997 0.0641333
83 Al 7.09444 7.23015 4.30384
84 Ni 5.65878 5.68138 2.89337
85 Al 7.17845 7.29479 7.09253
86 Ni 5.75434 5.76235 5.71213
87 Al 7.19526 7.32611 10.2735
88 Ni 5.89496 5.80295 8.62595
89 Al 7.25571 10.2154 1.42921
90 Ni 5.86218 8.78755 0.00757337
91 Al 7.32073 10.1797 4.18047
92 Ni 5.70013 8.66257 2.82366
93 Al 7.13097 10.0488 7.20786
94 Ni 5.65488 8.75361 5.704
95 Al 7.31867 10.1166 10.2935
96 Ni 5.88477 8.75519 8.72421
97 Al 10.2191 1.49087 1.32237
98 Ni 8.69744 0.14695 -0.0126136
99 Al 10.2037 1.5547 4.44109
100 Ni 8.79072 0.14993 2.81601
101 Al 10.166 1.37754 7.27331
102 Ni 8.74844 -0.11273 5.88978
103 Al 10.1027 1.32067 10.1019
104 Ni 8.60938 -0.00927516 8.77006
105 Al 10.2408 4.36657 1.45426
106 Ni 8.73815 2.95423 -0.111814
107 Al 10.0783 4.46114 4.32109
108 Ni 8.84733 3.01357 2.99141
109 Al 10.1687 4.39971 7.31134
110 Ni 8.8662 2.90658 6.00617
111 Al 10.1256 4.23817 10.1949
112 Ni 8.73154 2.93027 8.632
113 Al 10.1315 7.26131 1.4928
114 Ni 8.67646 5.79271 -0.00349405
115 Al 10.1518 7.19999 4.38698
116 Ni 8.66568 5.71334 2.87437
117 Al 10.3 7.2565 7.22868
118 Ni 8.62714 5.80991 5.84527
119 Al 10.0939 7.18306 10.2195
120 Ni 8.61199 5.85139 8.69161
121 Al 10.2365 10.1394 1.40855
122 Ni 8.65748 8.67226 -0.0131109
123 Al 10.246 10.2564 4.30494
124 Ni 8.83031 8.74141 3.02757
125 Al 10.0789 10.063 7.37752
126 Ni 8.63904 8.70168 5.66842
127 Al 10.0816 9.94475 10.2272
128 Ni 8.63949 8.63276 8.63026
ITEM: TIMESTEP
12900
ITEM: NUMBER OF ATOMS
128
ITEM: BOX BOUNDS xy xz yz pp pp pp
-4.4059571906310602e-02 1.1681196311212114e+01 1.0100543331691560e-02
-1.4200612236683710e-01 1.1557118814966937e+01 4.5251876150211846e-02
-3.3937959195229794e-02 1.1615722279019078e+01 -1.6667162722362963e-01
ITEM: ATOMS id element xu yu zu
1 Al 1.41883 1.44322 1.52512
2 Ni 0.00251085 0.0405026 0.0348178
3 Al 1.40521 1.43773 4.45977
4 Ni -0.00888422 -0.0377681 2.96337
5 Al 1.4297 1.32655 7.25393
6 Ni 0.0417606 -0.105952 5.78911
7 Al 1.44619 1.42815 10.0904
8 Ni -0.0787205 -0.000769063 8.68003
9 Al 1.43861 4.25722 1.55476
10 Ni -0.127514 2.96248 -0.0169382
11 Al 1.42784 4.38884 4.35797
12 Ni -0.0309775 3.00418 2.93432
13 Al 1.44912 4.21042 7.24805
14 Ni -0.135542 2.78314 5.94284
15 Al 1.50466 4.1604 10.1038
16 Ni -0.0722072 2.66672 8.62959
17 Al 1.53919 7.32945 1.27374
18 Ni -0.0119946 5.84851 -0.0801468
19 Al 1.50638 7.06065 4.36583
20 Ni -0.0722477 5.65642 2.8565
21 Al 1.48588 7.20142 7.3354
22 Ni -0.0168666 5.69598 5.96452
23 Al 1.431 7.06455 10.2451
24 Ni -0.00962758 5.64265 8.74402
25 Al 1.41774 10.1238 1.43356
26 Ni -0.0660484 8.85073 -0.158253
27 Al 1.4783 10.0126 4.45662
28 Ni 0.0545032 8.64589 2.73589
29 Al 1.60141 9.89781 7.29804
30 Ni -0.00912372 8.52755 5.82129
31 Al 1.51177 10.0559 10.2013
32 Ni -0.0318593 8.57573 8.84346
33 Al 4.3926 1.51163 1.48322
34 Ni 2.72852 0.103446 0.0355178
35 Al 4.21845 1.46919 4.36963
36 Ni 2.88697 -0.0644461 2.93433
37 Al 4.42435 1.44501 7.18634
38 Ni 2.9977 -0.1894 5.93124
39 Al 4.30994 1.28428 10.1553
40 Ni 2.87919 0.00350291 8.71509
41 Al 4.38407 4.50649 1.45156
42 Ni 2.81984 2.83372 -0.0555634
43 Al 4.42 4.31505 4.25036
44 Ni 2.89576 2.78459 2.74839
45 Al 4.41314 4.30524 7.29834
46 Ni 3.01161 2.84668 5.80606
47 Al 4.33031 4.24713 10.2093
48 Ni 3.1009 2.8529 8.7014
49 Al 4.41879 7.20511 1.48093
50 Ni 2.76392 5.76892 0.116144
51 Al 4.37251 7.23993 4.23351
52 Ni 2.92334 5.71545 3.00718
53 Al 4.3339 7.11728 7.13414
54 Ni 2.9866 5.56122 5.76874
55 Al 4.33823 7.02489 10.2272
56 Ni 2.85397 5.74035 8.77659
57 Al 4.29226 10.1622 1.44169
58 Ni 3.00738 8.7414 -0.0180591
59 Al 4.38274 10.1548 4.33387
60 Ni 2.68527 8.73667 2.79638
61 Al 4.42175 9.92269 7.30022
62 Ni 2.96463 8.57015 5.71179
63 Al 4.4292 10.1174 10.3528
64 Ni 2.93662 8.4243 8.7385
65 Al 7.19619 1.50299 1.29759
66 Ni 5.85612 0.0520501 0.0273501
67 Al 7.27298 1.31999 4.20486
68 Ni 5.86462 0.0477589 2.88727
69 Al 7.34654 1.40356 7.15078
70 Ni 5.78057 -0.0927509 5.82834
71 Al 7.31157 1.24601 10.1463
72 Ni 5.79537 -0.0937761 8.66884
73 Al 7.32676 4.3562 1.35961
74 Ni 5.66812 2.98768 -0.22581
75 Al 7.33101 4.35461 4.26046
76 Ni 5.82647 3.05104 2.95071
77 Al 7.20107 4.33657 7.25123
78 Ni 5.81821 2.82212 5.79766
79 Al 7.26381 4.135 10.1385
80 Ni 5.89142 2.83944 8.60871
81 Al 7.24565 7.32218 1.33422
82 Ni 5.85714 5.80667 -0.0827472
83 Al 7.33449 7.14559 4.24836
84 Ni 5.921 5.80518 2.84558
85 Al 7.09472 7.14277 7.0901
86 Ni 5.77132 5.68493 5.81907
87 Al 7.30316 7.18809 10.1684
88 Ni 5.70911 5.78202 8.76194
89 Al 7.20129 10.1243 1.37531
90 Ni 5.72789 8.65038 5.393e-05
91 Al 7.29846 9.95872 4.24755
92 Ni 5.80344 8.65137 2.83301
93 Al 7.22884 9.89132 7.23504
94 Ni 5.83803 8.58853 5.71021
95 Al 7.2575 9.90883 10.184
96 Ni 5.7398 8.46629 8.75522
97 Al 10.1344 1.33775 1.46632
98 Ni 8.82308 -0.195145 -0.000889599
99 Al 10.1728 1.335 4.35939
100 Ni 8.74557 -0.218476 3.00069
101 Al 10.043 1.40507 7.16761
102 Ni 8.6564 -0.0344638 5.66631
103 Al 10.2499 1.26445 10.2521
104 Ni 8.79616 -0.129682 8.49494
105 Al 10.1605 4.34208 1.41274
106 Ni 8.69993 2.81078 0.00846668
107 Al 10.0741 4.26104 4.24453
108 Ni 8.62667 2.66267 2.82393
109 Al 10.124 4.25372 7.2601
110 Ni 8.58698 2.78551 5.56565
111 Al 10.1625 4.15131 10.1338
112 Ni 8.66566 2.76294 8.78837
113 Al 10.2534 7.25316 1.32694
114 Ni 8.76505 5.84636 -0.0934036
115 Al 10.3036 7.12749 4.20981
116 Ni 8.75936 5.76826 2.95351
117 Al 10.1992 7.16719 7.30559
118 Ni 8.79369 5.69679 5.67212
119 Al 10.1403 7.10266 10.1931
120 Ni 8.77894 5.65146 8.73367
121 Al 10.2343 10.0288 1.47647
122 Ni 8.82675 8.70017 -0.0240678
123 Al 10.1716 9.86644 4.33384
124 Ni 8.70247 8.55763 2.72025
125 Al 10.2888 10.0368 7.28085
126 Ni 8.80069 8.55278 5.90302
127 Al 10.1037 9.99863 10.0518
128 Ni 8.74562 8.65014 8.71159
ITEM: TIMESTEP
13000
ITEM: NUMBER OF ATOMS
128
ITEM: BOX BOUNDS xy xz yz pp pp pp
-5.9502018386393442e-02 1.1652912534108186e+01 -2.7005876703441768e-02
-3.7137887165617833e-02 1.1663426775828640e+01 3.8632072601345060e-02
-3.4283848673632988e-02 1.1616068168497490e+01 4.4504568839301518e-02
ITEM: ATOMS id element xu yu zu
1 Al 1.55595 1.33496 1.48912
2 Ni -0.176832 0.0517875 0.0139979
3 Al 1.43468 1.42511 4.32242
4 Ni -0.0268712 -0.102985 2.80782
5 Al 1.39593 1.40189 7.15275
6 Ni -0.0322134 0.0907779 5.76367
7 Al 1.52403 1.49391 10.1355
8 Ni 0.0414035 0.0711691 8.58864
9 Al 1.36761 4.18589 1.54073
10 Ni 0.0704036 2.77798 0.0197143
11 Al 1.49812 4.56568 4.21737
12 Ni 0.0262751 2.81367 2.96599
13 Al 1.37701 4.25345 7.11681
14 Ni 0.0445143 2.88369 5.61009
15 Al 1.54292 4.29843 10.2042
16 Ni -0.0698429 2.92524 8.66082
17 Al 1.47137 7.27599 1.39305
18 Ni -0.034276 5.64938 -0.00681564
19 Al 1.3349 7.23725 4.35995
20 Ni -0.132951 5.88104 2.89708
21 Al 1.4303 7.22631 7.30564
22 Ni -0.0900331 5.7948 5.67973
23 Al 1.45258 7.15427 10.1873
24 Ni 0.0161875 5.73949 8.68814
25 Al 1.44583 10.1747 1.41879
26 Ni 0.0469644 8.65305 0.0345907
27 Al 1.41433 10.1078 4.22246
28 Ni -0.22507 8.72724 2.91651
29 Al 1.54037 10.1341 7.09838
30 Ni -0.0237117 8.76111 5.89836
31 Al 1.33021 10.2868 10.1938
32 Ni 0.0580503 8.81132 8.58561
33 Al 4.33168 1.41554 1.50314
34 Ni 3.02137 -0.0574982 -0.104985
35 Al 4.37758 1.48638 4.41051
36 Ni 2.96302 -0.0521943 2.80663
37 Al 4.37306 1.60579 7.14596
38 Ni 2.89897 0.0650883 5.63005
39 Al 4.39702 1.4254 10.0523
40 Ni 2.88218 -0.0354929 8.6639
41 Al 4.29584 4.47244 1.50063
42 Ni 2.82406 2.88963 0.0832922
43 Al 4.39879 4.39783 4.30736
44 Ni 2.92082 2.96683 3.02639
45 Al 4.40994 4.46379 7.25705
46 Ni 2.8918 2.90745 5.77639
47 Al 4.41732 4.27771 10.2071
48 Ni 2.75572 2.92359 8.64284
49 Al 4.32144 7.3085 1.39104
50 Ni 2.97041 5.78438 -0.0933721
51 Al 4.41609 7.28183 4.41025
52 Ni 2.82005 5.84419 2.78297
53 Al 4.34311 7.27122 7.302
54 Ni 2.81301 5.93809 5.78352
55 Al 4.34464 7.27422 10.0534
56 Ni 2.85758 5.69452 8.62204
57 Al 4.29959 10.0527 1.407
58 Ni 2.67804 8.71292 -0.0863888
59 Al 4.27942 10.1905 4.42019
60 Ni 3.07899 8.58807 3.02271
61 Al 4.30474 10.1644 7.19504
62 Ni 2.68377 8.6729 5.80179
63 Al 4.34194 10.2367 10.2835
64 Ni 2.76466 8.82909 8.70445
65 Al 7.15708 1.38251 1.51428
66 Ni 5.74817 -0.100018 -0.16663
67 Al 7.32617 1.41705 4.36796
68 Ni 5.71291 -0.287533 2.90982
69 Al 7.23829 1.43795 7.2928
70 Ni 5.75842 -0.0956351 5.8397
71 Al 7.27869 1.4738 10.1911
72 Ni 5.73215 -0.147389 8.68226
73 Al 7.18559 4.3485 1.3513
74 Ni 5.91983 2.72763 0.0444773
75 Al 7.34705 4.44035 4.25216
76 Ni 5.81778 2.76685 2.78819
77 Al 7.34098 4.25996 7.29066
78 Ni 5.85204 3.05375 5.77906
79 Al 7.28373 4.25601 10.1946
80 Ni 5.80142 3.00829 8.8277
81 Al 7.19756 7.31774 1.36093
82 Ni 5.64134 5.8341 -0.00239314
83 Al 7.31717 7.17795 4.27985
84 Ni 5.792 5.81598 2.81581
85 Al 7.11785 7.21094 7.32688
86 Ni 5.9184 5.90098 5.82979
87 Al 7.22485 7.30439 10.2025
88 Ni 5.90048 5.70871 8.73578
89 Al 7.21095 10.0748 1.37598
90 Ni 5.76742 8.75372 -0.154423
91 Al 7.14807 10.1771 4.37229
92 Ni 5.89019 8.62988 2.96007
93 Al 7.27836 10.1091 7.29583
94 Ni 5.88151 8.61184 6.03307
95 Al 7.23629 10.1888 10.1553
96 Ni 5.83764 8.74652 8.69955
97 Al 10.0224 1.40275 1.47205
98 Ni 8.55049 0.223515 -0.0821889
99 Al 10.0381 1.37293 4.31132
100 Ni 8.62796 0.0667813 2.87917
101 Al 10.1412 1.47043 7.23499
102 Ni 8.68032 -0.00160898 5.86713
103 Al 10.304 1.58992 10.2209
104 Ni 8.64293 0.00883903 8.84275
105 Al 10.2283 4.34777 1.43509
106 Ni 8.72333 2.93151 -0.036953
107 Al 10.1521 4.36472 4.25177
108 Ni 8.69836 3.12014 2.90614
109 Al 10.2745 4.34742 7.17052
110 Ni 8.77369 2.91942 5.79687
111 Al 10.1671 4.41206 10.1182
112 Ni 8.74207 2.84097 8.65635
113 Al 10.1121 7.34829 1.30257
114 Ni 8.715 5.75845 -0.0535608
115 Al 10.0796 7.19101 4.26572
116 Ni 8.68202 5.89964 2.6637
117 Al 10.1688 7.28592 7.27204
118 Ni 8.7009 5.83836 6.0049
119 Al 10.2237 7.34333 10.1632
120 Ni 8.80933 5.77487 8.75402
121 Al 10.0923 10.1248 1.30712
122 Ni 8.71669 8.70678 -0.183934
123 Al 10.0148 10.1682 4.35419
124 Ni 8.76366 8.79793 2.99595
125 Al 10.1712 10.2896 7.34623
126 Ni 8.69411 8.69785 5.84438
127 Al 10.1266 10.2905 10.1097
128 Ni 8.85233 8.76471 8.80005
ITEM: TIMESTEP
13100
ITEM: NUMBER OF ATOMS
128
ITEM: BOX BOUNDS xy xz yz pp pp pp
-6.1431829557348522e-02 1.1581281873988985e+01 -3.7613644983406511e-02
-7.0116203739017280e-02 1.1818693017159953e+01 -2.4320630408854110e-02
-1.3936978856804672e-02 1.1595721298680646e+01 1.6679249359720849e-01
ITEM: ATOMS id element xu yu zu
1 Al 1.57837 1.39953 1.4877
2 Ni 0.129355 -0.159002 0.0528676
3 Al 1.43973 1.47091 4.28326
4 Ni -0.111288 0.094114 2.87315
5 Al 1.41933 1.49116 7.16123
6 Ni -0.0380363 0.069089 5.69031
7 Al 1.42313 1.53546 10.189
8 Ni -0.0694126 0.0347684 8.89363
9 Al 1.42907 4.34883 1.42903
10 Ni 0.0764578 2.90835 0.0110359
11 Al 1.39013 4.3855 4.21999
12 Ni -0.0079313 2.95995 2.7313
13 Al 1.41303 4.41634 7.27841
14 Ni -0.088559 2.93585 5.8197
15 Al 1.52106 4.4052 10.1974
16 Ni 0.151937 2.9219 8.73896
17 Al 1.39829 7.42063 1.44981
18 Ni 0.0186868 5.93902 0.0384799
19 Al 1.3507 7.30471 4.35726
20 Ni 0.00889109 5.82506 2.85933
21 Al 1.41947 7.45677 7.15388
22 Ni -0.00207539 5.89309 5.78838
23 Al 1.39833 7.43737 10.1165
24 Ni -0.0411019 5.86587 8.75437
25 Al 1.44653 10.2251 1.41937
26 Ni -0.14459 8.67369 0.0231606
27 Al 1.46906 10.193 4.32879
28 Ni -0.0833004 8.79052 2.92455
29 Al 1.31516 10.173 7.19745
30 Ni -0.135479 8.90565 5.62357
31 Al 1.43145 10.28 10.0867
32 Ni -0.186999 8.91684 8.75781
33 Al 4.33677 1.32401 1.55279
34 Ni 2.8142 -0.187088 0.0712651
35 Al 4.32805 1.34981 4.38257
36 Ni 2.94601 -0.193815 2.957
37 Al 4.28908 1.46333 7.10116
38 Ni 2.84067 0.00834459 5.85533
39 Al 4.33714 1.47144 10.1406
40 Ni 2.85571 0.122201 8.71557
41 Al 4.2913 4.52648 1.42701
42 Ni 2.9356 2.81317 -0.0361188
43 Al 4.28525 4.35842 4.30203
44 Ni 2.90434 2.92001 2.71914
45 Al 4.28494 4.4207 7.16595
46 Ni 2.86533 2.85758 5.65673
47 Al 4.31236 4.40294 10.0663
48 Ni 2.97678 2.89865 8.67816
49 Al 4.22118 7.23972 1.39451
50 Ni 2.82667 5.83672 -0.0717954
51 Al 4.31792 7.31748 4.35075
52 Ni 3.02646 5.88127 2.96958
53 Al 4.43806 7.33352 7.26926
54 Ni 2.78838 5.8078 5.74893
55 Al 4.35199 7.3971 10.1781
56 Ni 2.8307 5.92637 8.71508
57 Al 4.3537 10.1302 1.32295
58 Ni 2.98393 8.67953 -0.0815369
59 Al 4.37316 10.2835 4.26778
60 Ni 2.84265 8.85325 2.81341
61 Al 4.27453 10.2983 7.18213
62 Ni 2.99729 8.77965 5.8118
63 Al 4.40899 10.4692 10.1671
64 Ni 2.7566 8.78483 8.53144
65 Al 7.1591 1.44123 1.43616
66 Ni 5.76522 -0.0366776 0.0346623
67 Al 7.2864 1.43565 4.39638
68 Ni 5.89949 0.117878 2.88895
69 Al 7.27326 1.57843 7.31603
70 Ni 5.84476 0.0426091 5.78833
71 Al 7.25936 1.51941 10.2582
72 Ni 5.83021 0.195377 8.72121
73 Al 7.16721 4.30751 1.47193
74 Ni 5.66202 2.97517 -0.0421871
75 Al 7.2232 4.33164 4.38671
76 Ni 5.77033 3.03917 3.03787
77 Al 7.21013 4.42662 7.30964
78 Ni 5.69418 2.81632 5.76431
79 Al 7.12878 4.3751 10.0881
80 Ni 5.59895 2.90623 8.5043
81 Al 7.17793 7.09547 1.47005
82 Ni 5.85792 5.73715 -0.0861818
83 Al 7.09852 7.28337 4.40225
84 Ni 5.79986 5.92225 2.945
85 Al 7.09078 7.3751 7.25042
86 Ni 5.76368 5.77888 5.89552
87 Al 7.27007 7.45147 10.1803
88 Ni 5.63377 5.89252 8.64972
89 Al 7.13647 10.0791 1.45153
90 Ni 5.84152 8.65473 -0.0837686
91 Al 7.13942 10.3454 4.36137
92 Ni 5.67244 8.80095 2.8265
93 Al 7.12518 10.3543 7.27481
94 Ni 5.74151 8.8859 5.79537
95 Al 7.20447 10.3827 10.1123
96 Ni 5.77425 8.8387 8.68884
97 Al 10.0305 1.32068 1.33992
98 Ni 8.83198 -0.21273 -0.0220441
99 Al 10.0274 1.48271 4.35253
100 Ni 8.634 -0.033383 2.86999
101 Al 10.2319 1.517 7.24629
102 Ni 8.74065 0.13037 5.82018
103 Al 10.1291 1.61936 10.213
104 Ni 8.76241 0.189336 8.55227
105 Al 10.0902 4.40997 1.47641
106 Ni 8.55542 2.81301 -0.0253409
107 Al 10.1328 4.35352 4.32213
108 Ni 8.61527 2.73545 2.87845
109 Al 10.2219 4.37234 7.271
110 Ni 8.67244 2.97429 5.88582
111 Al 10.0615 4.56376 10.2049
112 Ni 8.70489 3.06742 8.78117
113 Al 10.0239 7.26753 1.51016
114 Ni 8.70216 5.75226 -0.00248761
115 Al 10.0254 7.34191 4.23245
116 Ni 8.64241 5.71617 3.0551
117 Al 10.1097 7.27645 7.28965
118 Ni 8.67747 5.88318 5.75997
119 Al 10.0028 7.43839 10.179
120 Ni 8.70688 5.85992 8.75284
121 Al 10.1322 10.1227 1.41855
122 Ni 8.63419 8.7181 0.0696822
123 Al 9.97125 10.2515 4.23841
124 Ni 8.50602 8.73353 2.82375
125 Al 10.0853 10.3386 7.32332
126 Ni 8.67834 8.90262 5.8129
127 Al 10.0683 10.2818 10.1643
128 Ni 8.66996 8.8376 8.71664
ITEM: TIMESTEP
13200
ITEM: NUMBER OF ATOMS
128
ITEM: BOX BOUNDS xy xz yz pp pp pp
-2.9715249925469324e-03 1.1608928454945794e+01 3.1272251188344043e-02
-1.4535431131511528e-01 1.1638621090478900e+01 -7.0996410589795290e-03
-3.9763085824366939e-03 1.1585760628406288e+01 -8.8517540659937735e-02
ITEM: ATOMS id element xu yu zu
1 Al 1.48788 1.45816 1.3553
2 Ni -0.165561 -0.157893 -0.0295283
3 Al 1.50471 1.35255 4.34127
4 Ni 0.113406 -0.253323 2.89324
5 Al 1.4664 1.43026 7.27177
6 Ni 0.0234306 -0.16992 5.83526
7 Al 1.27678 1.29304 10.1491
8 Ni 0.00562172 -0.164379 8.6136
9 Al 1.47554 4.30632 1.40222
10 Ni 0.0530239 2.94992 -0.0446743
11 Al 1.41177 4.24318 4.34722
12 Ni 0.0711292 2.87324 2.91287
13 Al 1.33024 4.40302 7.41292
14 Ni 0.0844809 2.84026 5.90991
15 Al 1.43024 4.34298 10.1864
16 Ni -0.1145 2.78546 8.7292
17 Al 1.41906 7.227 1.46617
18 Ni -0.0311158 5.7135 -0.0625049
19 Al 1.42953 7.18974 4.40395
20 Ni 0.0141131 5.69974 2.90658
21 Al 1.69673 7.29725 7.16331
22 Ni 0.0266009 5.66149 5.8356
23 Al 1.48635 7.29224 10.1604
24 Ni -0.030141 5.90665 8.6858
25 Al 1.58432 10.1471 1.39134
26 Ni -0.0187557 8.73501 -0.00674164
27 Al 1.53542 10.1235 4.2315
28 Ni 0.109772 8.55543 2.86758
29 Al 1.42414 10.0421 7.34068
30 Ni 0.124482 8.53292 5.92902
31 Al 1.47018 10.1352 10.1843
32 Ni 0.0127146 8.58847 8.64007
33 Al 4.35636 1.32526 1.41114
34 Ni 2.98908 -0.025197 -0.0700039
35 Al 4.38032 1.28704 4.41337
36 Ni 2.78114 0.105793 2.72042
37 Al 4.34694 1.33248 7.29112
38 Ni 2.90126 -0.0640138 5.78477
39 Al 4.31615 1.32489 10.0388
40 Ni 2.87337 -0.267735 8.79694
41 Al 4.33876 4.25995 1.41048
42 Ni 2.81506 2.93303 -0.0151042
43 Al 4.26536 4.12251 4.31242
44 Ni 2.81414 2.87305 2.91196
45 Al 4.34224 4.23607 7.294
46 Ni 2.84102 2.80629 5.97303
47 Al 4.34387 4.27737 10.1002
48 Ni 2.75857 2.84681 8.80285
49 Al 4.3484 7.13846 1.55751
50 Ni 3.04449 5.8966 0.0659931
51 Al 4.32197 7.23879 4.32977
52 Ni 2.80528 5.72429 2.90015
53 Al 4.45944 7.27422 7.2825
54 Ni 2.96973 5.73795 5.8057
55 Al 4.44383 7.2068 10.2263
56 Ni 2.86938 5.87093 8.62123
57 Al 4.38744 10.1304 1.44234
58 Ni 2.97182 8.74078 0.100214
59 Al 4.42551 10.1555 4.28834
60 Ni 3.00918 8.66578 2.9557
61 Al 4.3527 10.0369 7.1205
62 Ni 2.80466 8.92302 5.77335
63 Al 4.50173 10.1679 10.2173
64 Ni 3.04864 8.71729 8.81818
65 Al 7.32216 1.44468 1.4004
66 Ni 5.86256 -0.0295052 -0.114116
67 Al 7.21822 1.37167 4.26919
68 Ni 5.72718 -0.0549855 2.92396
69 Al 7.2297 1.33863 7.22829
70 Ni 5.76889 -0.0611393 5.77863
71 Al 7.16455 1.39254 10.1625
72 Ni 5.82828 -0.211813 8.72799
73 Al 7.18713 4.41245 1.46762
74 Ni 5.89648 2.86283 -0.0883037
75 Al 7.23938 4.19993 4.25359
76 Ni 5.79869 2.73072 2.73714
77 Al 7.23333 4.21685 7.23047
78 Ni 5.76423 2.8394 5.85777
79 Al 7.24979 4.28445 10.1357
80 Ni 5.88751 2.8617 8.81967
81 Al 7.25962 7.16806 1.47515
82 Ni 5.74363 5.78105 -0.036843
83 Al 7.24866 7.13386 4.37619
84 Ni 5.77154 5.64897 2.99897
85 Al 7.138 7.19111 7.16926
86 Ni 5.71995 5.88474 5.70252
87 Al 7.25504 7.27529 10.1674
88 Ni 5.83406 5.74525 8.54807
89 Al 7.24264 10.0743 1.55333
90 Ni 5.80143 8.75851 0.091706
91 Al 7.24821 10.2908 4.39376
92 Ni 5.92969 8.67955 2.97503
93 Al 7.21264 10.2446 7.21713
94 Ni 5.87375 8.72907 5.77802
95 Al 7.24704 10.0519 10.1355
96 Ni 5.84055 8.64703 8.62706
97 Al 10.145 1.41214 1.36925
98 Ni 8.58234 0.00815504 0.024499
99 Al 10.1693 1.3695 4.31807
100 Ni 8.72175 0.0217814 2.89967
101 Al 10.1114 1.23028 7.20267
102 Ni 8.69994 -0.13018 5.7002
103 Al 10.0039 1.2134 10.0771
104 Ni 8.61903 -0.268888 8.83528
105 Al 10.2275 4.42142 1.42741
106 Ni 8.82812 2.97202 -0.0617721
107 Al 10.1736 4.38188 4.33324
108 Ni 8.7363 2.99213 2.80679
109 Al 10.1603 4.17826 7.24987
110 Ni 8.78287 2.78126 5.70168
111 Al 9.97165 4.32559 10.0489
112 Ni 8.71142 2.73278 8.67695
113 Al 10.2124 7.26587 1.46375
114 Ni 8.56855 5.78634 -0.092076
115 Al 10.1562 7.21938 4.3329
116 Ni 8.67241 5.83927 2.83252
117 Al 10.0969 7.09799 7.28986
118 Ni 8.71892 5.59341 5.78465
119 Al 10.0378 7.1246 10.1505
120 Ni 8.63161 5.74909 8.56968
121 Al 10.119 10.127 1.4345
122 Ni 8.68107 8.68706 0.00433497
123 Al 10.1822 10.1141 4.31635
124 Ni 8.81073 8.61473 2.9126
125 Al 10.117 10.0694 7.33168
126 Ni 8.6754 8.67649 5.73361
127 Al 10.1294 9.90731 10.1684
128 Ni 8.62483 8.61455 8.5801
ITEM: TIMESTEP
13300
ITEM: NUMBER OF ATOMS
128
ITEM: BOX BOUNDS xy xz yz pp pp pp
-4.0355658168750530e-02 1.1703347704807532e+01 4.2334383530795647e-02
-1.6051445365329142e-01 1.1618484229654918e+01 3.8873343284114500e-02
-3.1964124314348474e-02 1.1613748444138219e+01 -1.2381454382208502e-01
ITEM: ATOMS id element xu yu zu
1 Al 1.46922 1.44057 1.40402
2 Ni -0.00703843 0.0479247 -0.0847589
3 Al 1.46533 1.38184 4.33491
4 Ni -0.145918 0.0978799 2.82091
5 Al 1.44649 1.43376 7.23326
6 Ni -0.0152213 -0.0652449 5.85681
7 Al 1.3836 1.26218 10.139
8 Ni -0.0826661 -0.213604 8.75502
9 Al 1.46922 4.25472 1.3131
10 Ni -0.108975 2.82593 -0.0815913
11 Al 1.35023 4.26686 4.27426
12 Ni -0.0158618 2.82718 2.88129
13 Al 1.37162 4.25597 7.16917
14 Ni -0.0792614 2.78783 5.71302
15 Al 1.39522 4.13546 10.142
16 Ni 0.0370515 2.82394 8.57354
17 Al 1.45477 7.17501 1.46397
18 Ni -0.0104025 5.92576 -0.0562063
19 Al 1.41336 7.25172 4.34088
20 Ni 0.0385314 5.82277 2.89517
21 Al 1.43562 7.09309 7.16814
22 Ni -0.00349808 5.78271 5.8119
23 Al 1.49704 7.15784 10.0991
24 Ni -0.00995684 5.6107 8.65002
25 Al 1.44798 10.1161 1.48156
26 Ni 0.045194 8.61325 -0.00227114
27 Al 1.53745 10.2355 4.33439
28 Ni -0.0545584 8.69707 2.89621
29 Al 1.54342 10.0147 7.26191
30 Ni 0.0375812 8.75569 5.69824
31 Al 1.52612 10.0915 10.1755
32 Ni 0.0681084 8.70271 8.75263
33 Al 4.25431 1.37302 1.44605
34 Ni 2.84055 -0.0270349 -0.0113463
35 Al 4.44447 1.37806 4.31973
36 Ni 2.92691 -0.0781628 2.96164
37 Al 4.36343 1.34884 7.28598
38 Ni 2.93478 0.0600143 5.87622
39 Al 4.55734 1.24169 10.1747
40 Ni 3.02578 -0.0576904 8.76254
41 Al 4.30991 4.24573 1.38205
42 Ni 2.84115 2.85535 -0.182287
43 Al 4.28461 4.27122 4.39653
44 Ni 2.80423 2.83101 2.86333
45 Al 4.43388 4.13501 7.29842
46 Ni 3.01032 2.79472 5.79276
47 Al 4.53017 4.15843 10.2259
48 Ni 2.92361 2.78938 8.60411
49 Al 4.27738 7.28465 1.34525
50 Ni 2.82396 5.62293 -0.126448
51 Al 4.47701 7.12625 4.15974
52 Ni 2.98463 5.71968 2.87651
53 Al 4.4195 7.1406 7.27916
54 Ni 2.85627 5.74197 5.90669
55 Al 4.39207 7.09786 10.2225
56 Ni 3.081 5.56172 8.80239
57 Al 4.33861 10.1582 1.46585
58 Ni 2.82399 8.67509 -0.0456382
59 Al 4.36712 10.1549 4.414
60 Ni 2.79618 8.66009 2.83151
61 Al 4.40401 9.96074 7.17886
62 Ni 3.03139 8.41736 5.71093
63 Al 4.43912 10.0578 10.3056
64 Ni 2.84275 8.58658 8.63865
65 Al 7.33468 1.47106 1.43452
66 Ni 5.75812 -0.0193397 0.161297
67 Al 7.18732 1.3369 4.27301
68 Ni 5.7957 0.0105914 2.88664
69 Al 7.21126 1.29357 7.13528
70 Ni 5.7591 -0.0607662 5.75639
71 Al 7.28892 1.32127 10.1692
72 Ni 5.84324 -0.099248 8.69223
73 Al 7.31627 4.39323 1.48928
74 Ni 5.84827 2.87169 0.0299175
75 Al 7.34536 4.29765 4.23507
76 Ni 5.82524 2.94957 2.9633
77 Al 7.30818 4.26949 7.33946
78 Ni 5.8497 2.7585 5.77074
79 Al 7.34618 4.19242 10.234
80 Ni 5.93032 2.72051 8.65431
81 Al 7.42055 7.20983 1.4862
82 Ni 5.81043 5.80969 0.123711
83 Al 7.24706 7.17023 4.31684
84 Ni 5.77049 5.73216 2.75968
85 Al 7.16889 7.1906 7.24682
86 Ni 5.94465 5.54898 5.8544
87 Al 7.29464 7.18204 10.243
88 Ni 5.83428 5.71176 8.81627
89 Al 7.23254 10.1484 1.44886
90 Ni 5.90427 8.70544 0.0778838
91 Al 7.22316 10.2007 4.3471
92 Ni 5.71187 8.75167 2.86937
93 Al 7.26446 10.133 7.16854
94 Ni 5.73939 8.6064 5.66492
95 Al 7.23403 10.1127 10.0866
96 Ni 5.79108 8.66317 8.64932
97 Al 10.092 1.44052 1.37679
98 Ni 8.85426 -0.056552 -0.0297902
99 Al 10.0996 1.43743 4.43307
100 Ni 8.79798 -0.131312 2.90858
101 Al 10.2224 1.39917 7.19655
102 Ni 8.73103 -0.0865945 5.76866
103 Al 10.1165 1.22281 10.027
104 Ni 8.70579 -0.137029 8.50405
105 Al 10.2891 4.35874 1.43404
106 Ni 8.64298 2.78916 -0.078525
107 Al 10.1886 4.37215 4.3715
108 Ni 8.75251 2.7297 2.9944
109 Al 10.1683 4.3494 7.24525
110 Ni 8.65943 2.81864 5.87015
111 Al 10.1026 4.1759 10.1806
112 Ni 8.74001 2.85175 8.6453
113 Al 10.27 7.25986 1.52717
114 Ni 8.84397 5.85046 -0.0169664
115 Al 10.1987 7.27734 4.26175
116 Ni 8.82902 5.66065 2.90087
117 Al 10.1828 7.26819 7.37867
118 Ni 8.71227 5.84283 5.78664
119 Al 10.2232 7.11981 10.144
120 Ni 8.73905 5.79386 8.76613
121 Al 10.2055 10.0987 1.35652
122 Ni 8.72118 8.64684 -0.0460789
123 Al 10.2171 10.1859 4.24795
124 Ni 8.73096 8.66782 2.88562
125 Al 10.248 10.1606 7.29385
126 Ni 8.79679 8.61327 5.69449
127 Al 10.1928 9.93264 10.2326
128 Ni 8.71072 8.61499 8.76789
ITEM: TIMESTEP
13400
ITEM: NUMBER OF ATOMS
128
ITEM: BOX BOUNDS xy xz yz pp pp pp
-6.5286314077343546e-02 1.1650192769729081e+01 -2.2339311474461349e-02
1.6586470915044060e-02 1.1699256678790931e+01 2.5461447302313710e-02
-1.7852616345690464e-02 1.1599636936169560e+01 1.3405882988227358e-01
ITEM: ATOMS id element xu yu zu
1 Al 1.43267 1.5198 1.53221
2 Ni 0.0207164 0.0718282 -0.0682246
3 Al 1.44651 1.51452 4.32207
4 Ni 0.0827028 -0.0491197 2.99307
5 Al 1.47139 1.67514 7.19866
6 Ni -0.0369446 0.0635629 5.6896
7 Al 1.56077 1.54671 10.2622
8 Ni 0.0552393 0.226287 8.59671
9 Al 1.45369 4.31258 1.44844
10 Ni 0.0961506 2.90121 0.00684102
11 Al 1.30211 4.33776 4.2501
12 Ni -0.138458 2.94837 2.90865
13 Al 1.39815 4.32315 7.24755
14 Ni -0.0232745 3.02495 5.91303
15 Al 1.43413 4.38953 10.1706
16 Ni -0.115902 2.98619 8.72349
17 Al 1.31424 7.23736 1.4562
18 Ni -0.0656003 5.59431 0.0376238
19 Al 1.42439 7.32196 4.37593
20 Ni -0.18158 5.70064 2.87553
21 Al 1.37963 7.21573 7.19137
22 Ni -0.103911 5.80093 5.73189
23 Al 1.3609 7.42483 10.2059
24 Ni -0.0675643 5.88511 8.65904
25 Al 1.53032 10.0062 1.38118
26 Ni -0.0518737 8.83594 -0.101355
27 Al 1.42496 10.0973 4.34122
28 Ni 0.0691013 8.75347 2.87166
29 Al 1.43484 10.1369 7.29758
30 Ni -0.0726473 8.63928 5.82546
31 Al 1.37952 10.2524 10.0762
32 Ni -0.000162275 8.76268 8.64226
33 Al 4.38443 1.3983 1.4505
34 Ni 2.88647 0.0497941 -0.0158301
35 Al 4.41561 1.51141 4.25434
36 Ni 2.81688 -0.0134287 2.8735
37 Al 4.33616 1.59549 7.09788
38 Ni 2.87292 -0.00667081 5.64309
39 Al 4.48968 1.5078 10.1425
40 Ni 2.83496 0.173244 8.4976
41 Al 4.40954 4.43505 1.34248
42 Ni 2.89669 2.86438 0.216365
43 Al 4.43074 4.44857 4.28536
44 Ni 2.9957 3.05804 2.90896
45 Al 4.37295 4.44754 7.2527
46 Ni 2.81204 3.03382 5.67769
47 Al 4.33847 4.55624 10.2032
48 Ni 3.07002 2.99497 8.69153
49 Al 4.26208 7.29007 1.37353
50 Ni 2.79797 5.87954 0.033437
51 Al 4.42017 7.37561 4.22085
52 Ni 2.71264 5.82806 2.81951
53 Al 4.28584 7.42401 7.27976
54 Ni 2.96254 5.75494 5.65306
55 Al 4.25388 7.21576 10.108
56 Ni 2.76214 5.89365 8.61943
57 Al 4.34272 10.2013 1.47463
58 Ni 2.8486 8.73177 -0.166655
59 Al 4.37584 10.1487 4.43934
60 Ni 2.894 8.66 2.87973
61 Al 4.46634 10.2082 7.22447
62 Ni 2.83191 8.83015 5.9607
63 Al 4.21824 10.2602 10.0991
64 Ni 2.98742 8.76115 8.7263
65 Al 7.23314 1.51364 1.4286
66 Ni 5.75003 -0.00964312 -0.110381
67 Al 7.12931 1.49671 4.37488
68 Ni 5.76622 -0.160806 2.9742
69 Al 7.20992 1.51876 7.24086
70 Ni 5.86697 -0.0700943 5.74572
71 Al 7.23689 1.57498 10.1456
72 Ni 5.79095 0.108129 8.63958
73 Al 7.17205 4.44318 1.43506
74 Ni 5.76817 2.83287 -0.0219352
75 Al 7.30965 4.48111 4.24765
76 Ni 5.85867 2.93358 2.86328
77 Al 7.21014 4.38458 7.28178
78 Ni 5.87022 3.10338 5.8073
79 Al 7.30494 4.39057 10.2001
80 Ni 5.71238 3.00199 8.74408
81 Al 7.34533 7.29571 1.28369
82 Ni 5.84565 5.72535 -0.174997
83 Al 7.29738 7.40333 4.33055
84 Ni 5.88476 5.84911 2.85493
85 Al 7.26609 7.22543 7.28826
86 Ni 5.74827 6.07804 5.82491
87 Al 7.41061 7.34003 10.1719
88 Ni 5.845 5.89322 8.72651
89 Al 7.12004 10.1037 1.39628
90 Ni 5.59745 8.68373 -0.120272
91 Al 7.19751 10.1635 4.33533
92 Ni 5.77766 8.55052 2.7607
93 Al 7.19482 10.2464 7.37911
94 Ni 5.79024 8.69965 5.91949
95 Al 7.13659 10.1668 10.1088
96 Ni 5.80421 8.7213 8.8659
97 Al 10.1233 1.39833 1.5301
98 Ni 8.59712 0.0475539 0.000471911
99 Al 10.0602 1.51265 4.41368
100 Ni 8.60257 0.0751254 2.90236
101 Al 10.1312 1.55384 7.25604
102 Ni 8.61371 -0.0242564 5.9061
103 Al 10.2639 1.56773 10.2091
104 Ni 8.69426 0.0686452 8.84055
105 Al 10.1587 4.29384 1.38052
106 Ni 8.72155 2.86021 0.00959294
107 Al 10.1444 4.42528 4.34698
108 Ni 8.64559 2.97681 2.82521
109 Al 10.1114 4.47446 7.29769
110 Ni 8.7742 2.9767 5.75555
111 Al 10.1267 4.46195 10.2228
112 Ni 8.72053 2.98338 8.82534
113 Al 10.2194 7.23666 1.41184
114 Ni 8.65378 5.73384 0.0222713
115 Al 10.2584 7.31535 4.20211
116 Ni 8.64348 5.98697 2.88055
117 Al 10.1109 7.38577 7.28364
118 Ni 8.72747 5.92643 5.734
119 Al 10.1295 7.44769 10.1239
120 Ni 8.81047 5.82904 8.78579
121 Al 10.188 10.1784 1.46297
122 Ni 8.83564 8.80941 0.0830689
123 Al 10.0702 10.1294 4.31012
124 Ni 8.7135 8.79349 2.8062
125 Al 10.2176 10.3372 7.28058
126 Ni 8.55504 8.80262 5.92206
127 Al 10.2286 10.408 10.1581
128 Ni 8.77904 8.81277 8.72135
ITEM: TIMESTEP
13500
ITEM: NUMBER OF ATOMS
128
ITEM: BOX BOUNDS xy xz yz pp pp pp
-1.1872726043416912e-01 1.1643368548492834e+01 -3.2828714427580515e-02
-2.2760652854472596e-02 1.1699284079682911e+01 -2.4314317337641864e-02
-3.0512975630335504e-02 1.1612297295454191e+01 9.4739107004745263e-02
ITEM: ATOMS id element xu yu zu
1 Al 1.53 1.52985 1.42594
2 Ni -0.00999872 0.00611083 0.0183139
3 Al 1.46306 1.39719 4.33824
4 Ni -0.0734301 0.0354001 2.87498
5 Al 1.38341 1.61733 7.17431
6 Ni -0.125585 0.0913202 5.84438
7 Al 1.42198 1.472 10.3058
8 Ni -0.0472822 0.173215 8.76506
9 Al 1.36579 4.3602 1.52203
10 Ni -0.116207 2.83138 0.0650521
11 Al 1.48248 4.33981 4.40347
12 Ni -0.0824449 2.84762 2.88182
13 Al 1.29251 4.36278 7.12358
14 Ni -0.199451 2.91808 5.51345
15 Al 1.32853 4.36597 10.2485
16 Ni -0.0283028 2.96549 8.62153
17 Al 1.41278 7.27234 1.47049
18 Ni 0.0023513 5.79347 -0.0187383
19 Al 1.24305 7.39172 4.31325
20 Ni -0.0610307 6.01605 2.85114
21 Al 1.28854 7.22883 7.31083
22 Ni -0.134445 5.83215 5.73995
23 Al 1.37119 7.38341 10.2562
24 Ni -0.0605033 5.8025 8.80658
25 Al 1.437 10.1142 1.51429
26 Ni -0.0139342 8.70039 0.0557096
27 Al 1.31418 10.2392 4.31458
28 Ni -0.271399 8.65071 2.909
29 Al 1.38024 10.202 7.26292
30 Ni -0.161311 8.75837 5.82075
31 Al 1.33551 10.1925 10.2641
32 Ni -0.194948 8.67006 8.74571
33 Al 4.28462 1.49729 1.37288
34 Ni 2.93961 -0.0215217 0.0452451
35 Al 4.38967 1.43961 4.34272
36 Ni 3.02663 -0.0290072 2.96871
37 Al 4.28818 1.61536 7.38047
38 Ni 2.86668 0.0476301 5.87516
39 Al 4.34162 1.59219 10.2069
40 Ni 2.84053 0.0560598 8.77071
41 Al 4.29756 4.35175 1.37209
42 Ni 2.86532 2.95089 -0.100166
43 Al 4.35808 4.35938 4.31534
44 Ni 2.88205 2.80662 2.96572
45 Al 4.30051 4.39237 7.25164
46 Ni 2.97004 2.93383 5.85817
47 Al 4.3233 4.57159 10.1102
48 Ni 2.55342 3.05788 8.52738
49 Al 4.31935 7.32279 1.48951
50 Ni 2.88467 5.68176 -0.0262494
51 Al 4.36107 7.43127 4.43884
52 Ni 2.94655 5.87236 2.9872
53 Al 4.27029 7.38028 7.21635
54 Ni 2.68331 5.96709 5.91183
55 Al 4.21186 7.38064 10.0905
56 Ni 2.88982 5.88044 8.74933
57 Al 4.3602 10.2357 1.39675
58 Ni 2.79843 8.61636 0.0362236
59 Al 4.40227 10.2619 4.37832
60 Ni 2.83762 8.60323 2.90415
61 Al 4.28586 10.2223 7.17985
62 Ni 2.79989 8.69687 5.68331
63 Al 4.25362 10.1236 10.0952
64 Ni 2.58865 8.81148 8.69676
65 Al 7.20998 1.4146 1.45965
66 Ni 5.72802 0.0241446 -0.0784188
67 Al 7.11383 1.39404 4.39436
68 Ni 5.80725 0.0365206 2.92756
69 Al 7.22776 1.4524 7.30651
70 Ni 5.77246 0.0345469 5.89719
71 Al 7.17157 1.598 10.2061
72 Ni 5.71722 0.10953 8.73169
73 Al 7.17282 4.32687 1.42723
74 Ni 5.65644 2.99903 -0.0280692
75 Al 7.26159 4.31548 4.19311
76 Ni 5.7413 2.86361 2.87213
77 Al 7.17944 4.33351 7.26335
78 Ni 5.7179 2.86342 5.8075
79 Al 7.25761 4.43401 10.1974
80 Ni 5.77943 3.03884 8.61942
81 Al 7.31966 7.24861 1.3153
82 Ni 5.67932 5.86015 0.00932784
83 Al 7.27203 7.28218 4.37623
84 Ni 5.80336 5.92774 2.92563
85 Al 7.37454 7.27198 7.21892
86 Ni 5.87438 5.64127 5.77241
87 Al 7.21271 7.24587 10.0747
88 Ni 5.7381 5.85389 8.67935
89 Al 7.16209 10.1495 1.39582
90 Ni 5.80615 8.70055 -0.0929039
91 Al 7.23323 10.1837 4.35425
92 Ni 5.84865 8.83178 2.89726
93 Al 7.21692 10.3588 7.27672
94 Ni 5.86354 8.77746 5.83146
95 Al 7.25893 10.2018 10.0876
96 Ni 5.69253 8.78105 8.5409
97 Al 10.064 1.38203 1.45865
98 Ni 8.75944 0.0314929 -0.0351042
99 Al 10.1449 1.42547 4.22984
100 Ni 8.71823 -0.119613 2.85167
101 Al 10.1987 1.48312 7.17896
102 Ni 8.79363 0.057966 5.65551
103 Al 10.212 1.58384 10.1784
104 Ni 8.69862 0.170479 8.66946
105 Al 10.2255 4.37052 1.31395
106 Ni 8.67676 2.8835 -0.0244577
107 Al 10.1661 4.38381 4.24533
108 Ni 8.68985 2.79927 2.88168
109 Al 10.2214 4.31822 7.24278
110 Ni 8.56172 2.89845 5.78522
111 Al 10.1554 4.36048 10.1503
112 Ni 8.75278 2.8923 8.57208
113 Al 10.1084 7.18962 1.33634
114 Ni 8.72581 5.78702 -0.17212
115 Al 10.1252 7.13456 4.24926
116 Ni 8.6753 5.79462 2.73698
117 Al 10.2098 7.12506 7.3054
118 Ni 8.66726 5.68284 5.94213
119 Al 10.0628 7.36034 10.0908
120 Ni 8.61173 5.84037 8.70453
121 Al 10.0959 10.0827 1.38261
122 Ni 8.73869 8.61846 -0.176497
123 Al 10.1142 10.1169 4.27559
124 Ni 8.69339 8.6092 2.84504
125 Al 10.1132 10.2374 7.22494
126 Ni 8.84882 8.67948 5.80803
127 Al 10.2603 10.3912 10.1528
128 Ni 8.7063 8.73939 8.77941
ITEM: TIMESTEP
13600
ITEM: NUMBER OF ATOMS
128
ITEM: BOX BOUNDS xy xz yz pp pp pp
-1.8794131387164015e-02 1.1628665520646388e+01 8.8914896035683019e-03
-1.9431212545452892e-01 1.1621249205952608e+01 1.9195579831777044e-02
-2.8466297817093533e-03 1.1584630949605579e+01 -1.5484723932561406e-01
ITEM: ATOMS id element xu yu zu
1 Al 1.5414 1.47275 1.35562
2 Ni -0.145698 -0.0485335 -0.0311105
3 Al 1.43407 1.34895 4.2484
4 Ni -0.107552 -0.100579 2.81804
5 Al 1.50078 1.37882 7.33677
6 Ni -0.00620075 -0.182454 5.62464
7 Al 1.32084 1.34132 10.1763
8 Ni -0.0694497 -0.270224 8.76664
9 Al 1.46116 4.41024 1.40622
10 Ni 0.0613237 2.96509 -0.0132016
11 Al 1.48116 4.20666 4.47154
12 Ni 0.0993164 2.90628 2.80035
13 Al 1.57451 4.18047 7.30947
14 Ni 0.123646 2.79572 5.94673
15 Al 1.52509 4.2646 10.1395
16 Ni -0.0571536 2.78321 8.70174
17 Al 1.53788 7.33939 1.38244
18 Ni 0.00288085 5.76671 0.0797385
19 Al 1.39458 7.23485 4.23589
20 Ni -0.0559474 5.57388 2.88515
21 Al 1.43775 7.24805 7.10972
22 Ni -0.0327914 5.72556 5.76534
23 Al 1.46006 7.18534 10.1055
24 Ni -0.0525665 5.63483 8.49242
25 Al 1.38976 10.1293 1.35996
26 Ni 0.00379113 8.58444 -0.0399661
27 Al 1.42969 10.1469 4.2787
28 Ni 0.157474 8.70493 2.8001
29 Al 1.45928 10.1243 7.25071
30 Ni -0.0564743 8.71077 5.6558
31 Al 1.4944 9.96973 10.2379
32 Ni 0.136928 8.7367 8.75987
33 Al 4.34145 1.37415 1.4293
34 Ni 2.81645 -0.0757201 0.00548391
35 Al 4.39943 1.30134 4.26925
36 Ni 2.79842 -0.0747568 2.86435
37 Al 4.34104 1.33427 7.29829
38 Ni 2.8282 -0.158667 5.77733
39 Al 4.3615 1.14909 10.2697
40 Ni 2.7858 -0.243501 8.72716
41 Al 4.36904 4.19804 1.29437
42 Ni 2.93835 2.80056 0.0458896
43 Al 4.32576 4.11411 4.3697
44 Ni 2.88989 2.87185 2.86259
45 Al 4.37799 4.03827 7.32557
46 Ni 2.69107 2.74153 5.78712
47 Al 4.37716 4.33771 10.137
48 Ni 3.08637 2.65113 8.83029
49 Al 4.31741 7.16289 1.57501
50 Ni 2.90633 5.89914 -0.0540816
51 Al 4.26085 7.23476 4.42573
52 Ni 2.90795 5.71795 2.92353
53 Al 4.39104 7.17835 7.19798
54 Ni 2.92199 5.64026 5.71333
55 Al 4.36237 7.12401 10.1089
56 Ni 2.8474 5.69852 8.59567
57 Al 4.42934 10.2295 1.45414
58 Ni 2.98049 8.8109 0.0457518
59 Al 4.42773 10.2229 4.35936
60 Ni 2.92626 8.80828 2.96086
61 Al 4.36348 10.0694 7.25842
62 Ni 2.95574 8.6592 5.91307
63 Al 4.43647 9.95738 10.1176
64 Ni 3.04927 8.52966 8.72647
65 Al 7.32071 1.40514 1.41265
66 Ni 5.8407 -0.079522 0.0352956
67 Al 7.21024 1.33866 4.41963
68 Ni 5.87726 -0.0421919 2.80621
69 Al 7.36713 1.32174 7.2668
70 Ni 5.73658 -0.0850705 5.8188
71 Al 7.23175 1.26093 10.1477
72 Ni 5.8225 -0.203139 8.61292
73 Al 7.20327 4.24938 1.41791
74 Ni 5.87701 2.79381 -0.0293586
75 Al 7.1957 4.16811 4.3757
76 Ni 5.77638 2.85351 2.9256
77 Al 7.26416 4.28666 7.22978
78 Ni 5.7678 2.79133 5.86957
79 Al 7.22674 4.33147 10.1299
80 Ni 5.79977 2.57049 8.73337
81 Al 7.21675 7.19005 1.55131
82 Ni 5.77307 5.71956 -0.0017197
83 Al 7.16547 7.17739 4.32482
84 Ni 5.79463 5.53814 2.93256
85 Al 7.35231 7.16178 7.178
86 Ni 5.77382 5.76827 5.83519
87 Al 7.29671 6.99161 10.0817
88 Ni 5.70819 5.70195 8.60945
89 Al 7.24865 10.1822 1.48718
90 Ni 5.74758 8.67686 0.0932146
91 Al 7.21075 10.1789 4.3236
92 Ni 5.83281 8.68592 3.03922
93 Al 7.16717 10.1967 7.23817
94 Ni 5.73942 8.72969 5.76538
95 Al 7.29632 9.99416 10.0864
96 Ni 5.88 8.66874 8.75102
97 Al 10.1063 1.49599 1.45421
98 Ni 8.74317 -0.101084 -0.0883932
99 Al 10.2752 1.41137 4.23335
100 Ni 8.67733 0.0701068 2.81144
101 Al 10.2463 1.26687 7.24023
102 Ni 8.7681 -0.0986997 5.96775
103 Al 10.1508 1.23288 10.166
104 Ni 8.81511 -0.176732 8.65474
105 Al 10.1186 4.35315 1.38344
106 Ni 8.70944 2.94839 -0.0529978
107 Al 10.2388 4.1977 4.37006
108 Ni 8.59436 2.94853 2.8362
109 Al 10.1691 4.23219 7.16572
110 Ni 8.86713 2.81471 5.71203
111 Al 10.1927 4.21872 10.2153
112 Ni 8.64866 2.85438 8.81816
113 Al 10.0548 7.22235 1.58566
114 Ni 8.63723 5.80355 0.127386
115 Al 10.2245 7.19615 4.26381
116 Ni 8.69945 5.69295 2.98377
117 Al 10.2251 7.12394 7.23043
118 Ni 8.742 5.84456 5.62264
119 Al 10.1174 7.07993 10.1202
120 Ni 8.77915 5.67694 8.67498
121 Al 10.1072 10.1096 1.46897
122 Ni 8.52927 8.63657 0.0852669
123 Al 10.066 10.1392 4.31603
124 Ni 8.61566 8.77277 2.93553
125 Al 10.1113 9.94513 7.11733
126 Ni 8.56117 8.72415 5.72916
127 Al 10.1667 9.97767 10.1293
128 Ni 8.64 8.49376 8.58632
ITEM: TIMESTEP
13700
ITEM: NUMBER OF ATOMS
128
ITEM: BOX BOUNDS xy xz yz pp pp pp
-8.2951170076013270e-03 1.1647228986129356e+01 1.2280571868462924e-02
-1.0625925116912965e-01 1.1652794695846289e+01 4.4868977429423314e-02
-1.6676518513849103e-02 1.1598460838337720e+01 -3.5248875146527907e-02
ITEM: ATOMS id element xu yu zu
1 Al 1.50102 1.37197 1.314
2 Ni 0.00175384 -0.18164 -0.107945
3 Al 1.3794 1.51902 4.3579
4 Ni 0.102027 -0.07767 2.97296
5 Al 1.41946 1.36148 7.26545
6 Ni -0.0412679 -0.0407323 5.9605
7 Al 1.38881 1.34344 10.1621
8 Ni 0.0242058 -0.147875 8.73915
9 Al 1.37889 4.2869 1.35909
10 Ni -0.0944507 2.95033 -0.140475
11 Al 1.46751 4.22187 4.37733
12 Ni -0.129961 2.84908 2.83671
13 Al 1.51061 4.25057 7.25005
14 Ni -0.122636 2.78985 5.92279
15 Al 1.51346 4.38418 10.0728
16 Ni 0.0989912 2.83432 8.78449
17 Al 1.47352 7.23922 1.34181
18 Ni 0.025569 5.82579 -0.125465
19 Al 1.52881 7.18701 4.31717
20 Ni 0.0868081 5.886 2.95625
21 Al 1.60407 7.27901 7.23126
22 Ni 0.103389 5.82551 5.76673
23 Al 1.49977 7.3069 10.1742
24 Ni 0.0612313 5.93106 8.7486
25 Al 1.46442 10.1141 1.37997
26 Ni -0.0372539 8.77225 0.0637306
27 Al 1.45383 10.1942 4.24007
28 Ni -0.043621 8.7294 2.95611
29 Al 1.4903 10.2051 7.2453
30 Ni 0.21162 8.60035 5.79769
31 Al 1.42463 10.049 10.1406
32 Ni -0.135594 8.52773 8.54315
33 Al 4.37406 1.37584 1.40346
34 Ni 2.96212 -0.0415664 0.0144821
35 Al 4.39889 1.37319 4.25401
36 Ni 2.88469 0.0393226 2.81345
37 Al 4.43995 1.40914 7.33232
38 Ni 2.86109 0.00395405 5.69495
39 Al 4.36506 1.36272 10.1829
40 Ni 3.05139 -0.108207 8.67206
41 Al 4.47634 4.20525 1.42834
42 Ni 2.92063 2.78703 -0.0731676
43 Al 4.29184 4.17596 4.3218
44 Ni 2.86251 2.80097 2.79591
45 Al 4.40203 4.1738 7.36822
46 Ni 2.99595 2.84376 5.8714
47 Al 4.38005 4.37304 10.2119
48 Ni 2.78462 2.73877 8.63744
49 Al 4.32811 7.15847 1.38149
50 Ni 2.94055 5.74755 -0.0334853
51 Al 4.27726 7.20392 4.3804
52 Ni 2.8967 5.75352 2.86619
53 Al 4.27575 7.25806 7.18712
54 Ni 2.86235 5.6809 5.87906
55 Al 4.40349 7.2154 10.049
56 Ni 3.04684 5.76435 8.79447
57 Al 4.29617 10.2005 1.34179
58 Ni 2.83938 8.58827 -0.129177
59 Al 4.40647 10.1957 4.24548
60 Ni 2.87556 8.54011 2.73463
61 Al 4.43475 10.207 7.20255
62 Ni 2.93649 8.84473 5.65063
63 Al 4.3752 10.0979 10.1322
64 Ni 2.8799 8.83966 8.65874
65 Al 7.25888 1.3556 1.42794
66 Ni 5.88153 -0.0684551 -0.0487811
67 Al 7.2869 1.4118 4.30172
68 Ni 5.76494 0.0402636 3.03255
69 Al 7.26169 1.19913 7.24481
70 Ni 5.88338 -0.040662 5.77004
71 Al 7.28551 1.48538 10.0801
72 Ni 5.89168 -0.109425 8.72404
73 Al 7.29049 4.30986 1.50097
74 Ni 5.7617 2.83192 -0.0232716
75 Al 7.15769 4.25125 4.34831
76 Ni 5.87377 2.8341 2.89177
77 Al 7.26022 4.34081 7.26051
78 Ni 5.83533 2.83063 5.80478
79 Al 7.33487 4.44557 10.1271
80 Ni 5.86531 2.95348 8.66958
81 Al 7.26348 7.30023 1.44731
82 Ni 5.86187 5.84775 -0.050386
83 Al 7.23573 7.24259 4.33908
84 Ni 5.76 5.88903 2.94991
85 Al 7.25651 7.23098 7.16622
86 Ni 5.73877 5.70997 5.74489
87 Al 7.39057 7.18193 10.1578
88 Ni 5.92393 5.73264 8.74761
89 Al 7.3115 10.2942 1.55938
90 Ni 5.77338 8.74754 -0.0531915
91 Al 7.20249 10.1071 4.28542
92 Ni 5.65327 8.77394 2.73837
93 Al 7.1916 10.1728 7.29128
94 Ni 5.7862 8.69766 5.76474
95 Al 7.29225 10.0146 10.2448
96 Ni 5.79587 8.61249 8.6549
97 Al 10.0736 1.48447 1.36773
98 Ni 8.6519 -0.0760282 0.0846351
99 Al 10.2397 1.34934 4.37194
100 Ni 8.76081 -0.102473 2.96488
101 Al 10.0263 1.30505 7.35867
102 Ni 8.68317 -0.0837377 5.70435
103 Al 10.1806 1.26154 10.1769
104 Ni 8.65935 -0.290033 8.82177
105 Al 10.1192 4.44555 1.45213
106 Ni 8.67564 2.94277 -0.0349495
107 Al 10.1597 4.29919 4.45262
108 Ni 8.90586 2.75288 2.98469
109 Al 10.2894 4.49876 7.25768
110 Ni 8.64043 2.80864 5.99289
111 Al 10.1835 4.29502 10.1526
112 Ni 8.83739 2.90295 8.62774
113 Al 10.096 7.21101 1.56999
114 Ni 8.6723 5.81361 -0.0424832
115 Al 10.2096 7.23647 4.39855
116 Ni 8.68207 5.88263 2.87626
117 Al 10.0851 7.24259 7.15119
118 Ni 8.72835 5.77571 5.85635
119 Al 10.1747 7.15498 10.1331
120 Ni 8.65495 5.93606 8.57279
121 Al 10.1841 10.2664 1.53588
122 Ni 8.81819 8.66605 0.141337
123 Al 10.2072 10.1998 4.43468
124 Ni 8.68466 8.65786 2.89607
125 Al 10.1019 10.1211 7.13591
126 Ni 8.71679 8.65726 5.65924
127 Al 10.1925 10.1091 10.2036
128 Ni 8.70021 8.65685 8.69634
ITEM: TIMESTEP
13800
ITEM: NUMBER OF ATOMS
128
ITEM: BOX BOUNDS xy xz yz pp pp pp
-2.4968299587285740e-02 1.1607937981540324e+01 -1.8314979007561176e-02
-5.2853154819929138e-02 1.1809484026755957e+01 1.9500341136741844e-02
-1.3681154709378696e-02 1.1595465474533238e+01 1.7484655211233413e-01
ITEM: ATOMS id element xu yu zu
1 Al 1.63513 1.35625 1.48964
2 Ni 0.0734779 0.0187481 0.0828715
3 Al 1.4448 1.48617 4.42681
4 Ni -0.026252 0.0326639 2.90872
5 Al 1.43394 1.57272 7.32494
6 Ni 0.0154272 -0.0523131 5.64505
7 Al 1.3961 1.58769 10.1102
8 Ni -0.053295 0.154582 8.65462
9 Al 1.35054 4.26226 1.36299
10 Ni -0.0610629 2.6972 0.129075
11 Al 1.49648 4.403 4.35772
12 Ni 0.0701101 2.87666 3.02215
13 Al 1.44956 4.3192 7.18046
14 Ni -0.0114313 2.9687 5.71136
15 Al 1.31925 4.39745 10.1116
16 Ni -0.147462 2.9061 8.5561
17 Al 1.51289 7.30138 1.49417
18 Ni -0.0743258 5.73289 -0.0219511
19 Al 1.39524 7.23242 4.39306
20 Ni -0.0064089 5.74103 2.89594
21 Al 1.38653 7.37901 7.2835
22 Ni -0.0675873 5.81122 5.78653
23 Al 1.45788 7.35714 10.2758
24 Ni -0.0186384 5.72459 8.67268
25 Al 1.40479 10.1946 1.5049
26 Ni 0.104644 8.75906 -0.0633706
27 Al 1.42676 10.1945 4.3635
28 Ni 0.0756883 8.6995 2.83993
29 Al 1.49913 10.2817 7.23893
30 Ni -0.144314 8.90086 5.84976
31 Al 1.46059 10.3415 10.1804
32 Ni 0.143481 9.10497 8.79403
33 Al 4.30485 1.51232 1.43932
34 Ni 2.8765 0.00892219 -0.0939836
35 Al 4.41888 1.49326 4.23541
36 Ni 2.94589 0.075642 3.03451
37 Al 4.36843 1.57303 7.25985
38 Ni 3.02458 0.0207837 5.92983
39 Al 4.32864 1.60501 10.1954
40 Ni 2.92329 0.147345 8.6715
41 Al 4.38753 4.33189 1.4487
42 Ni 2.8922 2.95071 0.0267637
43 Al 4.35399 4.39505 4.33825
44 Ni 2.91606 2.95488 2.96587
45 Al 4.33472 4.39356 7.23776
46 Ni 2.88262 3.03355 5.81378
47 Al 4.26506 4.52571 10.1136
48 Ni 3.00221 3.10812 8.68518
49 Al 4.26845 7.27332 1.43611
50 Ni 2.7262 5.7104 -0.113121
51 Al 4.38451 7.26201 4.31658
52 Ni 2.87859 5.85817 2.93266
53 Al 4.25402 7.36287 7.27357
54 Ni 2.92623 5.92485 5.70862
55 Al 4.2126 7.32482 10.1368
56 Ni 2.78344 5.89155 8.64873
57 Al 4.28205 10.2293 1.45166
58 Ni 2.8465 8.91397 0.111531
59 Al 4.39233 10.238 4.32902
60 Ni 2.89515 8.87866 2.97263
61 Al 4.3468 10.2581 7.32723
62 Ni 2.91295 8.62451 5.90636
63 Al 4.32152 10.2921 10.1902
64 Ni 2.93862 8.72685 8.68873
65 Al 7.20868 1.342 1.37681
66 Ni 5.65905 0.00155228 0.0536366
67 Al 7.17532 1.45522 4.25431
68 Ni 5.85523 -0.0928773 2.71851
69 Al 7.17952 1.429 7.09083
70 Ni 5.76115 -0.00446755 5.7712
71 Al 7.28487 1.52853 10.1884
72 Ni 5.76839 0.140331 8.6766
73 Al 7.29021 4.38767 1.38941
74 Ni 5.89949 2.95047 0.0811505
75 Al 7.11208 4.37381 4.31887
76 Ni 5.77565 2.92634 2.86681
77 Al 7.20777 4.50352 7.29688
78 Ni 5.8256 3.01892 5.77384
79 Al 7.22826 4.62442 10.1988
80 Ni 5.8941 2.90536 8.75577
81 Al 7.35088 7.28932 1.45783
82 Ni 5.76207 5.77065 0.0186993
83 Al 7.34681 7.36804 4.36588
84 Ni 5.83575 5.76529 2.7519
85 Al 7.25141 7.28723 7.28952
86 Ni 5.89291 5.89136 5.71871
87 Al 7.25667 7.35555 10.156
88 Ni 5.69966 6.01658 8.73996
89 Al 7.33597 10.2205 1.42051
90 Ni 5.76773 8.69233 0.0325063
91 Al 7.19254 10.203 4.25155
92 Ni 5.84573 8.70369 2.96968
93 Al 7.1955 10.2479 7.20545
94 Ni 5.69264 8.80588 5.73806
95 Al 7.14267 10.3555 10.0591
96 Ni 5.79578 8.95125 8.63636
97 Al 9.99891 1.41778 1.47559
98 Ni 8.72793 -0.0981509 -0.0514588
99 Al 10.0917 1.47683 4.30103
100 Ni 8.65793 -0.0609611 2.8572
101 Al 10.0033 1.5817 7.14172
102 Ni 8.69911 -0.138674 5.7748
103 Al 10.2455 1.53231 10.1235
104 Ni 8.67181 0.205645 8.52901
105 Al 10.1369 4.19943 1.44748
106 Ni 8.76433 2.75589 0.0647882
107 Al 10.1513 4.38087 4.32222
108 Ni 8.53902 2.97743 2.81053
109 Al 10.0458 4.54027 7.17101
110 Ni 8.73235 3.04177 5.62987
111 Al 10.1074 4.36508 10.2316
112 Ni 8.57224 2.9693 8.76427
113 Al 10.1427 7.18469 1.50163
114 Ni 8.80415 5.76387 0.0194422
115 Al 10.215 7.35567 4.35791
116 Ni 8.74591 5.79112 2.84252
117 Al 10.0807 7.38679 7.2784
118 Ni 8.67844 5.92147 5.73074
119 Al 10.2245 7.38278 10.0596
120 Ni 8.69037 5.88195 8.80567
121 Al 10.2069 10.1724 1.42892
122 Ni 8.57255 8.82781 -0.167023
123 Al 10.1496 10.2734 4.30279
124 Ni 8.77234 8.69012 2.87386
125 Al 10.1946 10.3943 7.23264
126 Ni 8.74922 8.72785 5.87601
127 Al 10.1076 10.4459 10.132
128 Ni 8.69543 8.83022 8.64186
ITEM: TIMESTEP
13900
ITEM: NUMBER OF ATOMS
128
ITEM: BOX BOUNDS xy xz yz pp pp pp
-3.3140743654371044e-02 1.1618921239678453e+01 -2.2894460519769072e-06
-2.1610707277566973e-02 1.1592804900736878e+01 3.9984656462721370e-03
-1.7740171183192821e-02 1.1599524491007056e+01 -1.0590126364388715e-02
ITEM: ATOMS id element xu yu zu
1 Al 1.52724 1.34993 1.46103
2 Ni -0.0895909 0.0312124 -0.0377883
3 Al 1.33245 1.47629 4.27306
4 Ni -0.00149283 -0.120667 2.93462
5 Al 1.45204 1.44454 7.20263
6 Ni -0.108715 -0.0386754 5.79153
7 Al 1.38843 1.37724 10.1381
8 Ni 0.0602182 0.0730908 8.61124
9 Al 1.48459 4.2976 1.49153
10 Ni 0.083662 3.03311 -0.0159409
11 Al 1.44048 4.39185 4.3914
12 Ni -0.00747723 2.94916 2.86192
13 Al 1.43435 4.26979 7.2566
14 Ni 0.0656601 2.95306 5.77173
15 Al 1.49245 4.31338 10.16
16 Ni -0.0229777 2.85986 8.66474
17 Al 1.38535 7.33752 1.46784
18 Ni 0.0717234 5.7434 0.00276425
19 Al 1.36099 7.1254 4.37572
20 Ni -0.0557243 5.91729 2.83445
21 Al 1.53437 7.17296 7.24574
22 Ni -0.155139 5.83623 5.78789
23 Al 1.39113 7.13566 10.2659
24 Ni -0.102759 5.73286 8.68244
25 Al 1.41186 10.0979 1.38381
26 Ni 0.0417228 8.81507 -0.052381
27 Al 1.35319 10.0914 4.31614
28 Ni -0.0997333 8.79691 2.79465
29 Al 1.3508 10.0839 7.25849
30 Ni 0.00784224 8.61424 5.81416
31 Al 1.405 10.1017 10.1201
32 Ni -0.0574947 8.58277 8.64546
33 Al 4.36422 1.40001 1.48567
34 Ni 2.94232 0.00813905 0.120178
35 Al 4.40635 1.49638 4.26253
36 Ni 2.94678 -0.208664 2.86048
37 Al 4.3496 1.41412 7.19984
38 Ni 2.86399 -0.0131766 5.65109
39 Al 4.29535 1.33183 10.105
40 Ni 2.86764 0.0930215 8.60426
41 Al 4.44117 4.35024 1.49189
42 Ni 2.88549 2.77738 -0.00908078
43 Al 4.41707 4.47518 4.35022
44 Ni 2.99125 2.85013 2.95496
45 Al 4.23954 4.26471 7.22484
46 Ni 2.95124 2.93407 5.69572
47 Al 4.29343 4.33807 10.0999
48 Ni 2.87436 2.87663 8.73412
49 Al 4.2715 7.27104 1.42589
50 Ni 2.93669 5.85917 0.103462
51 Al 4.35298 7.24423 4.41337
52 Ni 2.85825 5.84319 2.9435
53 Al 4.22712 7.30991 7.33477
54 Ni 2.91566 5.77593 5.87738
55 Al 4.17728 7.08444 10.0683
56 Ni 2.92242 5.77148 8.72999
57 Al 4.28762 10.0972 1.40164
58 Ni 2.88028 8.63012 -0.124635
59 Al 4.3795 10.0229 4.39866
60 Ni 2.80956 8.58467 2.84377
61 Al 4.31371 10.1015 7.27741
62 Ni 2.75447 8.77233 5.78739
63 Al 4.25488 10.1579 10.1474
64 Ni 2.79699 8.73308 8.70119
65 Al 7.15462 1.36512 1.49646
66 Ni 5.83966 -0.145763 -0.0838901
67 Al 7.11845 1.42346 4.34378
68 Ni 5.75255 -0.11525 3.09719
69 Al 7.24513 1.43842 7.35314
70 Ni 5.82188 -0.0958685 5.85798
71 Al 7.22816 1.36761 10.158
72 Ni 5.73744 -0.0475893 8.60488
73 Al 7.21463 4.3687 1.39429
74 Ni 5.60751 2.75906 -0.0796014
75 Al 7.21611 4.39405 4.28372
76 Ni 5.79495 2.96155 2.86261
77 Al 7.22971 4.43742 7.24576
78 Ni 5.8241 2.95941 5.73349
79 Al 7.26074 4.32038 10.1676
80 Ni 5.7506 2.98916 8.64234
81 Al 7.25453 7.24831 1.36093
82 Ni 5.75425 5.84094 -0.0311877
83 Al 7.29108 7.31147 4.35827
84 Ni 5.73606 5.87675 2.88709
85 Al 7.38905 7.16785 7.34876
86 Ni 5.83102 5.87249 5.89775
87 Al 7.25468 7.17 10.2115
88 Ni 6.00691 5.72235 8.77931
89 Al 7.23771 10.1958 1.44723
90 Ni 5.71903 8.73128 -0.0641563
91 Al 7.24611 10.1165 4.294
92 Ni 5.81061 8.6655 2.80862
93 Al 7.24495 10.1568 7.34733
94 Ni 5.9888 8.60594 5.93542
95 Al 7.22165 10.0161 10.175
96 Ni 5.79574 8.55383 8.76932
97 Al 10.0747 1.47633 1.37152
98 Ni 8.62871 0.00295894 0.043049
99 Al 10.1571 1.44571 4.28303
100 Ni 8.66447 -0.0837562 2.85998
101 Al 10.1789 1.36344 7.29035
102 Ni 8.68089 0.113997 5.81302
103 Al 10.2682 1.54173 10.195
104 Ni 8.75152 -0.0332451 8.745
105 Al 10.1069 4.23983 1.37744
106 Ni 8.5473 2.87204 -0.0150137
107 Al 10.1713 4.31473 4.2914
108 Ni 8.72846 2.79356 2.85378
109 Al 10.1032 4.28442 7.06484
110 Ni 8.53123 2.81613 5.68799
111 Al 10.2384 4.39602 10.1905
112 Ni 8.78096 2.8456 8.72504
113 Al 10.1613 7.18522 1.42877
114 Ni 8.72096 5.81708 -0.0783331
115 Al 10.1026 7.32823 4.27775
116 Ni 8.72565 5.94479 2.76282
117 Al 10.0504 7.30964 7.23511
118 Ni 8.74733 5.76105 5.78008
119 Al 10.2408 7.19206 10.096
120 Ni 8.80624 5.6844 8.75076
121 Al 10.1704 10.2184 1.43224
122 Ni 8.78149 8.67872 -0.0240864
123 Al 10.2016 10.1313 4.33401
124 Ni 8.63237 8.74542 2.74809
125 Al 10.1913 10.1872 7.21174
126 Ni 8.66438 8.77412 5.90597
127 Al 10.1915 10.3016 10.1525
128 Ni 8.70652 8.7333 8.82679
ITEM: TIMESTEP
14000
ITEM: NUMBER OF ATOMS
128
ITEM: BOX BOUNDS xy xz yz pp pp pp
-6.7285237195365610e-02 1.1700477478450830e+01 8.5385894858745134e-03
-1.4240362833252090e-01 1.1585757066718358e+01 4.2869331945728992e-02
-3.4388367954623078e-02 1.1616172687778469e+01 -1.3843088143785737e-01
ITEM: ATOMS id element xu yu zu
1 Al 1.46054 1.44807 1.34823
2 Ni 0.0762344 -0.0793249 -0.0125073
3 Al 1.31912 1.46684 4.27479
4 Ni -0.131912 0.0431655 2.78771
5 Al 1.40639 1.39911 7.3096
6 Ni -0.0544421 -0.0162003 5.78414
7 Al 1.42436 1.37056 10.1338
8 Ni -0.0931546 -0.111044 8.82688
9 Al 1.33648 4.42827 1.37058
10 Ni -0.0918369 2.82595 -0.0321668
11 Al 1.41291 4.26159 4.30856
12 Ni -0.149604 2.86032 2.87184
13 Al 1.4467 4.19855 7.22667
14 Ni -0.136117 2.84864 5.69746
15 Al 1.50151 4.16837 10.2219
16 Ni 0.0542199 2.85875 8.83985
17 Al 1.39409 7.28788 1.45116
18 Ni -0.11344 5.82603 -0.068708
19 Al 1.40425 7.1376 4.23715
20 Ni -0.0633635 5.7309 2.93284
21 Al 1.45817 7.17705 7.06479
22 Ni 0.0470086 5.68195 5.65855
23 Al 1.509 7.07275 10.111
24 Ni 0.0355376 5.70639 8.80513
25 Al 1.35731 10.0646 1.46875
26 Ni -0.145882 8.54806 0.0558864
27 Al 1.32057 10.1425 4.35179
28 Ni -0.103101 8.55216 2.97483
29 Al 1.30831 9.97732 7.28563
30 Ni -0.144436 8.69671 5.78322
31 Al 1.51266 9.92884 10.0876
32 Ni -0.0740925 8.61283 8.68116
33 Al 4.3224 1.45302 1.46595
34 Ni 2.8238 -0.118183 -0.147364
35 Al 4.4125 1.40451 4.32618
36 Ni 2.79867 0.0461247 2.88673
37 Al 4.31632 1.31858 7.27721
38 Ni 2.80586 -0.139126 5.87515
39 Al 4.3147 1.34072 10.1446
40 Ni 2.91739 -0.19532 8.70027
41 Al 4.46502 4.35312 1.53218
42 Ni 2.98616 2.89166 0.0495252
43 Al 4.36838 4.30836 4.3206
44 Ni 2.76727 2.88177 2.76744
45 Al 4.31475 4.25981 7.13292
46 Ni 2.81548 2.79209 5.78727
47 Al 4.39067 4.20326 10.0626
48 Ni 2.88719 2.7861 8.59037
49 Al 4.29575 7.24162 1.31096
50 Ni 2.88733 5.82718 -0.231954
51 Al 4.36006 7.10385 4.34633
52 Ni 3.00045 5.80076 2.8378
53 Al 4.31768 7.15767 7.30729
54 Ni 2.8461 5.74848 5.69031
55 Al 4.21102 7.13343 10.0554
56 Ni 2.91581 5.64916 8.59599
57 Al 4.23541 10.1307 1.33569
58 Ni 2.81946 8.69627 -0.0386166
59 Al 4.33601 10.1855 4.30975
60 Ni 3.0139 8.67721 2.9114
61 Al 4.3063 10.0672 7.24833
62 Ni 2.93578 8.50565 5.82722
63 Al 4.44274 10.0234 10.1519
64 Ni 2.88836 8.53803 8.52469
65 Al 7.31928 1.42398 1.5138
66 Ni 5.6918 0.130425 -0.0894643
67 Al 7.28211 1.42848 4.46283
68 Ni 5.81839 -0.0451883 2.79367
69 Al 7.37913 1.38987 7.29753
70 Ni 5.85107 -0.0792804 5.77665
71 Al 7.3027 1.35513 10.2644
72 Ni 5.86092 -0.127874 8.72177
73 Al 7.18158 4.26986 1.49741
74 Ni 5.92998 2.95713 0.0547511
75 Al 7.28158 4.13326 4.41945
76 Ni 5.77571 2.73162 2.99721
77 Al 7.20992 4.37144 7.27759
78 Ni 5.77594 2.73927 5.77882
79 Al 7.31809 4.27947 10.1309
80 Ni 5.83246 2.70617 8.69668
81 Al 7.30154 7.18937 1.4632
82 Ni 5.86994 5.77362 0.00352647
83 Al 7.17588 7.33187 4.34514
84 Ni 5.85042 5.74794 2.90058
85 Al 7.29868 7.17073 7.15414
86 Ni 5.88335 5.61814 5.71135
87 Al 7.20376 7.14437 10.0894
88 Ni 5.69148 5.69214 8.63411
89 Al 7.28127 10.1722 1.42107
90 Ni 5.91646 8.69398 -0.105576
91 Al 7.30455 10.1195 4.26319
92 Ni 5.77493 8.71881 2.98218
93 Al 7.34735 10.1043 7.25214
94 Ni 5.7465 8.65978 5.78028
95 Al 7.36775 9.97861 10.2158
96 Ni 5.90606 8.71821 8.59948
97 Al 10.1479 1.47415 1.32997
98 Ni 8.70036 0.0947859 -0.0973947
99 Al 10.1434 1.36965 4.36092
100 Ni 8.7768 0.0548987 2.90552
101 Al 10.2824 1.34778 7.47315
102 Ni 8.77888 -0.122196 5.83663
103 Al 10.2654 1.36601 10.187
104 Ni 8.76033 -0.0280187 8.7057
105 Al 10.2093 4.26203 1.40418
106 Ni 8.82613 2.89221 0.0101334
107 Al 10.1793 4.2338 4.38873
108 Ni 8.74163 2.93218 2.82127
109 Al 10.2786 4.26602 7.23615
110 Ni 8.96304 2.88395 5.95038
111 Al 10.2605 4.31181 10.2133
112 Ni 8.74271 2.84969 8.74117
113 Al 10.0938 7.11184 1.55213
114 Ni 8.60555 5.70782 0.108413
115 Al 10.1081 7.08632 4.33903
116 Ni 8.64064 5.67911 2.94375
117 Al 10.2318 7.07753 7.23151
118 Ni 8.68977 5.71228 5.88929
119 Al 10.1873 7.00162 10.135
120 Ni 8.63879 5.73931 8.68036
121 Al 10.1662 10.176 1.46167
122 Ni 8.67357 8.73922 0.0174683
123 Al 10.2983 10.0735 4.28091
124 Ni 8.76898 8.63792 2.98821
125 Al 10.2428 10.1167 7.21445
126 Ni 8.82592 8.5309 5.75795
127 Al 10.2667 10.0492 10.2104
128 Ni 8.88964 8.5001 8.61519
ITEM: TIMESTEP
14100
ITEM: NUMBER OF ATOMS
128
ITEM: BOX BOUNDS xy xz yz pp pp pp
-6.2554828890734451e-02 1.1641341836638997e+01 -2.1314030983829294e-02
8.4916215000685469e-04 1.1630447331629718e+01 1.8316718908238095e-02
-8.4625219694656195e-03 1.1590246841793311e+01 4.9512173956034786e-02
ITEM: ATOMS id element xu yu zu
1 Al 1.43383 1.46372 1.42025
2 Ni -0.240765 -0.0413099 0.00202914
3 Al 1.45618 1.49369 4.37075
4 Ni 0.0782988 -0.0379446 2.96607
5 Al 1.42197 1.48662 7.36951
6 Ni -0.0266243 -0.154362 5.71497
7 Al 1.35788 1.65343 10.169
8 Ni -0.0336336 -0.0490709 8.69907
9 Al 1.42321 4.34874 1.4764
10 Ni -0.0617095 2.95254 -0.0213648
11 Al 1.33637 4.35314 4.42829
12 Ni 0.0746484 2.929 2.82154
13 Al 1.61891 4.45714 7.30797
14 Ni 0.0921261 2.99625 5.96092
15 Al 1.32004 4.48394 10.1301
16 Ni -0.209817 2.85221 8.70017
17 Al 1.40117 7.28978 1.46814
18 Ni -0.150878 5.83118 0.0109106
19 Al 1.4619 7.20078 4.3094
20 Ni 0.019952 5.77404 2.85028
21 Al 1.5694 7.36724 7.12016
22 Ni 0.00439985 5.79494 5.92655
23 Al 1.59562 7.37156 10.2336
24 Ni -0.122673 5.78341 8.69103
25 Al 1.42979 10.1786 1.33478
26 Ni -0.00230326 8.74031 0.0268722
27 Al 1.27496 10.143 4.25067
28 Ni -0.0136077 8.61942 2.80711
29 Al 1.37532 10.1125 7.27996
30 Ni 0.053657 8.65843 5.72728
31 Al 1.45847 10.3153 10.1543
32 Ni 0.0100299 8.71478 8.75605
33 Al 4.32645 1.41132 1.40225
34 Ni 2.94667 -0.0136029 0.0136529
35 Al 4.44106 1.46177 4.3352
36 Ni 2.79167 -0.0277399 2.82239
37 Al 4.22505 1.51775 7.3289
38 Ni 2.86361 0.105856 5.83655
39 Al 4.39801 1.41894 10.1105
40 Ni 2.79915 0.0817862 8.73679
41 Al 4.38769 4.29564 1.52085
42 Ni 2.74496 2.99132 -0.161724
43 Al 4.32306 4.31219 4.34545
44 Ni 2.9512 2.82347 2.91732
45 Al 4.346 4.38475 7.29313
46 Ni 2.79899 2.86935 5.91921
47 Al 4.24643 4.53717 10.1279
48 Ni 2.93706 2.97227 8.86542
49 Al 4.33532 7.20283 1.51593
50 Ni 2.92558 5.82304 0.172036
51 Al 4.30455 7.19509 4.29557
52 Ni 2.81585 5.65381 2.92625
53 Al 4.21743 7.3564 7.27649
54 Ni 2.91866 5.7388 5.73099
55 Al 4.32975 7.34293 10.2435
56 Ni 2.89392 5.93258 8.81926
57 Al 4.33079 10.1883 1.4528
58 Ni 3.05324 8.67364 0.150969
59 Al 4.27372 10.2664 4.27445
60 Ni 2.84499 8.76966 2.80904
61 Al 4.26846 10.2019 7.23997
62 Ni 2.90961 8.87205 5.71397
63 Al 4.29346 10.2878 10.104
64 Ni 2.95006 8.70744 8.78302
65 Al 7.38609 1.47065 1.37183
66 Ni 5.90211 -0.0509771 0.00847936
67 Al 7.22901 1.4637 4.34506
68 Ni 5.85089 0.152084 2.91906
69 Al 7.28725 1.43928 7.16232
70 Ni 5.74708 0.0873324 5.73121
71 Al 7.258 1.45038 10.0905
72 Ni 5.84569 0.0128573 8.65787
73 Al 7.16423 4.32468 1.34151
74 Ni 5.66049 2.85867 -0.136314
75 Al 7.22579 4.26729 4.33526
76 Ni 5.85676 2.94148 2.79745
77 Al 7.22554 4.42452 7.15869
78 Ni 5.73656 2.89557 5.74498
79 Al 7.18617 4.45775 10.0483
80 Ni 5.81909 2.96935 8.69235
81 Al 7.30606 7.08607 1.47762
82 Ni 5.79457 5.8167 0.000440012
83 Al 7.15524 7.3026 4.33892
84 Ni 5.77812 5.62961 2.95577
85 Al 7.27534 7.18666 7.11823
86 Ni 5.67914 5.78991 5.72775
87 Al 7.17781 7.39525 10.1331
88 Ni 5.80884 5.91547 8.62302
89 Al 7.21133 10.1423 1.42657
90 Ni 5.72588 8.71218 0.160661
91 Al 7.28979 10.1854 4.28209
92 Ni 5.83917 8.80886 2.87735
93 Al 7.2378 10.218 7.23831
94 Ni 5.7961 8.86043 5.64281
95 Al 7.20457 10.1422 10.2285
96 Ni 5.69547 8.64434 8.69238
97 Al 10.1538 1.56734 1.39698
98 Ni 8.751 -0.204323 0.0830381
99 Al 10.3146 1.48179 4.34733
100 Ni 8.71012 -0.061046 2.81919
101 Al 10.2119 1.30713 7.2559
102 Ni 8.80636 0.111398 5.76946
103 Al 10.0799 1.38452 10.1015
104 Ni 8.73061 -0.0197837 8.60927
105 Al 10.1437 4.31709 1.40689
106 Ni 8.65109 2.9647 -0.0889246
107 Al 10.22 4.27711 4.45384
108 Ni 8.7465 2.84459 2.95224
109 Al 10.1095 4.19567 7.19071
110 Ni 8.6189 2.91165 5.66649
111 Al 10.1545 4.40116 10.1727
112 Ni 8.64539 2.92646 8.67016
113 Al 10.1026 7.27803 1.45002
114 Ni 8.70897 5.91668 -0.114218
115 Al 10.1445 7.21604 4.30858
116 Ni 8.73776 5.76863 2.97269
117 Al 10.1052 7.2788 7.24517
118 Ni 8.72445 5.7494 5.77763
119 Al 10.2204 7.22535 10.0526
120 Ni 8.73364 5.83329 8.64035
121 Al 10.181 10.194 1.52824
122 Ni 8.57639 8.644 0.0233985
123 Al 10.2153 10.0418 4.28745
124 Ni 8.6909 8.69276 2.93242
125 Al 10.2509 10.0934 7.15731
126 Ni 8.68556 8.78267 5.79937
127 Al 10.1592 10.0731 10.1324
128 Ni 8.4714 8.76845 8.61512
ITEM: TIMESTEP
14200
ITEM: NUMBER OF ATOMS
128
ITEM: BOX BOUNDS xy xz yz pp pp pp
-6.5913351802955919e-02 1.1624541974512269e+01 -2.9556788094633621e-02
-5.4832647778468413e-02 1.1750475051660301e+01 6.4010909800788097e-03
-2.9648333976777685e-02 1.1611432653800629e+01 1.1385808405812424e-01
ITEM: ATOMS id element xu yu zu
1 Al 1.30051 1.44026 1.48657
2 Ni -0.0625342 -0.10373 -0.112734
3 Al 1.39363 1.42243 4.30581
4 Ni -0.161694 0.00945447 2.79404
5 Al 1.5309 1.45966 7.25608
6 Ni -0.0286189 0.135617 5.95002
7 Al 1.51791 1.56026 10.1829
8 Ni -0.0551206 0.0261293 8.65388
9 Al 1.3389 4.32917 1.41231
10 Ni -0.11408 2.87379 -0.115794
11 Al 1.34012 4.49194 4.35927
12 Ni -0.145013 2.86012 2.92888
13 Al 1.44243 4.41428 7.13046
14 Ni -0.084953 2.89399 5.68627
15 Al 1.44316 4.33992 10.1623
16 Ni 0.0251868 2.92503 8.6876
17 Al 1.37803 7.22024 1.49914
18 Ni 0.0360789 5.71951 -0.0693688
19 Al 1.47139 7.28753 4.42438
20 Ni -0.104204 5.86102 2.84595
21 Al 1.50481 7.36152 7.26689
22 Ni -0.0453865 5.92445 5.76497
23 Al 1.48441 7.30395 10.1278
24 Ni -0.137319 6.05743 8.70299
25 Al 1.48393 10.2273 1.45998
26 Ni -0.180794 8.70774 -0.0877073
27 Al 1.23358 10.3273 4.31756
28 Ni -0.0232006 8.83474 2.99668
29 Al 1.42579 10.2729 7.26654
30 Ni 0.0110271 8.80092 5.92619
31 Al 1.37794 10.3802 10.1663
32 Ni 0.0093457 8.85005 8.64257
33 Al 4.37697 1.42728 1.45162
34 Ni 2.9273 -0.004088 -0.0401637
35 Al 4.37877 1.47009 4.36587
36 Ni 2.96307 0.127654 2.85774
37 Al 4.2404 1.55488 7.30184
38 Ni 2.95888 -0.0265837 5.70684
39 Al 4.46532 1.55049 10.0647
40 Ni 3.0406 -0.0253876 8.76751
41 Al 4.32234 4.36981 1.56226
42 Ni 2.93377 2.69174 0.0122736
43 Al 4.3978 4.42262 4.3096
44 Ni 2.71623 2.95659 2.80084
45 Al 4.40332 4.43027 7.28139
46 Ni 3.00267 2.99404 5.80749
47 Al 4.28861 4.40951 10.1669
48 Ni 2.67527 2.88894 8.64076
49 Al 4.2004 7.31583 1.2868
50 Ni 2.84092 5.80615 -0.163621
51 Al 4.35039 7.10371 4.32638
52 Ni 2.90775 5.88242 2.91319
53 Al 4.27529 7.30387 7.36978
54 Ni 2.8282 5.87321 5.95929
55 Al 4.37086 7.40201 10.1311
56 Ni 2.96627 5.81956 8.68993
57 Al 4.26683 10.0951 1.42352
58 Ni 2.68472 8.70916 -0.0410794
59 Al 4.27015 10.1367 4.40379
60 Ni 2.82918 8.64706 2.93753
61 Al 4.25847 10.0917 7.27088
62 Ni 2.83261 8.64656 5.84378
63 Al 4.20992 10.276 10.2259
64 Ni 2.81677 8.79749 8.79708
65 Al 7.34635 1.45887 1.36977
66 Ni 5.75015 -0.0443619 -0.0688513
67 Al 7.16177 1.48509 4.29655
68 Ni 5.73811 -0.10785 2.91436
69 Al 7.20795 1.37312 7.11835
70 Ni 5.71003 -0.0332004 5.81136
71 Al 7.18996 1.4968 10.0082
72 Ni 5.70602 -0.0562583 8.69744
73 Al 7.22512 4.41616 1.52368
74 Ni 6.02727 2.85683 0.0175393
75 Al 7.26722 4.27685 4.36651
76 Ni 5.73812 2.89703 2.90596
77 Al 7.37346 4.40573 7.2549
78 Ni 5.83711 3.03568 5.88738
79 Al 7.25957 4.44047 10.1667
80 Ni 5.90466 3.01413 8.73941
81 Al 7.28373 7.21245 1.40608
82 Ni 5.73475 5.77483 0.108915
83 Al 7.21197 7.22371 4.3754
84 Ni 5.74321 5.89134 2.79415
85 Al 7.24574 7.25363 7.28446
86 Ni 5.83169 5.85972 5.83141
87 Al 7.24319 7.39765 10.178
88 Ni 5.76271 5.8327 8.74083
89 Al 7.2089 10.2653 1.39317
90 Ni 5.78279 8.59199 -0.0261669
91 Al 7.17465 10.0701 4.27229
92 Ni 5.7151 8.63098 2.94207
93 Al 7.28374 10.2096 7.24562
94 Ni 5.73 8.61389 5.8307
95 Al 7.18321 10.2386 10.2349
96 Ni 5.80662 8.83669 8.68957
97 Al 10.119 1.44442 1.371
98 Ni 8.61606 0.0315175 -0.112216
99 Al 10.1548 1.52845 4.38582
100 Ni 8.75144 0.0581267 2.96997
101 Al 10.1011 1.51241 7.22467
102 Ni 8.67968 -0.121683 5.73647
103 Al 10.154 1.45419 10.0357
104 Ni 8.57088 0.0319984 8.68414
105 Al 10.246 4.30264 1.36842
106 Ni 8.78146 2.86916 -0.00740104
107 Al 10.1504 4.42527 4.41196
108 Ni 8.71775 2.88472 2.79131
109 Al 10.2001 4.34137 7.25196
110 Ni 8.65596 2.92092 5.80811
111 Al 10.2258 4.46794 10.1093
112 Ni 8.74303 2.90296 8.68375
113 Al 10.2309 7.33479 1.42633
114 Ni 8.70713 5.72427 -0.0294943
115 Al 10.2133 7.41231 4.29624
116 Ni 8.8027 5.8986 2.82061
117 Al 10.0756 7.44623 7.24875
118 Ni 8.71679 5.90233 5.72792
119 Al 10.1729 7.29414 10.0821
120 Ni 8.64993 5.96563 8.63065
121 Al 10.0913 10.2791 1.39787
122 Ni 8.7701 8.68942 -0.0219943
123 Al 10.1834 10.2128 4.39099
124 Ni 8.69266 8.62829 2.8612
125 Al 10.2333 10.3435 7.21556
126 Ni 8.5998 8.70694 5.69293
127 Al 10.1896 10.2944 10.1305
128 Ni 8.70279 8.78376 8.68905
ITEM: TIMESTEP
14300
ITEM: NUMBER OF ATOMS
128
ITEM: BOX BOUNDS xy xz yz pp pp pp
7.9899467192046103e-04 1.1608445534451262e+01 2.5205813443171434e-03
-1.1552903393714163e-01 1.1630671963759625e+01 2.4939627954994291e-02
-2.0481361372999274e-03 1.1583832455961170e+01 -6.6641390001235576e-02
ITEM: ATOMS id element xu yu zu
1 Al 1.47744 1.40513 1.62411
2 Ni 0.0786665 0.00219191 0.0812565
3 Al 1.38382 1.29019 4.29859
4 Ni 0.097199 -0.0905099 3.00717
5 Al 1.4861 1.40441 7.22492
6 Ni 0.00872622 -0.178721 5.60947
7 Al 1.59344 1.38557 10.1121
8 Ni 0.0584369 -0.0741533 8.69797
9 Al 1.3792 4.25432 1.53096
10 Ni 0.154068 2.77191 0.101843
11 Al 1.45518 4.30685 4.34406
12 Ni 0.0296918 2.8136 2.86168
13 Al 1.4556 4.19752 7.11281
14 Ni -0.044912 2.81071 5.77354
15 Al 1.4945 4.08314 10.1829
16 Ni 0.0207909 2.7181 8.72969
17 Al 1.49443 7.11733 1.41776
18 Ni -0.0532267 5.89906 -0.0254377
19 Al 1.42759 7.28047 4.45832
20 Ni 0.0469811 5.70178 2.92416
21 Al 1.51374 7.21467 7.15806
22 Ni 0.00400258 5.59953 5.72259
23 Al 1.43696 7.15379 10.0171
24 Ni 0.0946559 5.45188 8.67941
25 Al 1.51293 10.1749 1.50601
26 Ni 0.070997 8.82337 -0.00322973
27 Al 1.4908 10.0051 4.34427
28 Ni -0.0559797 8.70401 2.86459
29 Al 1.34725 10.129 7.19956
30 Ni -0.0995678 8.84345 5.66438
31 Al 1.48625 10.0965 10.0827
32 Ni -0.135348 8.76746 8.64611
33 Al 4.26075 1.34763 1.46165
34 Ni 2.89601 -0.186159 -0.0010227
35 Al 4.3281 1.36176 4.3528
36 Ni 2.86031 -0.163547 3.03273
37 Al 4.37781 1.37115 7.14984
38 Ni 2.92572 0.0022093 5.82872
39 Al 4.3948 1.25237 10.1057
40 Ni 2.90372 -0.0253605 8.56657
41 Al 4.37061 4.47366 1.46876
42 Ni 2.81913 3.00388 0.0710534
43 Al 4.44855 4.40093 4.24041
44 Ni 3.122 2.89047 2.97283
45 Al 4.35038 4.33675 7.06574
46 Ni 2.82049 2.82831 5.7652
47 Al 4.32706 4.23067 10.0725
48 Ni 3.16993 2.77063 8.62439
49 Al 4.32724 7.26503 1.32407
50 Ni 2.81515 5.77656 -0.0106363
51 Al 4.32491 7.20035 4.20343
52 Ni 2.82866 5.73057 2.81171
53 Al 4.34616 7.05955 7.2176
54 Ni 2.8382 5.72088 5.65632
55 Al 4.31458 7.18074 10.0942
56 Ni 2.81602 5.69214 8.64971
57 Al 4.27281 10.1492 1.41181
58 Ni 2.91469 8.78466 -0.074395
59 Al 4.39119 10.1278 4.42741
60 Ni 2.86676 8.72681 2.7919
61 Al 4.38507 10.0598 7.32319
62 Ni 2.9538 8.66136 5.88234
63 Al 4.33002 10.1613 10.1095
64 Ni 2.94628 8.65171 8.55183
65 Al 7.23651 1.48746 1.40907
66 Ni 5.77244 -0.0696147 0.119381
67 Al 7.19983 1.39421 4.35342
68 Ni 5.76281 -0.123633 2.90511
69 Al 7.34833 1.46051 7.21222
70 Ni 5.85125 -0.125293 5.67659
71 Al 7.17132 1.38975 10.16
72 Ni 5.92805 -0.00380399 8.74903
73 Al 7.22585 4.34969 1.43272
74 Ni 5.63279 2.87833 0.0745032
75 Al 7.30334 4.32014 4.37654
76 Ni 5.91446 2.94463 2.94037
77 Al 7.22128 4.3056 7.24131
78 Ni 5.86932 2.86084 5.64527
79 Al 7.22684 4.17732 10.1737
80 Ni 5.73186 2.78065 8.65801
81 Al 7.20699 7.25042 1.45801
82 Ni 5.80523 5.7503 -0.167379
83 Al 7.27207 7.27755 4.41011
84 Ni 5.75211 5.78461 2.86672
85 Al 7.30347 7.16577 7.38708
86 Ni 5.83042 5.77288 5.79045
87 Al 7.25886 7.20565 10.2575
88 Ni 5.79787 5.67617 8.74822
89 Al 7.17622 10.215 1.38981
90 Ni 5.86054 8.76679 -0.0553732
91 Al 7.26413 9.98409 4.34731
92 Ni 5.6604 8.70629 2.74669
93 Al 7.24518 10.1622 7.29
94 Ni 5.78705 8.73242 5.80013
95 Al 7.29506 10.1813 10.1093
96 Ni 5.87089 8.59574 8.8188
97 Al 10.0069 1.39188 1.52127
98 Ni 8.72363 -0.0627854 0.051078
99 Al 10.0693 1.407 4.31549
100 Ni 8.55146 -0.204804 2.82438
101 Al 10.0962 1.36398 7.17071
102 Ni 8.59115 -0.0925503 5.92786
103 Al 10.2015 1.41702 10.147
104 Ni 8.75885 0.0322931 8.72377
105 Al 10.2953 4.26205 1.31826
106 Ni 8.60773 2.84024 0.0188147
107 Al 10.1491 4.28779 4.30578
108 Ni 8.60377 2.84291 3.05042
109 Al 10.0343 4.37426 7.19834
110 Ni 8.72867 2.92021 5.83999
111 Al 10.2793 4.24328 10.1726
112 Ni 8.69882 2.92181 8.67587
113 Al 10.1823 7.29285 1.51319
114 Ni 8.81387 5.77628 0.0471938
115 Al 10.1533 7.26352 4.3073
116 Ni 8.61275 5.73875 2.87414
117 Al 10.1628 7.25463 7.32116
118 Ni 8.62959 5.80149 5.82897
119 Al 10.1624 7.29764 10.2624
120 Ni 8.92119 5.66006 8.82031
121 Al 10.2056 10.1686 1.43934
122 Ni 8.58676 8.78802 0.0209236
123 Al 10.1043 10.2066 4.33524
124 Ni 8.74291 8.84675 2.91107
125 Al 10.1859 10.2611 7.26587
126 Ni 8.73143 8.71991 5.80987
127 Al 10.2635 10.2745 10.1544
128 Ni 8.66664 8.58959 8.76737
ITEM: TIMESTEP
14400
ITEM: NUMBER OF ATOMS
128
ITEM: BOX BOUNDS xy xz yz pp pp pp
-2.5809350551511123e-02 1.1640875536209771e+01 2.0017922108404085e-02
-1.4216851624282006e-01 1.1630685360453668e+01 1.3263943725983522e-02
-1.5953016728109226e-02 1.1597737336551987e+01 -9.3267475612873671e-02
ITEM: ATOMS id element xu yu zu
1 Al 1.40279 1.42564 1.45202
2 Ni -0.0116 -0.106004 -0.0388619
3 Al 1.44277 1.25576 4.26412
4 Ni 0.0563144 -0.0941138 2.84822
5 Al 1.48992 1.32792 7.17468
6 Ni -0.0355366 -0.0658451 5.93216
7 Al 1.35141 1.30723 10.0999
8 Ni -0.121979 -0.138821 8.70782
9 Al 1.41526 4.28323 1.52268
10 Ni -0.00346389 2.91203 0.0640902
11 Al 1.43782 4.46735 4.37016
12 Ni -0.0488277 2.87014 2.91561
13 Al 1.39119 4.28096 7.21416
14 Ni 0.0898256 2.85903 5.73928
15 Al 1.48652 4.25175 10.2676
16 Ni 0.027572 2.82181 8.71993
17 Al 1.55212 7.15578 1.42467
18 Ni 0.0560129 5.68961 0.0736007
19 Al 1.39459 7.20186 4.44156
20 Ni -0.108184 5.85818 2.8099
21 Al 1.53757 7.24288 7.26853
22 Ni 0.0226017 5.78409 5.87333
23 Al 1.39138 7.11503 10.1248
24 Ni -0.0522597 5.83794 8.7046
25 Al 1.50403 10.1414 1.47549
26 Ni -0.0787683 8.65947 -0.0787707
27 Al 1.40542 10.0711 4.32752
28 Ni -0.0114624 8.7049 2.94202
29 Al 1.34721 10.0916 7.24926
30 Ni -0.00509707 8.43548 5.88587
31 Al 1.48151 10.0599 10.2546
32 Ni 0.12701 8.66751 8.78209
33 Al 4.34308 1.38427 1.40613
34 Ni 2.94137 0.0290455 -0.0716343
35 Al 4.28341 1.33646 4.39086
36 Ni 2.97251 -0.0933663 2.7949
37 Al 4.30882 1.40976 7.31245
38 Ni 2.83844 -0.196521 5.7381
39 Al 4.30135 1.3166 9.98121
40 Ni 2.86446 -0.131597 8.71144
41 Al 4.32292 4.39191 1.48077
42 Ni 2.94133 2.75436 -0.040185
43 Al 4.37978 4.3701 4.28686
44 Ni 2.77926 2.83039 2.81329
45 Al 4.30911 4.35356 7.25409
46 Ni 3.0864 2.78794 5.83908
47 Al 4.36669 4.22088 10.1605
48 Ni 2.62064 2.7522 8.76975
49 Al 4.39423 7.24722 1.61664
50 Ni 2.94274 5.84235 0.096092
51 Al 4.36334 7.25065 4.40811
52 Ni 2.98151 5.82113 2.98974
53 Al 4.27064 7.24814 7.23325
54 Ni 2.91599 5.81514 5.89402
55 Al 4.3498 7.13243 10.2076
56 Ni 2.94635 5.88067 8.63548
57 Al 4.32171 10.133 1.33824
58 Ni 2.91422 8.6896 -0.0240946
59 Al 4.47151 10.1563 4.34015
60 Ni 2.97146 8.62849 2.93801
61 Al 4.2664 10.0456 7.2036
62 Ni 2.84662 8.71454 5.69393
63 Al 4.3365 10.1085 10.084
64 Ni 2.82892 8.6606 8.79843
65 Al 7.18649 1.33422 1.40496
66 Ni 5.74204 0.0228859 -0.238937
67 Al 7.10205 1.52825 4.30624
68 Ni 5.79561 -0.0970231 2.91199
69 Al 7.41136 1.45465 7.35399
70 Ni 5.85991 -0.0555493 5.90434
71 Al 7.20267 1.34902 10.1749
72 Ni 5.77971 -0.0616458 8.62763
73 Al 7.2168 4.27224 1.44428
74 Ni 5.84583 2.86878 -0.116387
75 Al 7.22607 4.29194 4.31772
76 Ni 5.65724 2.83447 2.84224
77 Al 7.28095 4.24501 7.17203
78 Ni 5.7844 2.82052 5.90981
79 Al 7.20766 4.22281 10.1825
80 Ni 5.8092 2.88664 8.76926
81 Al 7.19257 7.27656 1.25442
82 Ni 5.7557 5.85705 0.0849064
83 Al 7.33434 7.28878 4.42441
84 Ni 5.88299 5.86169 2.88342
85 Al 7.2831 7.16645 7.23757
86 Ni 5.73376 5.82465 5.7992
87 Al 7.19976 7.20444 10.0355
88 Ni 5.73782 5.82206 8.56287
89 Al 7.25112 10.1629 1.35279
90 Ni 5.68622 8.69351 -0.112392
91 Al 7.42336 10.1402 4.39377
92 Ni 5.93389 8.67021 2.96648
93 Al 7.30188 10.2638 7.17693
94 Ni 5.91721 8.6933 5.82686
95 Al 7.22173 10.0486 10.0986
96 Ni 5.8139 8.67266 8.55859
97 Al 10.2057 1.28465 1.49695
98 Ni 8.64655 -0.0362831 0.0613591
99 Al 10.2776 1.34548 4.328
100 Ni 8.7707 0.0672016 2.84927
101 Al 10.0756 1.34542 7.21762
102 Ni 8.79842 -0.0691501 5.64098
103 Al 10.176 1.30882 10.2095
104 Ni 8.69034 -0.18558 8.75448
105 Al 10.2643 4.37904 1.38468
106 Ni 8.70154 2.9544 0.0455466
107 Al 10.1929 4.19539 4.3662
108 Ni 8.6917 2.77839 2.70803
109 Al 10.052 4.19966 7.21643
110 Ni 8.62637 2.727 5.62742
111 Al 10.2441 4.27049 10.1283
112 Ni 8.79412 2.67385 8.84909
113 Al 10.2429 7.20301 1.32452
114 Ni 8.59092 5.78252 -0.157393
115 Al 10.173 7.26003 4.31453
116 Ni 8.70279 5.86971 2.89153
117 Al 10.0769 7.09248 7.30958
118 Ni 8.75723 5.60997 5.79632
119 Al 10.0748 7.1341 10.1915
120 Ni 8.68645 5.59796 8.60954
121 Al 10.1251 10.0159 1.41478
122 Ni 8.82684 8.63233 -0.0609588
123 Al 10.2802 9.97885 4.44196
124 Ni 8.65896 8.53012 2.74646
125 Al 10.2309 10.0593 7.32263
126 Ni 8.69708 8.64207 5.86012
127 Al 10.2346 10.1153 10.1548
128 Ni 8.74572 8.69423 8.70231
ITEM: TIMESTEP
14500
ITEM: NUMBER OF ATOMS
128
ITEM: BOX BOUNDS xy xz yz pp pp pp
-5.5254857340573747e-02 1.1655036470265552e+01 -1.2443278374014231e-02
-8.4601400868367094e-03 1.1691436951446038e+01 3.0440571475120155e-02
-2.2262635583278012e-02 1.1604046955407171e+01 1.0119249153547775e-01
ITEM: ATOMS id element xu yu zu
1 Al 1.44539 1.53252 1.47546
2 Ni -0.139483 -0.0571408 0.0153611
3 Al 1.44769 1.44966 4.28669
4 Ni -0.176441 0.00134719 2.73037
5 Al 1.38592 1.52255 7.28563
6 Ni 0.0195281 0.130914 5.69567
7 Al 1.42905 1.57771 10.1217
8 Ni 0.039394 0.0346388 8.72366
9 Al 1.37923 4.39904 1.36026
10 Ni -0.0832467 3.00263 -0.12743
11 Al 1.43887 4.52681 4.29438
12 Ni 0.114145 2.98522 2.8306
13 Al 1.42903 4.42956 7.24061
14 Ni -0.0643167 2.95083 5.81589
15 Al 1.42164 4.46432 10.1157
16 Ni -0.0725539 3.03054 8.75937
17 Al 1.46012 7.15238 1.43265
18 Ni -0.0888675 5.90612 -0.049186
19 Al 1.34419 7.32069 4.43553
20 Ni 0.0512965 5.74116 2.98691
21 Al 1.44895 7.28258 7.21658
22 Ni -0.0444507 5.81839 5.75723
23 Al 1.43733 7.41468 10.0696
24 Ni 0.00823817 5.79183 8.65371
25 Al 1.3407 10.22 1.45646
26 Ni -0.024235 8.64371 0.052106
27 Al 1.36284 10.197 4.32392
28 Ni -0.136821 8.67874 2.83689
29 Al 1.41296 10.2106 7.25199
30 Ni -0.016295 9.00716 5.73144
31 Al 1.34879 10.1725 10.1814
32 Ni -0.128109 8.72757 8.6868
33 Al 4.28816 1.44048 1.45853
34 Ni 2.87024 -0.0455723 0.0460403
35 Al 4.33746 1.47657 4.37277
36 Ni 2.82051 0.0822766 2.93707
37 Al 4.28212 1.52057 7.28042
38 Ni 2.85961 0.101391 5.84545
39 Al 4.35239 1.4669 10.2129
40 Ni 2.87937 0.0640533 8.81854
41 Al 4.30194 4.35657 1.44194
42 Ni 2.72038 2.99327 -0.0333626
43 Al 4.28183 4.39347 4.37899
44 Ni 2.99646 2.87794 2.94444
45 Al 4.43862 4.38505 7.2059
46 Ni 2.65571 3.0125 5.8695
47 Al 4.46988 4.30261 10.2305
48 Ni 3.05896 2.98097 8.69567
49 Al 4.35965 7.21324 1.5403
50 Ni 2.9389 5.77045 -0.0986734
51 Al 4.26462 7.26835 4.35861
52 Ni 2.9505 5.81806 2.81996
53 Al 4.36591 7.23064 7.22688
54 Ni 2.93231 5.84916 5.75136
55 Al 4.48211 7.36295 10.2018
56 Ni 2.96742 5.78556 8.7452
57 Al 4.21634 10.1363 1.45286
58 Ni 2.81667 8.74731 0.0520602
59 Al 4.22224 10.2136 4.30462
60 Ni 2.83612 8.83186 2.89446
61 Al 4.36651 10.1512 7.19222
62 Ni 2.87019 8.69462 5.84525
63 Al 4.3484 10.2223 10.2348
64 Ni 2.92574 8.77429 8.71827
65 Al 7.33353 1.35399 1.4129
66 Ni 5.84964 -0.10175 0.111319
67 Al 7.32074 1.59861 4.37467
68 Ni 5.80966 0.0489519 2.80714
69 Al 7.31591 1.51509 7.27242
70 Ni 5.62672 0.0107494 5.68818
71 Al 7.22845 1.55263 10.158
72 Ni 5.81372 -0.0116154 8.72939
73 Al 7.2314 4.26477 1.38823
74 Ni 5.87057 2.92417 -0.000877162
75 Al 7.22617 4.32048 4.35228
76 Ni 5.91015 2.83148 2.86039
77 Al 7.33239 4.37726 7.17696
78 Ni 5.75697 2.84856 5.75015
79 Al 7.26032 4.34331 10.1695
80 Ni 5.85703 2.77616 8.61379
81 Al 7.13066 7.22926 1.46587
82 Ni 5.78587 5.77072 -0.0964032
83 Al 7.22851 7.31925 4.30121
84 Ni 5.65616 5.70023 2.93304
85 Al 7.24603 7.34007 7.0988
86 Ni 5.89076 5.62364 5.79593
87 Al 7.2265 7.35799 10.096
88 Ni 5.82998 5.76295 8.72652
89 Al 7.32426 10.0979 1.50066
90 Ni 5.93686 8.72864 0.0720295
91 Al 7.19495 10.3231 4.51769
92 Ni 5.74469 8.7354 2.88927
93 Al 7.23842 10.313 7.18495
94 Ni 5.80673 8.8011 5.74634
95 Al 7.22625 10.2395 10.0647
96 Ni 5.8296 8.82678 8.71951
97 Al 10.1758 1.52159 1.50233
98 Ni 8.72308 -0.0560366 -0.199288
99 Al 10.2922 1.43448 4.26147
100 Ni 8.67823 -0.0303584 2.82682
101 Al 10.1339 1.48806 7.20625
102 Ni 8.77078 0.0660964 5.88249
103 Al 10.2126 1.50486 10.0655
104 Ni 8.84551 0.120807 8.61139
105 Al 10.3278 4.38948 1.4274
106 Ni 8.63915 2.84896 -0.205279
107 Al 10.2156 4.28241 4.42372
108 Ni 8.68642 2.99066 3.00143
109 Al 10.1781 4.46401 7.27837
110 Ni 8.8758 2.98146 5.88837
111 Al 10.0967 4.45126 10.2258
112 Ni 8.74983 3.088 8.55593
113 Al 10.1175 7.26317 1.39417
114 Ni 8.66156 5.84 0.0970242
115 Al 10.1927 7.2682 4.30084
116 Ni 8.67036 5.70013 2.89493
117 Al 10.1639 7.22126 7.16697
118 Ni 8.69211 5.81015 5.8388
119 Al 10.0912 7.33801 10.2295
120 Ni 8.71485 5.94645 8.67917
121 Al 10.0376 9.98378 1.28449
122 Ni 8.50257 8.67147 -0.0603339
123 Al 10.1717 10.1758 4.38776
124 Ni 8.81532 8.78053 3.08347
125 Al 10.248 10.2259 7.27527
126 Ni 8.79384 8.8003 5.66813
127 Al 10.1808 10.1508 10.1095
128 Ni 8.66597 8.6825 8.63396
ITEM: TIMESTEP
14600
ITEM: NUMBER OF ATOMS
128
ITEM: BOX BOUNDS xy xz yz pp pp pp
-5.9909748221149250e-02 1.1650959715772396e+01 -1.6751138026322995e-02
1.6199165163345519e-02 1.1638813952087048e+01 2.6016785753691863e-02
-3.1182079879666702e-02 1.1612966399703549e+01 7.3228797426669157e-02
ITEM: ATOMS id element xu yu zu
1 Al 1.44703 1.51926 1.48079
2 Ni -0.000375997 0.0593566 -0.121687
3 Al 1.46841 1.51017 4.3966
4 Ni 0.0298724 0.188085 2.99578
5 Al 1.41665 1.49123 7.26208
6 Ni 0.0133193 -0.0147888 5.87408
7 Al 1.48609 1.54002 10.1853
8 Ni -0.000579286 0.0806353 8.81117
9 Al 1.30951 4.36673 1.32004
10 Ni 0.00156849 2.88007 -0.0128793
11 Al 1.32959 4.38664 4.24019
12 Ni -0.258437 2.90453 2.77876
13 Al 1.50074 4.35653 7.28045
14 Ni 0.0264463 2.98612 5.9103
15 Al 1.38498 4.42221 10.1947
16 Ni -0.00990748 3.00846 8.71432
17 Al 1.34591 7.22196 1.35632
18 Ni -0.153554 5.82184 0.000123917
19 Al 1.44214 7.16649 4.34054
20 Ni -0.014908 5.84822 2.79826
21 Al 1.42273 7.27853 7.2451
22 Ni 0.104048 5.82025 5.79261
23 Al 1.44435 7.38127 10.1968
24 Ni -0.0752458 5.94142 8.68407
25 Al 1.40207 10.1492 1.33358
26 Ni -0.115813 8.71879 -0.125127
27 Al 1.41503 10.1054 4.36465
28 Ni 0.0650571 8.74919 2.96549
29 Al 1.45659 10.1162 7.18834
30 Ni 0.0516193 8.56263 5.748
31 Al 1.44385 10.1154 10.0626
32 Ni 0.055694 8.77637 8.70367
33 Al 4.31865 1.44383 1.51299
34 Ni 2.81748 -0.0108368 -0.0786159
35 Al 4.37591 1.43312 4.30256
36 Ni 2.82824 0.0111048 2.74263
37 Al 4.36731 1.57539 7.24102
38 Ni 2.83648 0.0536146 5.67887
39 Al 4.35957 1.50345 10.1941
40 Ni 2.93339 0.0901872 8.67705
41 Al 4.32896 4.34308 1.44724
42 Ni 3.02602 2.82102 -0.0124328
43 Al 4.29752 4.43102 4.32154
44 Ni 2.73185 2.9485 2.7126
45 Al 4.44466 4.41308 7.24656
46 Ni 3.07278 2.78533 5.70205
47 Al 4.39166 4.47718 10.2328
48 Ni 2.89967 2.84145 8.76721
49 Al 4.30854 7.0711 1.45283
50 Ni 2.79504 5.73845 -0.0056697
51 Al 4.17224 7.18171 4.23148
52 Ni 2.81791 5.69128 2.90854
53 Al 4.24264 7.26256 7.16612
54 Ni 2.82554 5.7613 5.8125
55 Al 4.45512 7.27511 10.1452
56 Ni 2.85742 5.87543 8.66077
57 Al 4.28442 10.178 1.42204
58 Ni 2.89628 8.61499 -0.12989
59 Al 4.19059 10.1478 4.29339
60 Ni 2.89819 8.59603 2.71455
61 Al 4.36819 10.206 7.18946
62 Ni 2.89708 8.73899 5.79615
63 Al 4.36417 10.2599 10.1995
64 Ni 2.87913 8.65434 8.67199
65 Al 7.23684 1.44333 1.51888
66 Ni 5.87692 0.0825962 -0.0531638
67 Al 7.35685 1.50162 4.33608
68 Ni 5.82358 0.0399672 3.01519
69 Al 7.23542 1.46219 7.30182
70 Ni 5.91183 -0.00447323 5.77924
71 Al 7.29674 1.58585 10.1835
72 Ni 5.75841 0.129218 8.68582
73 Al 7.20789 4.31095 1.42306
74 Ni 5.79366 2.78575 -0.0323006
75 Al 7.26318 4.36205 4.29173
76 Ni 5.76085 2.96446 2.93665
77 Al 7.32569 4.38513 7.20213
78 Ni 5.87629 2.94792 5.76575
79 Al 7.29235 4.33956 10.1804
80 Ni 5.72681 3.01818 8.80455
81 Al 7.15887 7.36958 1.39035
82 Ni 5.8746 5.74687 -0.00738222
83 Al 7.18865 7.29299 4.29361
84 Ni 5.87884 5.84978 2.84433
85 Al 7.21524 7.20619 7.17779
86 Ni 5.64924 5.99855 5.71547
87 Al 7.38045 7.33827 10.1872
88 Ni 5.80609 5.92858 8.74552
89 Al 7.24525 10.1819 1.39048
90 Ni 5.64094 8.68507 -0.0502699
91 Al 7.10769 10.0142 4.4161
92 Ni 5.66852 8.62951 2.83118
93 Al 7.13726 10.1306 7.20742
94 Ni 5.64591 8.71035 5.76541
95 Al 7.19152 10.1205 10.1794
96 Ni 5.77045 8.67833 8.73741
97 Al 10.2417 1.45106 1.44295
98 Ni 8.71908 0.023723 0.120661
99 Al 10.3487 1.49225 4.4373
100 Ni 8.81466 0.165948 2.867
101 Al 10.0628 1.49209 7.29736
102 Ni 8.71061 0.0931837 5.87844
103 Al 10.2177 1.48819 10.1422
104 Ni 8.66054 -0.00445752 8.77714
105 Al 10.1921 4.40524 1.44474
106 Ni 8.67861 2.96548 -0.0171409
107 Al 10.1623 4.4073 4.39174
108 Ni 8.76979 2.83453 2.88945
109 Al 10.131 4.40543 7.1993
110 Ni 8.59387 2.89481 5.8174
111 Al 10.1753 4.36802 10.22
112 Ni 8.69257 2.84741 8.76907
113 Al 10.1682 7.35148 1.39238
114 Ni 8.71563 5.86117 -0.0661167
115 Al 10.152 7.42932 4.29472
116 Ni 8.70905 5.91291 2.97194
117 Al 10.1498 7.2061 7.22311
118 Ni 8.68381 5.9409 5.71033
119 Al 10.2074 7.29355 10.1054
120 Ni 8.72773 5.87845 8.58841
121 Al 10.2549 10.167 1.44552
122 Ni 8.82893 8.71429 0.143022
123 Al 10.2015 10.0633 4.40136
124 Ni 8.68455 8.72454 2.78846
125 Al 10.2268 10.1282 7.29079
126 Ni 8.57349 8.70424 5.88783
127 Al 10.104 10.1307 10.1661
128 Ni 8.71192 8.76299 8.64968
ITEM: TIMESTEP
14700
ITEM: NUMBER OF ATOMS
128
ITEM: BOX BOUNDS xy xz yz pp pp pp
-3.9908346483551765e-02 1.1636681244762023e+01 1.6516869768720369e-02
-1.2656339966838320e-01 1.1597737208782313e+01 -1.5282913141217720e-03
-4.2443502834488278e-02 1.1624227822658369e+01 -1.1061051070978715e-01
ITEM: ATOMS id element xu yu zu
1 Al 1.45091 1.41288 1.54385
2 Ni -0.0376129 -0.046439 -0.00907326
3 Al 1.32689 1.2618 4.43285
4 Ni -0.0192823 -0.234893 2.86499
5 Al 1.49101 1.36839 7.17323
6 Ni -0.122826 0.0111746 5.76372
7 Al 1.44696 1.24646 10.144
8 Ni -0.065731 -0.0779878 8.54835
9 Al 1.40362 4.26522 1.4552
10 Ni -0.179882 2.85699 -0.11542
11 Al 1.46997 4.41947 4.36117
12 Ni 0.104651 2.8459 3.06865
13 Al 1.29641 4.32258 7.25132
14 Ni -0.133417 2.74946 5.72393
15 Al 1.35783 4.09146 10.1968
16 Ni -0.0580885 2.67207 8.64984
17 Al 1.27188 7.1912 1.3938
18 Ni 0.04117 5.64372 -0.0760679
19 Al 1.46494 7.13557 4.37309
20 Ni -0.0714801 5.72157 2.95447
21 Al 1.43636 7.16102 7.26236
22 Ni -0.162745 5.64818 5.87169
23 Al 1.38593 7.17103 10.2253
24 Ni -0.0297705 5.60032 8.71419
25 Al 1.49329 10.1655 1.42824
26 Ni 0.0659526 8.75886 -0.0637291
27 Al 1.45451 10.1068 4.48764
28 Ni -0.0963093 8.55285 2.85345
29 Al 1.44322 10.0351 7.21896
30 Ni -0.0322058 8.73703 5.87616
31 Al 1.42521 10.0594 10.0994
32 Ni -0.0694739 8.56286 8.72047
33 Al 4.27639 1.54126 1.44604
34 Ni 2.99431 0.133662 -0.0249045
35 Al 4.25504 1.43064 4.35964
36 Ni 2.93101 0.00803039 2.96202
37 Al 4.37904 1.38677 7.24994
38 Ni 3.00823 -0.123257 5.90138
39 Al 4.36812 1.48795 10.1726
40 Ni 2.91114 -0.0964262 8.67786
41 Al 4.30718 4.3823 1.38958
42 Ni 2.73418 2.89895 -0.00449794
43 Al 4.35992 4.40159 4.24618
44 Ni 3.00738 2.81696 3.0058
45 Al 4.35808 4.2871 7.28558
46 Ni 2.80861 2.98485 5.86993
47 Al 4.40739 4.30063 10.1902
48 Ni 2.8211 2.8702 8.64168
49 Al 4.34683 7.28571 1.47421
50 Ni 2.85321 5.73027 -0.0209914
51 Al 4.39339 7.14959 4.25897
52 Ni 2.83564 5.84466 2.74425
53 Al 4.36361 7.1404 7.14097
54 Ni 2.99981 5.79066 5.75917
55 Al 4.32328 7.2043 10.1136
56 Ni 2.85339 5.59003 8.75747
57 Al 4.30272 10.2022 1.50716
58 Ni 2.79032 8.69136 -0.00124974
59 Al 4.38073 10.0945 4.42807
60 Ni 2.88987 8.74538 2.97348
61 Al 4.42759 10.0381 7.20433
62 Ni 2.89059 8.58747 5.73359
63 Al 4.3487 10.0296 10.2178
64 Ni 2.79244 8.61147 8.82091
65 Al 7.22671 1.41712 1.38664
66 Ni 5.62462 -0.107804 -0.0942752
67 Al 7.24158 1.38602 4.32032
68 Ni 5.76403 -0.0382225 2.7263
69 Al 7.27106 1.29911 7.15014
70 Ni 5.75995 -0.0601892 5.82866
71 Al 7.17575 1.4574 10.133
72 Ni 5.84981 -0.247194 8.71453
73 Al 7.22956 4.38558 1.34996
74 Ni 5.86503 3.08531 -0.0572788
75 Al 7.28302 4.22645 4.31067
76 Ni 5.84278 2.82707 2.80963
77 Al 7.26922 4.26862 7.26622
78 Ni 5.70573 2.89106 5.83649
79 Al 7.30906 4.19553 10.1818
80 Ni 5.89461 2.89564 8.69116
81 Al 7.27443 7.30804 1.42351
82 Ni 5.74253 5.8661 -0.0516983
83 Al 7.34926 7.10944 4.34093
84 Ni 5.83906 5.87587 2.85362
85 Al 7.40088 7.14231 7.28234
86 Ni 5.84774 5.6972 5.76705
87 Al 7.25574 7.12341 10.1863
88 Ni 5.73607 5.70286 8.7132
89 Al 7.31641 10.1373 1.27433
90 Ni 5.84456 8.65281 -0.114061
91 Al 7.15262 9.96515 4.38063
92 Ni 5.91059 8.70499 2.80943
93 Al 7.23751 10.0671 7.14831
94 Ni 5.894 8.62605 5.84582
95 Al 7.2405 10.0574 10.1083
96 Ni 5.7957 8.63125 8.68077
97 Al 10.2283 1.37286 1.52774
98 Ni 8.65205 -0.0448362 -0.083486
99 Al 10.0972 1.40691 4.27549
100 Ni 8.69273 -0.161923 2.84752
101 Al 10.0663 1.42735 7.24237
102 Ni 8.66112 -0.113852 5.71834
103 Al 10.1645 1.34181 10.087
104 Ni 8.70086 0.0155267 8.70814
105 Al 10.323 4.27975 1.46736
106 Ni 8.72682 2.80246 -0.00738608
107 Al 10.149 4.37125 4.26667
108 Ni 8.68824 2.87665 2.86461
109 Al 10.0863 4.27454 7.21499
110 Ni 8.70811 2.91472 5.81892
111 Al 10.1282 4.24582 10.1841
112 Ni 8.67838 2.89107 8.66787
113 Al 10.1664 7.26753 1.30214
114 Ni 8.73087 5.77624 -0.0707847
115 Al 10.2328 7.26079 4.44426
116 Ni 8.75664 5.80125 2.79671
117 Al 10.1661 7.10285 7.39907
118 Ni 8.7101 5.70106 5.93361
119 Al 10.2045 7.14343 10.143
120 Ni 8.675 5.71558 8.77134
121 Al 10.1097 10.0698 1.31429
122 Ni 8.70614 8.7671 -0.21577
123 Al 10.293 10.0217 4.34207
124 Ni 8.82367 8.63839 2.89311
125 Al 10.0711 10.1863 7.23278
126 Ni 8.81425 8.62733 5.72061
127 Al 10.2182 10.0646 10.1228
128 Ni 8.71802 8.65294 8.78657
ITEM: TIMESTEP
14800
ITEM: NUMBER OF ATOMS
128
ITEM: BOX BOUNDS xy xz yz pp pp pp
2.4324673161784105e-03 1.1589006581181126e+01 8.8846123648288269e-03
-5.3152933357356213e-02 1.1615507770831705e+01 7.7011630859383576e-04
-1.4089601070360835e-02 1.1595873920894242e+01 -1.9429482349360649e-02
ITEM: ATOMS id element xu yu zu
1 Al 1.545 1.3521 1.48962
2 Ni -0.0272263 0.04663 0.100575
3 Al 1.25346 1.36549 4.2784
4 Ni -0.0971945 0.176249 2.87042
5 Al 1.51693 1.41131 7.17492
6 Ni 0.025053 -0.174567 5.74026
7 Al 1.45961 1.40732 10.1181
8 Ni -0.0157408 -0.0448923 8.78375
9 Al 1.55797 4.37693 1.48541
10 Ni 0.204687 2.8693 0.175973
11 Al 1.46529 4.35795 4.38899
12 Ni -0.0448421 2.90506 2.78231
13 Al 1.40432 4.39561 7.31791
14 Ni 0.106305 2.89109 5.77051
15 Al 1.44818 4.30294 10.2382
16 Ni 0.00403442 2.89292 8.67179
17 Al 1.47371 7.27017 1.45673
18 Ni 0.000967004 5.82715 0.0420156
19 Al 1.55396 7.28952 4.32642
20 Ni 0.131956 5.78834 2.89356
21 Al 1.38444 7.26941 7.26493
22 Ni 0.0150157 5.84146 5.72746
23 Al 1.35957 7.33055 10.2141
24 Ni -0.00518253 5.77648 8.70297
25 Al 1.42904 10.163 1.48847
26 Ni 0.0199128 8.65992 0.0226843
27 Al 1.51445 10.2058 4.34373
28 Ni 0.023943 8.81567 2.85783
29 Al 1.43604 10.1259 7.17085
30 Ni -0.111919 8.70687 5.71838
31 Al 1.41651 10.1295 10.1341
32 Ni 0.0917923 8.79638 8.70572
33 Al 4.23494 1.33953 1.47627
34 Ni 2.70887 -0.118829 -0.0200217
35 Al 4.30442 1.43359 4.16625
36 Ni 2.97441 -0.129538 2.91456
37 Al 4.36727 1.38194 7.06778
38 Ni 2.87321 -0.0544417 5.73558
39 Al 4.28417 1.32827 10.2235
40 Ni 2.79465 0.0101729 8.71379
41 Al 4.3107 4.27844 1.35408
42 Ni 2.96359 2.84938 -0.029359
43 Al 4.35164 4.33262 4.35182
44 Ni 2.86467 2.91042 2.88238
45 Al 4.3129 4.21758 7.26039
46 Ni 3.03534 2.771 5.73167
47 Al 4.38024 4.30303 10.1106
48 Ni 2.92972 2.81536 8.723
49 Al 4.40875 7.19933 1.54617
50 Ni 2.87621 5.78161 0.022295
51 Al 4.39058 7.16527 4.44803
52 Ni 2.98528 5.85645 3.16204
53 Al 4.4452 7.16361 7.16517
54 Ni 2.82649 5.83468 5.81126
55 Al 4.25044 7.1748 10.1393
56 Ni 2.91336 5.84991 8.62213
57 Al 4.34684 10.2384 1.48901
58 Ni 2.88763 8.77934 -0.110917
59 Al 4.39273 10.1131 4.3759
60 Ni 2.83784 8.67882 2.87928
61 Al 4.41375 10.1735 7.16664
62 Ni 2.89378 8.70404 5.93071
63 Al 4.49136 10.1016 10.0797
64 Ni 2.90897 8.65935 8.62777
65 Al 7.19727 1.4801 1.43266
66 Ni 5.89288 -0.0476916 0.0151423
67 Al 7.22337 1.43868 4.322
68 Ni 5.82349 -0.0443615 2.94885
69 Al 7.23629 1.40445 7.1616
70 Ni 5.84922 -0.109868 5.88084
71 Al 7.22826 1.44463 10.0486
72 Ni 5.62352 0.102012 8.62779
73 Al 7.11455 4.32689 1.32899
74 Ni 5.69253 2.70636 -0.0403225
75 Al 7.32464 4.40539 4.31579
76 Ni 5.79142 2.92099 2.88698
77 Al 7.2822 4.34349 7.32185
78 Ni 5.98854 2.93226 5.73601
79 Al 7.20634 4.22189 10.0671
80 Ni 5.68805 2.80965 8.77817
81 Al 7.25336 7.19544 1.46426
82 Ni 5.71421 5.71002 -0.029767
83 Al 7.24175 7.24187 4.30999
84 Ni 5.70348 5.74387 2.85193
85 Al 7.3776 7.14935 7.22433
86 Ni 5.85559 5.85693 5.82876
87 Al 7.25236 7.1995 10.1851
88 Ni 5.81012 5.7605 8.76261
89 Al 7.3012 10.1041 1.42331
90 Ni 5.76112 8.74658 0.0457872
91 Al 7.2256 10.1418 4.39033
92 Ni 5.77865 8.64733 2.93242
93 Al 7.15089 10.1771 7.27043
94 Ni 5.83734 8.74823 5.77504
95 Al 7.22362 10.1675 10.1518
96 Ni 5.85154 8.68689 8.75644
97 Al 10.0838 1.5 1.39876
98 Ni 8.78148 -0.0822161 -0.0421898
99 Al 10.0858 1.48614 4.30362
100 Ni 8.64144 0.0382499 2.76197
101 Al 10.2278 1.42809 7.26464
102 Ni 8.62604 0.0204988 5.8881
103 Al 10.1994 1.50728 10.1123
104 Ni 8.69213 -0.0536725 8.65055
105 Al 10.1851 4.32813 1.41452
106 Ni 8.59557 2.90024 -0.138977
107 Al 10.2491 4.3734 4.21036
108 Ni 8.64071 2.86456 2.88053
109 Al 10.0724 4.29281 7.09866
110 Ni 8.62983 2.78143 5.65957
111 Al 10.2184 4.35775 10.1984
112 Ni 8.65713 2.7455 8.72542
113 Al 10.1575 7.27461 1.47602
114 Ni 8.78711 5.75177 -0.0540367
115 Al 10.1153 7.30551 4.3568
116 Ni 8.6434 5.66745 2.82224
117 Al 10.1723 7.17067 7.26217
118 Ni 8.72688 5.74674 5.68009
119 Al 10.1291 7.35137 10.087
120 Ni 8.8721 5.68983 8.75165
121 Al 10.0754 10.1785 1.46411
122 Ni 8.65291 8.62095 0.000321395
123 Al 10.1633 10.1345 4.29916
124 Ni 8.56107 8.6965 2.87959
125 Al 10.05 10.2144 7.23537
126 Ni 8.59152 8.7302 5.85434
127 Al 10.1476 10.1182 10.201
128 Ni 8.74075 8.5536 8.66385
ITEM: TIMESTEP
14900
ITEM: NUMBER OF ATOMS
128
ITEM: BOX BOUNDS xy xz yz pp pp pp
-6.4025094481434064e-02 1.1633474011150087e+01 -3.7362681799521465e-02
-6.4814339832793166e-02 1.1787061806987031e+01 2.5027278644296623e-02
-3.1235115016666981e-02 1.1613019434840535e+01 1.4046314733054258e-01
ITEM: ATOMS id element xu yu zu
1 Al 1.35035 1.35557 1.27927
2 Ni -0.00149862 -0.207357 -0.168926
3 Al 1.40179 1.4258 4.13573
4 Ni -0.0506442 -0.119761 2.87855
5 Al 1.42444 1.4601 7.26994
6 Ni -0.0754839 0.187273 5.8647
7 Al 1.49551 1.49098 10.1151
8 Ni -0.015367 -0.0192675 8.68274
9 Al 1.4588 4.29226 1.3745
10 Ni -0.0703966 2.98862 -0.199898
11 Al 1.39281 4.43537 4.26601
12 Ni -0.011895 2.87155 2.91208
13 Al 1.43509 4.38369 7.23838
14 Ni -0.0472163 2.93986 5.88296
15 Al 1.44424 4.51944 10.1699
16 Ni 0.0831353 3.02495 8.73895
17 Al 1.39698 7.32789 1.41211
18 Ni 0.122716 5.84387 -0.0520931
19 Al 1.56099 7.2573 4.20472
20 Ni -0.107114 5.87191 2.88428
21 Al 1.39936 7.32278 7.23126
22 Ni -0.0408188 5.81461 5.72195
23 Al 1.35183 7.5157 10.173
24 Ni 0.0107662 5.97686 8.68764
25 Al 1.39133 10.1698 1.4482
26 Ni -0.145021 8.66276 -0.00523456
27 Al 1.31442 10.4593 4.34883
28 Ni -0.0950485 8.67095 2.91253
29 Al 1.40551 10.2039 7.17106
30 Ni 0.0622629 8.7749 5.78352
31 Al 1.34426 10.1636 10.1857
32 Ni -0.200816 8.61688 8.7276
33 Al 4.30943 1.36292 1.4242
34 Ni 2.97034 -0.0443759 0.0667741
35 Al 4.30858 1.4571 4.31388
36 Ni 2.79551 -0.0414219 2.75303
37 Al 4.23748 1.37187 7.20256
38 Ni 2.78149 0.0245816 5.75068
39 Al 4.3906 1.58245 10.183
40 Ni 2.90466 -0.00371552 8.71183
41 Al 4.34965 4.274 1.34008
42 Ni 2.84255 2.87297 0.0532456
43 Al 4.19807 4.41996 4.27486
44 Ni 2.97768 2.86819 2.84101
45 Al 4.26237 4.32076 7.30061
46 Ni 2.79113 2.93586 5.79187
47 Al 4.37746 4.39206 10.1659
48 Ni 2.84356 2.93701 8.71128
49 Al 4.48538 7.19033 1.49891
50 Ni 2.92176 5.8875 -0.16835
51 Al 4.31119 7.23173 4.34686
52 Ni 2.81026 5.79341 2.67118
53 Al 4.27614 7.38843 7.20933
54 Ni 2.96423 5.87016 5.77483
55 Al 4.33326 7.28242 10.052
56 Ni 2.90712 5.87454 8.64175
57 Al 4.35126 10.2489 1.43427
58 Ni 2.90967 8.63488 -0.0393648
59 Al 4.32213 10.2553 4.39319
60 Ni 2.98778 8.7525 2.82735
61 Al 4.37633 10.3513 7.09365
62 Ni 2.90208 8.86072 5.73661
63 Al 4.37679 10.2044 10.0784
64 Ni 2.83139 8.90211 8.76059
65 Al 7.25784 1.481 1.50332
66 Ni 5.69493 -0.0724785 -0.120272
67 Al 7.38463 1.64965 4.44496
68 Ni 5.79079 -0.0907596 2.84426
69 Al 7.23892 1.47395 7.28052
70 Ni 5.90656 -0.00372151 5.78863
71 Al 7.3548 1.70603 10.1635
72 Ni 5.93546 -0.131089 8.74181
73 Al 7.14776 4.3337 1.46019
74 Ni 5.80624 2.94029 -0.076079
75 Al 7.30041 4.43255 4.44114
76 Ni 5.68532 2.80662 2.92073
77 Al 7.20475 4.44101 7.33271
78 Ni 5.5972 2.80187 5.89406
79 Al 7.20097 4.39812 10.1458
80 Ni 5.75851 3.0087 8.71506
81 Al 7.29226 7.25604 1.41952
82 Ni 5.80394 5.83495 -0.0561792
83 Al 7.13311 7.4332 4.34979
84 Ni 5.8538 5.83419 2.96787
85 Al 7.21508 7.39644 7.14049
86 Ni 5.79416 5.76378 5.79711
87 Al 7.29082 7.38457 10.04
88 Ni 5.76758 5.86266 8.62071
89 Al 7.23493 10.1109 1.44235
90 Ni 5.76816 8.685 -0.1511
91 Al 7.21561 10.2205 4.34912
92 Ni 5.73521 8.76729 2.83804
93 Al 7.26949 10.3477 7.15351
94 Ni 5.72566 8.75704 5.88638
95 Al 7.24064 10.313 10.2542
96 Ni 5.81978 8.86324 8.65867
97 Al 10.2363 1.35952 1.43622
98 Ni 8.57461 -0.0371481 0.0382264
99 Al 10.2362 1.5327 4.3134
100 Ni 8.76977 0.0670927 2.95711
101 Al 10.1787 1.47923 7.40237
102 Ni 8.77439 -0.0294352 5.77572
103 Al 10.1944 1.51516 10.1492
104 Ni 8.80888 0.0368135 8.83109
105 Al 10.2005 4.39717 1.47189
106 Ni 8.75022 2.92127 0.0382198
107 Al 10.1155 4.31618 4.38304
108 Ni 8.86158 2.88841 2.81063
109 Al 10.2253 4.59105 7.2794
110 Ni 8.75665 2.94316 6.04825
111 Al 10.1353 4.67107 10.1777
112 Ni 8.89506 3.06266 8.75357
113 Al 10.1605 7.23608 1.40771
114 Ni 8.47865 5.76183 -0.00250836
115 Al 10.1155 7.25356 4.43129
116 Ni 8.60641 5.93476 2.97124
117 Al 10.1008 7.32807 7.23105
118 Ni 8.66622 5.86334 5.88228
119 Al 10.0228 7.37224 10.1461
120 Ni 8.59874 5.93678 8.61877
121 Al 10.0106 10.2062 1.50023
122 Ni 8.65392 8.75417 0.0486076
123 Al 10.1815 10.1288 4.36705
124 Ni 8.65996 8.6766 2.8643
125 Al 10.1334 10.2842 7.2337
126 Ni 8.68457 8.75667 5.71228
127 Al 10.0662 10.2437 10.2567
128 Ni 8.67386 8.90269 8.72221
ITEM: TIMESTEP
15000
ITEM: NUMBER OF ATOMS
128
ITEM: BOX BOUNDS xy xz yz pp pp pp
-2.5461542998018061e-02 1.1646880522958588e+01 1.9598775901924929e-02
-3.5368119705126530e-02 1.1603743022676110e+01 2.0035884234775134e-02
-1.1605701970056614e-03 1.1582944890020860e+01 -1.3409416852710561e-02
ITEM: ATOMS id element xu yu zu
1 Al 1.43145 1.44868 1.43911
2 Ni -0.0358563 -0.0113766 0.164953
3 Al 1.52291 1.35479 4.34782
4 Ni 0.108345 -0.00624551 2.83921
5 Al 1.37596 1.42799 7.32928
6 Ni 0.0487025 -0.245807 5.77138
7 Al 1.30467 1.46404 10.1626
8 Ni -0.0335971 -0.0269815 8.74677
9 Al 1.41067 4.39582 1.37729
10 Ni -0.0361101 2.83726 0.120977
11 Al 1.41344 4.28351 4.35086
12 Ni -0.0741399 2.99838 2.88476
13 Al 1.45864 4.28285 7.31084
14 Ni 0.0321247 2.91521 5.78504
15 Al 1.3765 4.33335 10.164
16 Ni -0.142516 2.82173 8.74235
17 Al 1.39553 7.19713 1.43038
18 Ni -0.235888 5.76893 -0.0855126
19 Al 1.43289 7.15848 4.29449
20 Ni 0.021555 5.69742 2.94079
21 Al 1.3973 7.18917 7.28553
22 Ni 0.035367 5.79632 5.90589
23 Al 1.49297 7.24161 10.1696
24 Ni 0.0568759 5.74163 8.74255
25 Al 1.5103 10.2053 1.49616
26 Ni 0.0630462 8.70359 -0.0479842
27 Al 1.40325 10.2142 4.30886
28 Ni -0.0344739 8.64675 2.79011
29 Al 1.54105 10.139 7.14423
30 Ni -0.0509771 8.65522 5.85263
31 Al 1.43747 10.1175 10.1861
32 Ni 0.177365 8.82057 8.66818
33 Al 4.24696 1.48959 1.44882
34 Ni 2.83495 0.0251356 -0.10947
35 Al 4.37562 1.52261 4.30055
36 Ni 2.89155 0.0344832 2.93628
37 Al 4.31487 1.50704 7.1858
38 Ni 2.95408 -0.0447443 5.95365
39 Al 4.39602 1.50198 10.2367
40 Ni 2.86886 -0.0483099 8.68522
41 Al 4.45041 4.27137 1.56717
42 Ni 2.84766 2.85666 -0.183113
43 Al 4.24484 4.31365 4.36441
44 Ni 2.71183 2.93112 2.84597
45 Al 4.35263 4.37915 7.2661
46 Ni 2.92077 2.87635 5.88495
47 Al 4.40771 4.23922 10.1811
48 Ni 2.9798 2.92005 8.71191
49 Al 4.31844 7.18348 1.48009
50 Ni 2.8344 5.66497 0.0937626
51 Al 4.35794 7.29081 4.28707
52 Ni 2.99464 5.78372 3.02396
53 Al 4.37566 7.32701 7.16003
54 Ni 2.8766 5.74429 5.65609
55 Al 4.39022 7.15892 10.1961
56 Ni 2.93367 5.81901 8.75397
57 Al 4.3478 10.2685 1.51614
58 Ni 2.8803 8.70852 -0.0248469
59 Al 4.34982 10.194 4.3563
60 Ni 2.80203 8.63978 2.8526
61 Al 4.42519 10.1673 7.15243
62 Ni 2.89606 8.57054 5.73703
63 Al 4.44097 10.1984 10.0913
64 Ni 2.94255 8.6188 8.63146
65 Al 7.34831 1.47508 1.47577
66 Ni 5.89298 0.048602 0.0909306
67 Al 7.33214 1.34604 4.30417
68 Ni 5.73744 0.0778929 2.84349
69 Al 7.24525 1.45385 7.14466
70 Ni 5.68351 0.0228136 5.82899
71 Al 7.29283 1.48001 10.1964
72 Ni 5.80027 0.111637 8.65892
73 Al 7.26037 4.42593 1.41233
74 Ni 5.87773 2.96878 0.0440583
75 Al 7.29202 4.3387 4.38267
76 Ni 5.92522 2.8866 2.86466
77 Al 7.17803 4.40613 7.2513
78 Ni 5.87878 2.77501 5.67767
79 Al 7.20414 4.34423 10.0912
80 Ni 5.88193 2.83813 8.6836
81 Al 7.29266 7.19041 1.5418
82 Ni 5.80783 5.73122 0.0414753
83 Al 7.26212 7.2537 4.3636
84 Ni 5.82698 5.73386 2.95356
85 Al 7.19363 7.28852 7.123
86 Ni 5.76215 5.84644 5.74491
87 Al 7.29021 7.21196 10.0552
88 Ni 5.76792 5.80587 8.64413
89 Al 7.35054 10.0378 1.45164
90 Ni 5.81373 8.7123 0.165921
91 Al 7.34418 10.1723 4.35142
92 Ni 5.92611 8.80226 2.98438
93 Al 7.22442 10.2612 7.13438
94 Ni 5.81886 8.86469 5.63124
95 Al 7.11701 10.2012 10.0739
96 Ni 5.75515 8.74682 8.64033
97 Al 10.1762 1.41491 1.56484
98 Ni 8.82452 -0.104587 -0.0305736
99 Al 10.2995 1.44201 4.27796
100 Ni 8.69172 -0.119202 2.77958
101 Al 10.1818 1.37739 7.16418
102 Ni 8.71498 0.00971888 5.76697
103 Al 10.123 1.32927 10.06
104 Ni 8.65731 -0.0533209 8.56641
105 Al 10.0896 4.28067 1.46562
106 Ni 8.69181 2.83995 -0.0770863
107 Al 10.2758 4.33682 4.39866
108 Ni 8.67832 2.86627 2.99331
109 Al 10.1592 4.41316 7.32437
110 Ni 8.76621 2.86168 5.62116
111 Al 10.0637 4.24011 10.1238
112 Ni 8.53466 2.86304 8.68665
113 Al 10.1292 7.26162 1.47435
114 Ni 8.77069 5.88527 -0.0225043
115 Al 10.091 7.11488 4.37039
116 Ni 8.7582 5.67064 2.86413
117 Al 10.1754 7.22724 7.2623
118 Ni 8.6917 5.67861 5.83878
119 Al 10.279 7.24594 9.98896
120 Ni 8.66351 5.81046 8.71814
121 Al 10.0838 10.0509 1.42317
122 Ni 8.61714 8.63795 -0.0981564
123 Al 10.2131 10.1882 4.27755
124 Ni 8.7603 8.75125 3.05228
125 Al 10.1733 10.1195 7.21224
126 Ni 8.7771 8.7378 5.88093
127 Al 10.1048 10.0265 10.1569
128 Ni 8.77058 8.59302 8.62755
