8
Lattice="3.8375526759 0.0 0.0 0.0 5.0809511797199995 -0.5627367682800001 0.0 -0.01410701412 5.1119999634" Properties=species:S:1:pos:R:3 pbc="T T T"
Al       0.00000000       2.53342208       2.27463160
Al       1.91877635       1.10937902       3.86070166
Al       1.91877635       3.95746515       0.68856153
Ni       0.00000000       0.00000000       0.00000000
Ni       0.00000000       2.54047559      -0.28136838
Ni       0.00000000      -0.00705350       2.55599999
Ni       1.91877635       1.40056362       1.25751258
Ni       1.91877635       3.66628054       3.29175062
