
     Program PWSCF v.7.6 starts on  6Aug2026 at 18: 1:52 

     This program is part of the open-source Quantum ESPRESSO suite
     for quantum simulation of materials; please cite
         "P. Giannozzi et al., J. Phys.:Condens. Matter 21 395502 (2009);
         "P. Giannozzi et al., J. Phys.:Condens. Matter 29 465901 (2017);
         "P. Giannozzi et al., J. Chem. Phys. 152 154105 (2020);
          URL http://www.quantum-espresso.org", 
     in publications or presentations arising from this work. More details at
     http://www.quantum-espresso.org/quote

     Parallel version (MPI), running on     4 processors

     MPI processes distributed on     1 nodes
     3465 MiB available memory on the printing compute node when the environment starts

     Reading input from /home/linuxuser/ni_al_dft_work/cloud_static_inputs/diverse_pilot_01/Al3Ni5/iso_p02/Al3Ni5_iso_p02.in

     Current dimensions of program PWSCF are:
     Max number of different atomic species (ntypx) = 10
     Max number of k-points (npk) =  40000
     Max angular momentum in pseudopotentials (lmaxx) =  4
     file Al.pbe-n-kjpaw_psl.1.0.0.UPF: wavefunction(s)  3S 3P renormalized

     IMPORTANT: XC functional enforced from input :
     Exchange-correlation= PBE
                           (   1   4   3   4   0   0   0)
     Any further DFT definition will be discarded
     Please, verify this is what you really want

     Message from routine setup:
     using ibrav=0 with symmetry is DISCOURAGED, use correct ibrav instead

     K-points division:     npool     =       2
     R & G space division:  proc/nbgrp/npool/nimage =       2
     Subspace diagonalization in iterative solution of the eigenvalue problem:
     a serial algorithm will be used


     Parallelization info
     --------------------
     sticks:   dense  smooth     PW     G-vecs:    dense   smooth      PW
     Min        2009    1002    288               109696    38766    5927
     Max        2010    1003    289               109699    38769    5930
     Sum        4019    2005    577               219395    77535   11857

     Using Slab Decomposition



     bravais-lattice index     =            0
     lattice parameter (alat)  =       7.2519  a.u.
     unit-cell volume          =     672.4408 (a.u.)^3
     number of atoms/cell      =            8
     number of atomic types    =            2
     number of electrons       =        99.00
     number of Kohn-Sham states=           60
     kinetic-energy cutoff     =      90.0000  Ry
     charge density cutoff     =     720.0000  Ry
     scf convergence threshold =      1.0E-10
     mixing beta               =       0.3000
     number of iterations used =            8  plain     mixing
     Exchange-correlation= PBE
                           (   1   4   3   4   0   0   0)

     celldm(1)=   7.251924  celldm(2)=   0.000000  celldm(3)=   0.000000
     celldm(4)=   0.000000  celldm(5)=   0.000000  celldm(6)=   0.000000

     crystal axes: (cart. coord. in units of alat)
               a(1) = (   1.000000   0.000000   0.000000 )  
               a(2) = (   0.000000   1.324008  -0.146639 )  
               a(3) = (   0.000000  -0.003676   1.332099 )  

     reciprocal axes: (cart. coord. in units 2 pi/alat)
               b(1) = (  1.000000 -0.000000 -0.000000 )  
               b(2) = ( -0.000000  0.755513  0.002085 )  
               b(3) = ( -0.000000  0.083168  0.750924 )  


     PseudoPot. # 1 for Al read from file:
     /home/linuxuser/ni_al_dft_work/cloud_static_inputs/pseudo/Al.pbe-n-kjpaw_psl.1.0.0.UPF
     MD5 check sum: cfc449ca30b5f3223ec38ddd88ac046d
     Pseudo is Projector augmented-wave + core cor, Zval =  3.0
     Generated using "atomic" code by A. Dal Corso  v.5.1
     Shape of augmentation charge: PSQ
     Using radial grid of 1135 points,  6 beta functions with: 
                l(1) =   0
                l(2) =   0
                l(3) =   1
                l(4) =   1
                l(5) =   2
                l(6) =   2
     Q(r) pseudized with 0 coefficients 


     PseudoPot. # 2 for Ni read from file:
     /home/linuxuser/ni_al_dft_work/cloud_static_inputs/pseudo/ni_pbe_v1.4.uspp.F.UPF
     MD5 check sum: 1ee80287db30b12d2bc1f57a5b5d6409
     Pseudo is Ultrasoft + core correction, Zval = 18.0
     Generated by new atomic code, or converted to UPF format
     Using radial grid of  865 points,  6 beta functions with: 
                l(1) =   0
                l(2) =   0
                l(3) =   1
                l(4) =   1
                l(5) =   2
                l(6) =   2
     Q(r) pseudized with 10 coefficients,  rinner =    0.980   0.980   0.980
                                                       0.980   0.980

     atomic species   valence    mass     pseudopotential
     Al                3.00    26.98154     Al( 1.00)
     Ni               18.00    58.69340     Ni( 1.00)

      4 Sym. Ops., with inversion, found



   Cartesian axes

     site n.     atom                  positions (alat units)
         1        Al     tau(   1) = (   0.0000000   0.6601661   0.5927297  )
         2        Al     tau(   2) = (   0.5000000   0.2890850   1.0060322  )
         3        Al     tau(   3) = (   0.5000000   1.0312471   0.1794273  )
         4        Ni     tau(   4) = (   0.0000000   0.0000000   0.0000000  )
         5        Ni     tau(   5) = (   0.0000000   0.6620041  -0.0733197  )
         6        Ni     tau(   6) = (   0.0000000  -0.0018380   0.6660495  )
         7        Ni     tau(   7) = (   0.5000000   0.3649627   0.3276861  )
         8        Ni     tau(   8) = (   0.5000000   0.9553694   0.8577734  )

     number of k points=   364  Marzari-Vanderbilt smearing, width (Ry)=  0.0100

     Number of k-points >= 100: set verbosity='high' to print them.

     Dense  grid:   219395 G-vectors     FFT dimensions: (  64,  90,  90)

     Smooth grid:    77535 G-vectors     FFT dimensions: (  45,  60,  60)

     Estimated max dynamical RAM per process >       1.04 GB

     Estimated total dynamical RAM >       4.10 GB

     Check: negative core charge=   -0.000003

     Initial potential from superposition of free atoms

     starting charge      88.9931, renormalised to      99.0000
     Starting wfcs are   77 randomized atomic wfcs
     Checking if some PAW data can be deallocated... 

     total cpu time spent up to now is       28.9 secs

     Self-consistent Calculation

     iteration #  1     ecut=    90.00 Ry     beta= 0.30
     Davidson diagonalization with overlap
     ethr =  1.00E-02,  avg # of iterations =  7.7

     total cpu time spent up to now is      142.5 secs

     total energy              =   -1758.44362389 Ry
     estimated scf accuracy    <     273.14868666 Ry

     iteration #  2     ecut=    90.00 Ry     beta= 0.30
     Davidson diagonalization with overlap
     ethr =  1.00E-02,  avg # of iterations =  5.0

     total cpu time spent up to now is      248.5 secs

     total energy              =   -1832.80835967 Ry
     estimated scf accuracy    <      60.81280336 Ry

     iteration #  3     ecut=    90.00 Ry     beta= 0.30
     Davidson diagonalization with overlap
     ethr =  1.00E-02,  avg # of iterations =  2.0

     total cpu time spent up to now is      321.5 secs

     total energy              =   -1835.19568385 Ry
     estimated scf accuracy    <       9.10413179 Ry

     iteration #  4     ecut=    90.00 Ry     beta= 0.30
     Davidson diagonalization with overlap
     ethr =  9.20E-03,  avg # of iterations =  1.1

     total cpu time spent up to now is      375.5 secs

     total energy              =   -1835.67513069 Ry
     estimated scf accuracy    <       1.75965399 Ry

     iteration #  5     ecut=    90.00 Ry     beta= 0.30
     Davidson diagonalization with overlap
     ethr =  1.78E-03,  avg # of iterations =  2.4

     total cpu time spent up to now is      441.8 secs

     total energy              =   -1834.81725873 Ry
     estimated scf accuracy    <       4.29284100 Ry

     iteration #  6     ecut=    90.00 Ry     beta= 0.30
     Davidson diagonalization with overlap
     ethr =  1.78E-03,  avg # of iterations =  2.3

     total cpu time spent up to now is      507.2 secs

     total energy              =   -1835.19614425 Ry
     estimated scf accuracy    <       0.20367928 Ry

     iteration #  7     ecut=    90.00 Ry     beta= 0.30
     Davidson diagonalization with overlap
     ethr =  2.06E-04,  avg # of iterations =  6.1

     total cpu time spent up to now is      585.2 secs

     total energy              =   -1835.23178570 Ry
     estimated scf accuracy    <       0.69874217 Ry

     iteration #  8     ecut=    90.00 Ry     beta= 0.30
     Davidson diagonalization with overlap
     ethr =  2.06E-04,  avg # of iterations =  1.6

     total cpu time spent up to now is      641.4 secs

     total energy              =   -1835.29977299 Ry
     estimated scf accuracy    <       0.21396011 Ry

     iteration #  9     ecut=    90.00 Ry     beta= 0.30
     Davidson diagonalization with overlap
     ethr =  2.06E-04,  avg # of iterations =  2.0

     total cpu time spent up to now is      700.5 secs

     total energy              =   -1835.12381648 Ry
     estimated scf accuracy    <       1.34655937 Ry

     iteration # 10     ecut=    90.00 Ry     beta= 0.30
     Davidson diagonalization with overlap
     ethr =  2.06E-04,  avg # of iterations =  2.0

     total cpu time spent up to now is      766.0 secs

     total energy              =   -1835.21837685 Ry
     estimated scf accuracy    <       0.00758815 Ry

     iteration # 11     ecut=    90.00 Ry     beta= 0.30
     Davidson diagonalization with overlap
     ethr =  7.66E-06,  avg # of iterations =  5.0

     total cpu time spent up to now is      846.1 secs

     total energy              =   -1835.22153848 Ry
     estimated scf accuracy    <       0.01267884 Ry

     iteration # 12     ecut=    90.00 Ry     beta= 0.30
     Davidson diagonalization with overlap
     ethr =  7.66E-06,  avg # of iterations =  1.0

     total cpu time spent up to now is      899.4 secs

     total energy              =   -1835.22128583 Ry
     estimated scf accuracy    <       0.00255204 Ry

     iteration # 13     ecut=    90.00 Ry     beta= 0.30
     Davidson diagonalization with overlap
     ethr =  2.58E-06,  avg # of iterations =  2.0

     total cpu time spent up to now is      963.6 secs

     total energy              =   -1835.22167834 Ry
     estimated scf accuracy    <       0.00036186 Ry

     iteration # 14     ecut=    90.00 Ry     beta= 0.30
     Davidson diagonalization with overlap
     ethr =  3.66E-07,  avg # of iterations =  1.5

     total cpu time spent up to now is     1019.5 secs

     total energy              =   -1835.22172264 Ry
     estimated scf accuracy    <       0.00001678 Ry

     iteration # 15     ecut=    90.00 Ry     beta= 0.30
     Davidson diagonalization with overlap
     ethr =  1.69E-08,  avg # of iterations =  2.0

     total cpu time spent up to now is     1079.2 secs

     total energy              =   -1835.22172370 Ry
     estimated scf accuracy    <       0.00000172 Ry

     iteration # 16     ecut=    90.00 Ry     beta= 0.30
     Davidson diagonalization with overlap
     ethr =  1.74E-09,  avg # of iterations =  2.6

     total cpu time spent up to now is     1146.4 secs

     total energy              =   -1835.22172402 Ry
     estimated scf accuracy    <       0.00000378 Ry

     iteration # 17     ecut=    90.00 Ry     beta= 0.30
     Davidson diagonalization with overlap
     ethr =  1.74E-09,  avg # of iterations =  1.5

     total cpu time spent up to now is     1202.8 secs

     total energy              =   -1835.22172418 Ry
     estimated scf accuracy    <       0.00000041 Ry

     iteration # 18     ecut=    90.00 Ry     beta= 0.30
     Davidson diagonalization with overlap
     ethr =  4.12E-10,  avg # of iterations =  2.0

     total cpu time spent up to now is     1262.1 secs

     total energy              =   -1835.22172420 Ry
     estimated scf accuracy    <       0.00000007 Ry

     iteration # 19     ecut=    90.00 Ry     beta= 0.30
     Davidson diagonalization with overlap
     ethr =  7.54E-11,  avg # of iterations =  2.0

     total cpu time spent up to now is     1321.0 secs

     total energy              =   -1835.22172420 Ry
     estimated scf accuracy    <          1.9E-09 Ry

     iteration # 20     ecut=    90.00 Ry     beta= 0.30
     Davidson diagonalization with overlap
     ethr =  1.90E-12,  avg # of iterations =  3.7

     total cpu time spent up to now is     1389.4 secs

     total energy              =   -1835.22172421 Ry
     estimated scf accuracy    <          3.0E-10 Ry

     iteration # 21     ecut=    90.00 Ry     beta= 0.30
     Davidson diagonalization with overlap
     ethr =  3.05E-13,  avg # of iterations =  2.0

     total cpu time spent up to now is     1448.2 secs

     total energy              =   -1835.22172421 Ry
     estimated scf accuracy    <          3.6E-10 Ry

     iteration # 22     ecut=    90.00 Ry     beta= 0.30
     Davidson diagonalization with overlap
     ethr =  3.05E-13,  avg # of iterations =  2.0

     total cpu time spent up to now is     1508.4 secs

     End of self-consistent calculation

     Number of k-points >= 100: set verbosity='high' to print the bands.

     the Fermi energy is    13.5270 ev

!    total energy              =   -1835.22172421 Ry
     estimated scf accuracy    <          4.2E-11 Ry
     smearing contrib. (-TS)   =      -0.00058044 Ry
     internal energy E=F+TS    =   -1835.22114376 Ry

     The total energy is F=E-TS. E is the sum of the following terms:
     one-electron contribution =   -1295.72758530 Ry
     hartree contribution      =     698.61998511 Ry
     xc contribution           =    -185.79323343 Ry
     ewald contribution        =    -948.27742185 Ry
     one-center paw contrib.   =    -104.04288830 Ry

     convergence has been achieved in  22 iterations

     Forces acting on atoms (cartesian axes, Ry/au):

     atom    1 type  1   force =     0.00000000    0.00000000    0.00000000
     atom    2 type  1   force =     0.00000000   -0.00161337    0.00179660
     atom    3 type  1   force =     0.00000000    0.00161337   -0.00179660
     atom    4 type  2   force =     0.00000000    0.00000000    0.00000000
     atom    5 type  2   force =     0.00000000    0.00000000    0.00000000
     atom    6 type  2   force =     0.00000000    0.00000000    0.00000000
     atom    7 type  2   force =     0.00000000    0.00031236    0.00027393
     atom    8 type  2   force =     0.00000000   -0.00031236   -0.00027393

     Total force =     0.003465     Total SCF correction =     0.000010


     Computing stress (Cartesian axis) and pressure

          total   stress  (Ry/bohr**3)                   (kbar)     P=      -87.64
  -0.00060463   0.00000000   0.00000000          -88.94        0.00        0.00
   0.00000000  -0.00059152  -0.00000161            0.00      -87.02       -0.24
   0.00000000  -0.00000161  -0.00059118            0.00       -0.24      -86.96


     Writing all to output data dir /home/linuxuser/ni_al_dft_work/cloud_static_inputs/diverse_pilot_01/Al3Ni5/iso_p02/tmp/Al3Ni5_iso_p02.save/ :
     XML data file, charge density, pseudopotentials, collected wavefunctions

     init_run     :     27.50s CPU     28.73s WALL (       1 calls)
     electrons    :   1380.34s CPU   1479.54s WALL (       1 calls)
     forces       :      7.23s CPU      7.45s WALL (       1 calls)
     stress       :     26.79s CPU     27.40s WALL (       1 calls)

     Called by init_run:
     wfcinit      :     25.26s CPU     26.23s WALL (       1 calls)
     potinit      :      0.50s CPU      0.56s WALL (       1 calls)
     hinit0       :      0.41s CPU      0.43s WALL (       1 calls)

     Called by electrons:
     c_bands      :   1198.45s CPU   1285.10s WALL (      22 calls)
     sum_band     :    170.62s CPU    179.55s WALL (      22 calls)
     v_of_rho     :      1.60s CPU      2.01s WALL (      23 calls)
     newd         :      4.46s CPU      7.78s WALL (      23 calls)
     PAW_pot      :      5.37s CPU      5.48s WALL (      23 calls)
     mix_rho      :      0.18s CPU      0.19s WALL (      22 calls)

     Called by c_bands:
     init_us_2    :     19.20s CPU     19.35s WALL (    8554 calls)
     cegterg      :   1123.46s CPU   1209.27s WALL (    4004 calls)

     Called by *egterg:
     cdiaghg      :     38.50s CPU     38.61s WALL (   14881 calls)
     h_psi        :    786.99s CPU    830.19s WALL (   15063 calls)
     s_psi        :     69.43s CPU     70.30s WALL (   15063 calls)
     g_psi        :      5.40s CPU      5.44s WALL (   10877 calls)

     Called by h_psi:
     h_psi:calbec :     80.24s CPU     81.07s WALL (   15063 calls)
     vloc_psi     :    629.53s CPU    656.00s WALL (   15063 calls)
     add_vuspsi   :     71.43s CPU     71.55s WALL (   15063 calls)

     General routines
     calbec       :    132.56s CPU    133.83s WALL (   22161 calls)
     fft          :      0.91s CPU      1.10s WALL (     322 calls)
     ffts         :      0.19s CPU      0.19s WALL (      45 calls)
     fftw         :    684.46s CPU    713.25s WALL ( 1442900 calls)
     interpolate  :      0.23s CPU      0.24s WALL (      23 calls)

     Parallel routines

     PWSCF        :  24m 2.46s CPU  25m45.17s WALL


   This run was terminated on:  18:27:37   6Aug2026            

=------------------------------------------------------------------------------=
   JOB DONE.
=------------------------------------------------------------------------------=
Note: The following floating-point exceptions are signalling: IEEE_UNDERFLOW_FLAG IEEE_DENORMAL
Note: The following floating-point exceptions are signalling: IEEE_UNDERFLOW_FLAG IEEE_DENORMAL
Note: The following floating-point exceptions are signalling: IEEE_UNDERFLOW_FLAG IEEE_DENORMAL
Note: The following floating-point exceptions are signalling: IEEE_UNDERFLOW_FLAG IEEE_DENORMAL
