
     Program PWSCF v.7.6 starts on  6Aug2026 at 14:21:55 

     This program is part of the open-source Quantum ESPRESSO suite
     for quantum simulation of materials; please cite
         "P. Giannozzi et al., J. Phys.:Condens. Matter 21 395502 (2009);
         "P. Giannozzi et al., J. Phys.:Condens. Matter 29 465901 (2017);
         "P. Giannozzi et al., J. Chem. Phys. 152 154105 (2020);
          URL http://www.quantum-espresso.org", 
     in publications or presentations arising from this work. More details at
     http://www.quantum-espresso.org/quote

     Parallel version (MPI), running on     4 processors

     MPI processes distributed on     1 nodes
     1872 MiB available memory on the printing compute node when the environment starts

     Reading input from /home/linuxuser/ni_al_dft_work/cloud_static_inputs/diverse_pilot_01/AlNi/rattle_003/AlNi_rattle_003.in

     Current dimensions of program PWSCF are:
     Max number of different atomic species (ntypx) = 10
     Max number of k-points (npk) =  40000
     Max angular momentum in pseudopotentials (lmaxx) =  4
     file Al.pbe-n-kjpaw_psl.1.0.0.UPF: wavefunction(s)  3S 3P renormalized

     IMPORTANT: XC functional enforced from input :
     Exchange-correlation= PBE
                           (   1   4   3   4   0   0   0)
     Any further DFT definition will be discarded
     Please, verify this is what you really want


     K-points division:     npool     =       2
     R & G space division:  proc/nbgrp/npool/nimage =       2
     Subspace diagonalization in iterative solution of the eigenvalue problem:
     a serial algorithm will be used


     Parallelization info
     --------------------
     sticks:   dense  smooth     PW     G-vecs:    dense   smooth      PW
     Min         862     430    130                26677     9426    1595
     Max         863     431    131                26678     9427    1596
     Sum        1725     861    261                53355    18853    3191

     Using Slab Decomposition



     bravais-lattice index     =            0
     lattice parameter (alat)  =       5.4689  a.u.
     unit-cell volume          =     163.5671 (a.u.)^3
     number of atoms/cell      =            2
     number of atomic types    =            2
     number of electrons       =        21.00
     number of Kohn-Sham states=           15
     kinetic-energy cutoff     =      90.0000  Ry
     charge density cutoff     =     720.0000  Ry
     scf convergence threshold =      1.0E-10
     mixing beta               =       0.3000
     number of iterations used =            8  plain     mixing
     Exchange-correlation= PBE
                           (   1   4   3   4   0   0   0)

     celldm(1)=   5.468883  celldm(2)=   0.000000  celldm(3)=   0.000000
     celldm(4)=   0.000000  celldm(5)=   0.000000  celldm(6)=   0.000000

     crystal axes: (cart. coord. in units of alat)
               a(1) = (   1.000000   0.000000  -0.000000 )  
               a(2) = (  -0.000000   1.000000  -0.000000 )  
               a(3) = (   0.000000  -0.000000   1.000000 )  

     reciprocal axes: (cart. coord. in units 2 pi/alat)
               b(1) = (  1.000000  0.000000  0.000000 )  
               b(2) = (  0.000000  1.000000  0.000000 )  
               b(3) = (  0.000000  0.000000  1.000000 )  


     PseudoPot. # 1 for Al read from file:
     /home/linuxuser/ni_al_dft_work/cloud_static_inputs/pseudo/Al.pbe-n-kjpaw_psl.1.0.0.UPF
     MD5 check sum: cfc449ca30b5f3223ec38ddd88ac046d
     Pseudo is Projector augmented-wave + core cor, Zval =  3.0
     Generated using "atomic" code by A. Dal Corso  v.5.1
     Shape of augmentation charge: PSQ
     Using radial grid of 1135 points,  6 beta functions with: 
                l(1) =   0
                l(2) =   0
                l(3) =   1
                l(4) =   1
                l(5) =   2
                l(6) =   2
     Q(r) pseudized with 0 coefficients 


     PseudoPot. # 2 for Ni read from file:
     /home/linuxuser/ni_al_dft_work/cloud_static_inputs/pseudo/ni_pbe_v1.4.uspp.F.UPF
     MD5 check sum: 1ee80287db30b12d2bc1f57a5b5d6409
     Pseudo is Ultrasoft + core correction, Zval = 18.0
     Generated by new atomic code, or converted to UPF format
     Using radial grid of  865 points,  6 beta functions with: 
                l(1) =   0
                l(2) =   0
                l(3) =   1
                l(4) =   1
                l(5) =   2
                l(6) =   2
     Q(r) pseudized with 10 coefficients,  rinner =    0.980   0.980   0.980
                                                       0.980   0.980

     atomic species   valence    mass     pseudopotential
     Al                3.00    26.98154     Al( 1.00)
     Ni               18.00    58.69340     Ni( 1.00)

     No symmetry found



   Cartesian axes

     site n.     atom                  positions (alat units)
         1        Al     tau(   1) = (   0.5026521   0.4857621   0.4896654  )
         2        Ni     tau(   2) = (   0.9973479   0.0142379   0.0103346  )

     number of k points=  2052  Marzari-Vanderbilt smearing, width (Ry)=  0.0100

     Number of k-points >= 100: set verbosity='high' to print them.

     Dense  grid:    53355 G-vectors     FFT dimensions: (  48,  48,  48)

     Smooth grid:    18853 G-vectors     FFT dimensions: (  36,  36,  36)

     Estimated max dynamical RAM per process >     338.68 MB

     Estimated total dynamical RAM >       1.31 GB

     Check: negative core charge=   -0.000002

     Initial potential from superposition of free atoms

     starting charge      18.9977, renormalised to      21.0000
     Starting wfcs are   17 randomized atomic wfcs
     Checking if some PAW data can be deallocated... 

     total cpu time spent up to now is        8.7 secs

     Self-consistent Calculation

     iteration #  1     ecut=    90.00 Ry     beta= 0.30
     Davidson diagonalization with overlap
     ethr =  1.00E-02,  avg # of iterations =  6.1

     total cpu time spent up to now is       40.2 secs

     total energy              =    -367.34183412 Ry
     estimated scf accuracy    <      54.69126989 Ry

     iteration #  2     ecut=    90.00 Ry     beta= 0.30
     Davidson diagonalization with overlap
     ethr =  1.00E-02,  avg # of iterations =  3.1

     total cpu time spent up to now is       65.1 secs

     total energy              =    -382.44307485 Ry
     estimated scf accuracy    <      12.64577045 Ry

     iteration #  3     ecut=    90.00 Ry     beta= 0.30
     Davidson diagonalization with overlap
     ethr =  1.00E-02,  avg # of iterations =  2.0

     total cpu time spent up to now is       84.8 secs

     total energy              =    -382.95064440 Ry
     estimated scf accuracy    <       2.04397840 Ry

     iteration #  4     ecut=    90.00 Ry     beta= 0.30
     Davidson diagonalization with overlap
     ethr =  9.73E-03,  avg # of iterations =  1.0

     total cpu time spent up to now is      100.7 secs

     total energy              =    -383.29023407 Ry
     estimated scf accuracy    <       0.62750896 Ry

     iteration #  5     ecut=    90.00 Ry     beta= 0.30
     Davidson diagonalization with overlap
     ethr =  2.99E-03,  avg # of iterations =  3.0

     total cpu time spent up to now is      124.2 secs

     total energy              =    -382.16417404 Ry
     estimated scf accuracy    <       7.71635241 Ry

     iteration #  6     ecut=    90.00 Ry     beta= 0.30
     Davidson diagonalization with overlap
     ethr =  2.99E-03,  avg # of iterations =  2.7

     total cpu time spent up to now is      146.2 secs

     total energy              =    -382.91203037 Ry
     estimated scf accuracy    <       0.13638065 Ry

     iteration #  7     ecut=    90.00 Ry     beta= 0.30
     Davidson diagonalization with overlap
     ethr =  6.49E-04,  avg # of iterations =  1.4

     total cpu time spent up to now is      162.3 secs

     total energy              =    -382.87268394 Ry
     estimated scf accuracy    <       0.37339451 Ry

     iteration #  8     ecut=    90.00 Ry     beta= 0.30
     Davidson diagonalization with overlap
     ethr =  6.49E-04,  avg # of iterations =  1.0

     total cpu time spent up to now is      177.6 secs

     total energy              =    -382.87200385 Ry
     estimated scf accuracy    <       0.08078280 Ry

     iteration #  9     ecut=    90.00 Ry     beta= 0.30
     Davidson diagonalization with overlap
     ethr =  3.85E-04,  avg # of iterations =  1.0

     total cpu time spent up to now is      193.0 secs

     total energy              =    -382.87418744 Ry
     estimated scf accuracy    <       0.00781462 Ry

     iteration # 10     ecut=    90.00 Ry     beta= 0.30
     Davidson diagonalization with overlap
     ethr =  3.72E-05,  avg # of iterations =  2.2

     total cpu time spent up to now is      210.4 secs

     total energy              =    -382.87504796 Ry
     estimated scf accuracy    <       0.00035928 Ry

     iteration # 11     ecut=    90.00 Ry     beta= 0.30
     Davidson diagonalization with overlap
     c_bands:  1 eigenvalues not converged
     ethr =  1.71E-06,  avg # of iterations =  3.8

     total cpu time spent up to now is      230.2 secs

     total energy              =    -382.87509868 Ry
     estimated scf accuracy    <       0.00007863 Ry

     iteration # 12     ecut=    90.00 Ry     beta= 0.30
     Davidson diagonalization with overlap
     ethr =  3.74E-07,  avg # of iterations =  2.0

     total cpu time spent up to now is      248.3 secs

     total energy              =    -382.87511702 Ry
     estimated scf accuracy    <       0.00003159 Ry

     iteration # 13     ecut=    90.00 Ry     beta= 0.30
     Davidson diagonalization with overlap
     ethr =  1.50E-07,  avg # of iterations =  1.0

     total cpu time spent up to now is      264.0 secs

     total energy              =    -382.87511548 Ry
     estimated scf accuracy    <       0.00001430 Ry

     iteration # 14     ecut=    90.00 Ry     beta= 0.30
     Davidson diagonalization with overlap
     ethr =  6.81E-08,  avg # of iterations =  1.0

     total cpu time spent up to now is      279.9 secs

     total energy              =    -382.87511631 Ry
     estimated scf accuracy    <       0.00000138 Ry

     iteration # 15     ecut=    90.00 Ry     beta= 0.30
     Davidson diagonalization with overlap
     ethr =  6.58E-09,  avg # of iterations =  1.1

     total cpu time spent up to now is      295.5 secs

     total energy              =    -382.87511583 Ry
     estimated scf accuracy    <       0.00000182 Ry

     iteration # 16     ecut=    90.00 Ry     beta= 0.30
     Davidson diagonalization with overlap
     ethr =  6.58E-09,  avg # of iterations =  2.0

     total cpu time spent up to now is      313.5 secs

     total energy              =    -382.87511610 Ry
     estimated scf accuracy    <       0.00000007 Ry

     iteration # 17     ecut=    90.00 Ry     beta= 0.30
     Davidson diagonalization with overlap
     ethr =  3.43E-10,  avg # of iterations =  1.2

     total cpu time spent up to now is      329.7 secs

     total energy              =    -382.87511611 Ry
     estimated scf accuracy    <       0.00000002 Ry

     iteration # 18     ecut=    90.00 Ry     beta= 0.30
     Davidson diagonalization with overlap
     ethr =  7.39E-11,  avg # of iterations =  1.8

     total cpu time spent up to now is      346.9 secs

     total energy              =    -382.87511611 Ry
     estimated scf accuracy    <          2.8E-10 Ry

     iteration # 19     ecut=    90.00 Ry     beta= 0.30
     Davidson diagonalization with overlap
     ethr =  1.32E-12,  avg # of iterations =  2.3

     total cpu time spent up to now is      365.1 secs

     End of self-consistent calculation

     Number of k-points >= 100: set verbosity='high' to print the bands.

     the Fermi energy is    13.5898 ev

!    total energy              =    -382.87511611 Ry
     estimated scf accuracy    <          3.0E-11 Ry
     smearing contrib. (-TS)   =       0.00010601 Ry
     internal energy E=F+TS    =    -382.87522212 Ry

     The total energy is F=E-TS. E is the sum of the following terms:
     one-electron contribution =    -264.56604359 Ry
     hartree contribution      =     143.23631677 Ry
     xc contribution           =     -38.31313414 Ry
     ewald contribution        =    -188.54718951 Ry
     one-center paw contrib.   =     -34.68517166 Ry

     convergence has been achieved in  19 iterations

     Forces acting on atoms (cartesian axes, Ry/au):

     atom    1 type  1   force =    -0.00352889    0.01853464    0.01359666
     atom    2 type  2   force =     0.00352889   -0.01853464   -0.01359666

     Total force =     0.032889     Total SCF correction =     0.000012


     Computing stress (Cartesian axis) and pressure

          total   stress  (Ry/bohr**3)                   (kbar)     P=        6.79
   0.00005676  -0.00001215  -0.00000892            8.35       -1.79       -1.31
  -0.00001215   0.00003584   0.00004677           -1.79        5.27        6.88
  -0.00000892   0.00004677   0.00004587           -1.31        6.88        6.75


     Writing all to output data dir /home/linuxuser/ni_al_dft_work/cloud_static_inputs/diverse_pilot_01/AlNi/rattle_003/tmp/AlNi_rattle_003.save/ :
     XML data file, charge density, pseudopotentials, collected wavefunctions

     init_run     :      7.84s CPU      8.48s WALL (       1 calls)
     electrons    :    335.25s CPU    356.43s WALL (       1 calls)
     forces       :      1.17s CPU      1.24s WALL (       1 calls)
     stress       :      5.94s CPU      6.16s WALL (       1 calls)

     Called by init_run:
     wfcinit      :      7.04s CPU      7.60s WALL (       1 calls)
     potinit      :      0.22s CPU      0.25s WALL (       1 calls)
     hinit0       :      0.42s CPU      0.43s WALL (       1 calls)

     Called by electrons:
     c_bands      :    282.09s CPU    298.35s WALL (      19 calls)
     sum_band     :     50.68s CPU     54.56s WALL (      19 calls)
     v_of_rho     :      0.30s CPU      0.36s WALL (      20 calls)
     newd         :      0.90s CPU      1.63s WALL (      20 calls)
     PAW_pot      :      1.36s CPU      1.65s WALL (      20 calls)
     mix_rho      :      0.04s CPU      0.04s WALL (      19 calls)

     Called by c_bands:
     init_us_2    :     10.02s CPU     10.47s WALL (   42066 calls)
     cegterg      :    252.32s CPU    267.97s WALL (   19494 calls)

     Called by *egterg:
     cdiaghg      :      9.34s CPU      9.76s WALL (   60824 calls)
     h_psi        :    217.93s CPU    232.39s WALL (   61850 calls)
     s_psi        :      5.75s CPU      6.12s WALL (   61850 calls)
     g_psi        :      1.60s CPU      1.65s WALL (   41330 calls)

     Called by h_psi:
     h_psi:calbec :      7.21s CPU      7.71s WALL (   61850 calls)
     vloc_psi     :    203.87s CPU    217.42s WALL (   61850 calls)
     add_vuspsi   :      5.91s CPU      6.31s WALL (   61850 calls)

     General routines
     calbec       :     12.28s CPU     13.03s WALL (   98786 calls)
     fft          :      0.36s CPU      0.39s WALL (     283 calls)
     ffts         :      0.12s CPU      0.12s WALL (      39 calls)
     fftw         :    221.24s CPU    236.01s WALL ( 1750466 calls)
     interpolate  :      0.13s CPU      0.13s WALL (      20 calls)

     Parallel routines

     PWSCF        :   5m50.78s CPU   6m13.51s WALL


   This run was terminated on:  14:28: 9   6Aug2026            

=------------------------------------------------------------------------------=
   JOB DONE.
=------------------------------------------------------------------------------=
Note: The following floating-point exceptions are signalling: IEEE_UNDERFLOW_FLAG IEEE_DENORMAL
Note: The following floating-point exceptions are signalling: IEEE_UNDERFLOW_FLAG IEEE_DENORMAL
Note: The following floating-point exceptions are signalling: IEEE_UNDERFLOW_FLAG IEEE_DENORMAL
Note: The following floating-point exceptions are signalling: IEEE_UNDERFLOW_FLAG IEEE_DENORMAL
